108
#Comment!
LJ          -2.52522        -2.35488         2.41351
LJ          -1.73598        -1.60731         2.51259
LJ          -2.38263        -1.52217        -1.64624
LJ          -1.70019         2.55584        -1.66283
LJ         -0.811244         2.38358        -2.54821
LJ        -0.0255521        -1.87287        -2.42717
LJ          -1.07571        -1.52788        -1.76902
LJ        -0.0820277         2.24807        -1.84964
LJ          0.813879         2.55068         2.52856
LJ           1.77284        -1.66954         2.52908
LJ          0.772017        -1.91032        -1.71157
LJ           1.97183         2.36242        -1.83693
LJ           2.50258       -0.816839         2.50871
LJ          -1.71484        0.050841        -2.54389
LJ           2.56114       0.0557349        -1.77192
LJ          -1.83429       -0.511438        -1.68037
LJ          -1.01989         -0.7851        -2.42143
LJ        -0.0702485       -0.134154        -2.43522
LJ         -0.979385       0.0384499         -1.8077
LJ        -0.0927442         -1.1411         -1.8229
LJ           0.81352        -1.08818        -2.52812
LJ           1.72364       0.0153033         2.48321
LJ           0.93964        0.112227        -1.88792
LJ           1.68287       -0.674894        -1.75662
LJ          -2.52649        0.962021        -2.52999
LJ          -1.66373         1.84009         2.42489
LJ          -2.41347         1.58811        -1.65832
LJ          -1.68079        0.830871        -1.77243
LJ         -0.502413        0.905723        -2.52789
LJ          0.127833         1.73579          2.3666
LJ          -1.17167         1.70218        -1.80624
LJ          0.103411         1.13138        -1.75479
LJ          0.850477        0.943467         2.52982
LJ             1.697         1.75589         2.40232
LJ          0.935446         1.92475        -1.83668
LJ           1.63743         1.10733         -1.6421
LJ           2.54002         2.46162       -0.730456
LJ          -1.52091        -1.66852       -0.765843
LJ          -2.35967          -1.775        -0.13981
LJ          -1.80295         2.38565      -0.0231559
LJ         -0.706558        -2.56003        -1.03052
LJ          0.153661        -1.71522       -0.775938
LJ         -0.711486        -1.95455        -0.20456
LJ         -0.227034         2.31197       0.0692846
LJ          0.872384        -2.53693       -0.957945
LJ           1.80204        -1.77933        -1.03896
LJ          0.743368        -1.94971        0.255702
LJ           1.68997        -2.50966      -0.0837404
LJ          -2.46411       -0.904831       -0.721063
LJ          -1.96807      -0.0178763       -0.750581
LJ          -2.53453        0.252188       0.0594909
LJ          -1.76289       -0.697525        0.142025
LJ         -0.718335       -0.871914       -0.692349
LJ         -0.114998        0.200771        -1.04485
LJ         -0.608741        0.131699      -0.0631176
LJ        -0.0377046        -0.67669       0.0863666
LJ          0.960357        -1.07237       -0.857032
LJ           1.89871       -0.194334       -0.581312
LJ          0.721597       0.0272835       0.0871652
LJ            1.8796        -1.15339       -0.114413
LJ          -2.55741        0.940271       -0.788744
LJ          -1.68375         1.89425       -0.870219
LJ           2.42508         1.69929      -0.0352283
LJ          -1.97182         1.11678        0.384705
LJ          -1.07839        0.733612       -0.915273
LJ         0.0924049         1.66655       -0.942257
LJ         -0.840025         1.45329       -0.193048
LJ         0.0436376        0.894699       -0.201741
LJ           1.03613        0.947994       -0.728293
LJ           1.63343         1.76487        -0.68501
LJ          0.793338         1.95452      -0.0407613
LJ           1.70888        0.828503      -0.0962428
LJ           2.44739         2.37148         0.68803
LJ          -1.36934        -1.75718        0.659222
LJ           2.48173        -1.39337         1.67593
LJ          -2.01181        -2.35806         1.37009
LJ         -0.784837         2.55221        0.994867
LJ          0.135605        -1.49629        0.971155
LJ         -0.935043        -1.84834         1.85636
LJ           0.04894        -2.32968         1.67013
LJ          0.764242         2.36477        0.981748
LJ           1.83262         -1.6404        0.864343
LJ          0.948355        -1.79866         1.78424
LJ           1.79505        -2.42722         1.71667
LJ           2.50272        -0.64684        0.827139
LJ          -1.56207       0.0857118         0.80986
LJ           2.53908       0.0227542         1.75149
LJ          -1.72172        -0.74794         1.76479
LJ         -0.788198        -1.05782         1.04427
LJ          0.196321       -0.157879         1.06058
LJ          -0.93097        0.189431          1.9386
LJ         0.0958062       -0.920138          1.8162
LJ           1.02444       -0.974527        0.830481
LJ           1.61784       -0.176262        0.567695
LJ          0.607007       0.0373478         1.97443
LJ           1.53834       -0.818778         1.77845
LJ           2.20931        0.730458        0.880122
LJ          -1.55557         1.92174        0.999732
LJ           2.44679         1.66301         1.50976
LJ          -1.85933        0.874671         1.56076
LJ          -0.81606        0.742039        0.766388
LJ          0.234864         1.42621        0.819987
LJ         -0.819292          1.4007         1.59815
LJ          0.152893        0.865797           1.712
LJ           1.16959        0.733088        0.953115
LJ            1.4532         1.73975        0.641443
LJ          0.972254         1.51959         1.60129
LJ           1.65222        0.731121         1.89763
