108
#Comment!
LJ           2.32647        -2.56349         2.49758
LJ          -1.66652        -1.86531         2.53156
LJ          -2.50376        -1.69958        -1.82679
LJ          -1.83725         2.50588         -1.7555
LJ         -0.962401         2.45833         2.54576
LJ         -0.104173        -1.90241        -2.40044
LJ         -0.853132        -1.60912        -1.57851
LJ       -0.00181536         2.49321        -1.74107
LJ          0.912384         2.50417        -2.44461
LJ           1.64804        -1.81171        -2.50486
LJ          0.807019        -1.50669        -1.52259
LJ           1.90494        -2.51136        -1.62706
LJ            2.4509       -0.891548         2.54016
LJ          -1.64002       0.0655571        -2.53512
LJ          -2.43779        0.127452        -1.78148
LJ           -1.8187       -0.905538         -1.6478
LJ          -1.23077       -0.895311          2.4921
LJ         -0.046974      -0.0598244         2.55572
LJ         -0.748267        0.152745        -1.68932
LJ          0.132056       -0.797485        -1.76054
LJ          0.915971       -0.952465        -2.52491
LJ           1.75294       0.0881731          -2.557
LJ          0.749065        0.169781        -1.65234
LJ           1.60713        -0.79295        -1.77618
LJ          -2.50135        0.891902         2.50612
LJ          -1.78613         1.84223         2.45944
LJ          -2.50907         1.66716        -1.82107
LJ          -1.69477        0.977671        -1.73776
LJ         -0.642008        0.981411         2.29535
LJ          0.150603         1.72278         2.40872
LJ         -0.817231         1.69012        -1.70647
LJ        -0.0954394        0.964578        -1.73257
LJ          0.789537        0.849951        -2.40729
LJ           1.79858         1.81929        -2.44262
LJ           0.97322         1.71016        -1.63555
LJ           1.72178        0.754713        -1.67173
LJ           -2.4877        -2.54497       -0.815424
LJ          -1.51254        -1.77297        -0.69199
LJ           2.46214        -1.81505      -0.0729078
LJ          -1.75534         2.50962      -0.0419781
LJ         -0.806254         2.48117       -0.843973
LJ        -0.0381381        -1.72006       -0.852424
LJ         -0.852612        -1.78539       0.0668112
LJ         -0.137548         2.32918       0.0160602
LJ          0.918686         2.45695       -0.865472
LJ           1.57502        -1.74991       -0.845055
LJ          0.746557        -1.80499        0.147659
LJ           1.63813        -2.48349      -0.0413622
LJ          -2.41883        -0.96776       -0.800584
LJ          -1.91221        0.132033       -0.779851
LJ           2.47088        0.118861      -0.0546277
LJ          -1.71586       -0.800202      -0.0822176
LJ         -0.853451        -0.70014       -0.776591
LJ        -0.0121216       0.0278272       -0.744804
LJ          -0.87847       0.0233335      0.00113155
LJ        -0.0205372       -0.729691      -0.0542357
LJ          0.939593       -0.812286       -0.802884
LJ           1.81406      -0.0979183       -0.775481
LJ          0.952757      -0.0303127      -0.0717397
LJ           1.68824        -1.07077       -0.111685
LJ          -2.54145         1.07215       -0.740721
LJ          -1.67445          1.7524       -0.967633
LJ           2.51233          1.7616         0.16746
LJ          -1.86688        0.881943         0.02348
LJ         -0.798733         0.72555         -0.8684
LJ        -0.0311096         1.73887        -0.93643
LJ         -0.947104         1.61945       -0.162276
LJ         -0.117507           1.072      -0.0525845
LJ          0.694854        0.932491       -0.797385
LJ           1.81898         1.87516       -0.911708
LJ          0.685255         1.78262      -0.0555764
LJ           1.66328        0.853531      -0.0103695
LJ           2.52017         2.52483        0.915974
LJ          -1.52217        -1.73712        0.898549
LJ           2.45076        -1.67857         1.64991
LJ          -1.85925         2.56084          1.6303
LJ         -0.831949         2.54823        0.821669
LJ         0.0233826        -1.66467        0.814613
LJ         -0.820623        -1.67952         1.71116
LJ          0.178164        -2.46883         1.77582
LJ           1.11741         2.55103        0.936863
LJ           1.82561        -1.74431        0.845667
LJ          0.878707        -1.58775         1.61061
LJ           1.66835        -2.49992         1.80997
LJ           2.44643       -0.672612        0.844714
LJ           -1.8492       0.0118535        0.946038
LJ          -2.48316      -0.0203058         1.95868
LJ          -1.85135       -0.850533         1.71543
LJ         -0.695497       -0.835637        0.747825
LJ          0.118978      -0.0652503        0.806231
LJ         -0.689827       0.0854808         1.68788
LJ        -0.0941652       -0.913141         1.70182
LJ          0.745265       -0.906684        0.835766
LJ           1.56142      -0.0226252        0.774927
LJ          0.780165       -0.100187         1.82491
LJ           1.72723        -0.80409         1.67271
LJ           2.40627        0.794006        0.814681
LJ          -1.74982         1.77069        0.777162
LJ          -2.55856         1.71479         1.74283
LJ          -1.72755        0.781374         1.65871
LJ         -0.900556        0.725897        0.799606
LJ         0.0559127         1.61071        0.902144
LJ         -0.910007         1.69301         1.58336
LJ       -0.00933004        0.888304         1.53944
LJ          0.943387        0.799862        0.958312
LJ           1.74355          1.7468        0.843143
LJ          0.969755         1.64754         1.69412
LJ            1.6575         1.02191          1.7164
