108
#Comment!
LJ           2.21322         2.00032         1.34417
LJ          -1.79047        -1.70706      -0.0659956
LJ         -0.161804        -2.36475        0.482312
LJ         -0.739629        -2.45154       -0.321075
LJ          -1.74489        0.551982         1.56383
LJ           1.59244       -0.432995        0.385605
LJ           1.55528        -0.10592         1.58932
LJ          0.279485        0.858254         1.50712
LJ        -0.0922597         1.48909         2.32512
LJ          -1.78228         2.17759        -1.72276
LJ            1.8922        -2.07501         1.87738
LJ           1.87378         1.89661        -2.36678
LJ         0.0935983         1.69836        -1.84667
LJ          0.457367         1.61475        0.720203
LJ          0.983435          1.3822        -1.37237
LJ          0.750586         2.37276        0.199707
LJ          0.749609         -2.4026         2.34144
LJ         -0.101261      -0.0231358         2.48187
LJ         0.0389639          2.3495         1.52525
LJ          -1.93983         1.33703       -0.933942
LJ          -1.97656       -0.941358        0.747813
LJ         -0.498164        -2.21203          -1.261
LJ           2.43261        -2.03166       -0.771127
LJ          -1.46474       -0.694993         -1.2963
LJ           1.27984         2.46442         1.10099
LJ         -0.301791        -2.03984         2.11234
LJ           1.96747        -1.24476         -1.2454
LJ           1.97427       -0.920354         2.13332
LJ          -1.64571         2.43428        0.358613
LJ          0.426276       -0.195432         1.68776
LJ          -2.26286        -1.42106         2.21138
LJ           1.34768       -0.304496       -0.904516
LJ          -2.27947       -0.519473       -0.261819
LJ           1.66589        0.884218         -1.9799
LJ          0.872287        -1.09532       -0.508116
LJ          -1.26265         -1.5823         1.82236
LJ         -0.803903         1.91683        0.691655
LJ           1.35712        -1.24403        -2.29364
LJ         0.0180836         -1.3408         1.04491
LJ            -1.338         1.60709       -0.155105
LJ          -0.54119         1.83273       -0.965665
LJ          -1.57617         2.44967       -0.785787
LJ          -2.33674         2.37304         2.17213
LJ          0.280593        -1.02568        -2.55001
LJ         -0.764994        -1.54273        -2.13323
LJ          -2.41561       -0.497533        -1.27959
LJ           1.81393        -0.21781        -1.88326
LJ        -0.0639013         -0.1065       -0.484132
LJ           1.26413        -1.88899        0.410584
LJ          -1.15865         2.40938         1.70331
LJ          -1.66012         1.50923        -2.51389
LJ          -1.73713        0.437587        0.553689
LJ         -0.989593        -1.70388        0.862322
LJ          -2.50516       0.0983149        -2.50418
LJ          -1.92669         0.45764       -0.586946
LJ         -0.639964       -0.510702        -1.96376
LJ          0.485553         2.30593        -1.06061
LJ           2.39488        -2.20814        0.377853
LJ           0.58905        0.765927        -2.44626
LJ         -0.852565         2.11846        -2.37145
LJ           1.45048         2.52153       -0.646118
LJ        -0.0938851         1.66239       -0.107586
LJ           2.48322        -2.21162        -2.05211
LJ          -1.59114        -2.19134        -2.56067
LJ          0.621487       -0.631395        -1.71774
LJ          -2.55158         1.27254        -1.83693
LJ         -0.669321         1.31476         1.53468
LJ         -0.673186        0.162033         1.52579
LJ           1.81938         1.26587       -0.654636
LJ          -1.06683       -0.542437        -0.32175
LJ           2.21167        0.442871         -1.1222
LJ           2.25366         2.19547        -1.33417
LJ          -2.18391        -2.10816         1.39638
LJ         -0.463663       -0.860475         1.84747
LJ          -1.78117        0.521563        -1.65806
LJ          0.834255          1.8185        -2.48996
LJ          0.177387        -2.16663         -2.0306
LJ          0.324061          -1.999       -0.415856
LJ           2.02905        -1.25469       -0.259293
LJ          -2.55892          1.2129         2.22827
LJ          0.968384       -0.142631         2.54725
LJ          0.704525        0.397798       -0.324795
LJ          -1.07701         -1.4832       -0.824778
LJ         -0.816243         1.09089        -1.67443
LJ           2.53007         2.18585       -0.288796
LJ           1.37969        0.624963        0.741455
LJ          -2.52156        0.102385         1.14403
LJ         -0.995697        0.416187        -2.38791
LJ          0.860812         1.51205       -0.367034
LJ           2.44195        -1.00199        -2.13086
LJ          0.971152        -1.45421         1.32531
LJ          -1.75279         1.56926         1.36767
LJ           1.42632          1.3216         1.73642
LJ           2.20573        -1.27781        0.881057
LJ          0.578821       -0.188733        0.530782
LJ          -1.95122        -1.58601        -1.71303
LJ         -0.804098       0.0640813        -1.09584
LJ          0.968235        -1.66795         -1.3432
LJ         -0.517317        -0.55804        0.557425
LJ        -0.0434811        -1.07109        -1.03617
LJ        -0.0499085        0.932616         -0.9632
LJ           1.94391         1.58933        0.400947
LJ          -1.73117       -0.626007        -2.32445
LJ         -0.439561        0.793777         0.69945
LJ          -1.48053       -0.392976         1.56845
LJ            2.4098         0.45614        0.119433
LJ         -0.462356         -1.4775       0.0914036
LJ          -0.91053        0.609055        -0.22324
