108
#Comment!
LJ           2.55406        -2.41121         2.54621
LJ          -1.73487        -1.64471         2.41257
LJ           2.53202        -1.69805        -1.72702
LJ          -1.79491        -2.43074        -1.64565
LJ         -0.800656        -2.55505         2.47801
LJ         0.0153485        -2.02156        -2.49823
LJ          -1.06309        -1.48343        -1.61356
LJ        -0.0142195         2.31118        -1.72794
LJ          0.934311         2.44973         2.51519
LJ           1.70982        -1.82421         2.51755
LJ          0.942273         -1.7752        -1.77185
LJ           1.86521        -2.53328        -1.70383
LJ           2.45856       -0.825828         2.52037
LJ          -1.92498      -0.0148546         2.55855
LJ           2.49058        0.118287        -1.98754
LJ          -1.71831       -0.511666        -1.46507
LJ          -1.15641       -0.775892        -2.43515
LJ        -0.0029173       -0.155294        -2.49672
LJ         -0.770338       0.0667485         -1.7946
LJ         -0.125041        -1.15694        -1.90183
LJ          0.910502        -1.09954        -2.50271
LJ           1.63665       0.0166591        -2.48509
LJ          0.783652       0.0731089        -1.74279
LJ           1.68305       -0.702884        -1.66795
LJ           -2.4261         1.01976         2.49501
LJ          -1.69119         1.96097        -2.53314
LJ          -2.54682         1.72302         -1.6298
LJ          -1.55756        0.831048        -1.84568
LJ         -0.663944         1.06102         2.49484
LJ          0.161001         1.76555         2.46149
LJ         -0.858485         1.63667        -1.72643
LJ         0.0373346         1.01729        -1.83712
LJ           1.00291        0.922219        -2.55133
LJ           1.94325         1.79718         2.48895
LJ          0.929971         1.86545         -1.6355
LJ           1.68114        0.913784        -1.67998
LJ           2.34942         2.41777       -0.773089
LJ          -1.52719        -1.79937       -0.757599
LJ          -2.43735        -1.81657      -0.0786864
LJ          -1.58649         2.53289      -0.0201961
LJ         -0.826923         2.56435        -1.11995
LJ          0.120784        -1.73599       -0.905527
LJ          -0.55001        -1.78166      -0.0280364
LJ         -0.253978         2.39309       0.0467097
LJ          0.863591        -2.55021       -0.912824
LJ           1.75518        -1.71736       -0.960549
LJ          0.643205        -2.00512        0.103832
LJ           1.70069        -2.35166      -0.0339498
LJ          -2.50064       -0.955396        -0.64711
LJ          -1.90723       0.0651247       -0.724496
LJ           2.55997       0.0678009       0.0567426
LJ          -1.69163       -0.945258      -0.0083245
LJ         -0.583818       -0.898126       -0.688888
LJ         -0.111793        0.242449        -1.04184
LJ         -0.806723      -0.0960006      -0.0830262
LJ          0.136548       -0.763056        0.242191
LJ          0.821191        -0.96068       -0.625832
LJ             2.044       -0.052558       -0.878977
LJ          0.703115       0.0755147       -0.029818
LJ           1.71539       -0.985454       -0.149463
LJ           -2.4571         1.03971       -0.897793
LJ          -1.53193         1.78874       -0.848525
LJ           2.37968         1.76081       0.0763262
LJ          -1.98507        0.996844        0.117539
LJ          -1.05116         0.65399       -0.977213
LJ         0.0762038         1.84779       -0.880153
LJ         -0.800453         1.50178      -0.0690549
LJ         -0.031116        0.862173       0.0131446
LJ          0.754398        0.948373       -0.670954
LJ           1.62016         1.62064       -0.893065
LJ          0.787814         1.99862      -0.0658297
LJ           1.66586        0.870123         -0.1975
LJ           2.44395          2.3816        0.905144
LJ          -1.40927         -1.8313        0.681694
LJ           2.53388        -1.55502         1.80753
LJ          -2.08203         -2.4614         1.64259
LJ         -0.666716          2.5358         1.09585
LJ          0.149047        -1.61163        0.938982
LJ         -0.876452        -1.77021         1.75385
LJ          0.133656        -2.34281         1.70125
LJ          0.893311         2.32061        0.930133
LJ           1.97167        -1.52597        0.722717
LJ          0.974598        -1.76051         1.71512
LJ           1.69862        -2.49228         1.68691
LJ           2.48774       -0.608329        0.928465
LJ          -1.74234       0.0427847        0.794882
LJ           2.48776      0.00851565         1.79885
LJ          -1.90484       -0.800437         1.69472
LJ         -0.745708       -0.893699         1.05982
LJ         0.0033617      -0.0400237        0.994181
LJ         -0.873532        0.154095         1.96479
LJ          0.261565        -0.94426           1.881
LJ           1.04149        -1.01601         0.73413
LJ           1.59506       -0.190395        0.777047
LJ          0.866156       0.0628302          1.9149
LJ           1.53906       -0.870268         1.78032
LJ           2.34431        0.722201        0.821374
LJ          -1.47358         2.02105        0.794656
LJ           2.45878         1.64364         1.57504
LJ          -1.80534        0.930294         1.57703
LJ         -0.854006        0.643985        0.889207
LJ          0.266089         1.45413        0.747606
LJ          -0.80827         1.63527         1.58008
LJ        -0.0254888        0.844482          1.6205
LJ          0.997763        0.806555        0.854422
LJ           1.58869          1.6982         0.57694
LJ          0.849984         1.59013         1.74072
LJ           1.91307        0.838472         1.78237
