108
#Comment!
LJ          -2.47756        -2.38445         2.49829
LJ          -1.67171        -1.53065         2.46919
LJ          -2.31483        -1.49848        -1.85357
LJ           -1.6529        -2.46741         -1.7234
LJ         -0.742958         2.34053        -2.43809
LJ         -0.112637         -1.5022         2.52037
LJ         -0.931557        -1.41848        -1.97618
LJ         0.0763176        -2.48302        -1.97266
LJ          0.988315        -2.36867        -2.41491
LJ           1.68631        -1.51599         2.35353
LJ           1.17212         -1.6656        -1.73517
LJ           1.86096        -2.55796        -1.64608
LJ           2.42273       -0.729088        -2.48692
LJ          -1.73256      -0.0472745         2.30155
LJ          -2.55527       0.0244871        -1.69525
LJ          -1.51964       -0.553118         -1.7452
LJ         -0.820917       -0.674835        -2.54063
LJ         0.0850495      -0.0913334        -2.37882
LJ         -0.797411        0.080305        -1.74752
LJ          0.163548       -0.925349        -1.57669
LJ          0.749175        -1.03027        -2.53938
LJ           1.67316       0.0172328        -2.39206
LJ          0.938673        0.179726         -1.6336
LJ           1.52878       -0.587112        -1.52709
LJ          -2.47143        0.846876        -2.43971
LJ          -1.81818          2.0276         2.42781
LJ          -2.48679         1.71053        -1.58558
LJ          -1.53363        0.684665        -2.09469
LJ         -0.544477        0.804574         2.52737
LJ         0.0340464         1.70981         2.37134
LJ          -1.29546         1.72306        -1.68359
LJ         0.0106302         1.06517        -1.68928
LJ          0.976174        0.961245        -2.54408
LJ           1.74306         1.91171         2.45832
LJ           0.92748         1.84618        -1.74761
LJ           1.71985          1.0083        -1.83548
LJ          -2.53132         -2.4973       -0.759858
LJ          -1.38432        -1.66761       -0.983463
LJ          -2.33039         -1.5645       -0.120847
LJ          -1.64411         2.40356        0.146812
LJ         -0.732351        -2.50551        -1.01019
LJ         0.0512407        -1.84391       -0.684329
LJ         -0.758831        -1.84705       0.0396195
LJ        -0.0300351         2.36679        0.242705
LJ          0.886245        -2.53101        -1.04645
LJ           1.90476        -1.58018       -0.869964
LJ          0.803976        -1.87617        0.215354
LJ           1.73996        -2.51714       0.0881747
LJ          -2.42286         -0.7338       -0.706995
LJ          -1.83943        0.212028       -0.884106
LJ          -2.33409       0.0170626      -0.0478795
LJ          -1.53323       -0.662859      -0.0834116
LJ         -0.677453       -0.830942       -0.737997
LJ       -0.00761858       0.0230037       -0.977204
LJ         -0.679962       -0.133386      0.00800769
LJ       -0.00835986       -0.965832        0.198473
LJ          0.994935        -1.03945       -0.757134
LJ            1.8745       -0.275113       -0.668511
LJ          0.767885        0.100951       0.0382268
LJ           1.87011        -1.05214       0.0897623
LJ           2.38775        0.827301       -0.770101
LJ           -1.8426         1.75715       -0.658792
LJ           2.49524         1.78935      -0.0494019
LJ          -1.72612        0.941678        0.199924
LJ           -0.9893        0.777634       -0.931211
LJ         0.0434179         1.73431       -0.769951
LJ         -0.707743         1.65012       -0.167438
LJ         0.0933348        0.833651       -0.146057
LJ          0.836559         1.05477       -0.985852
LJ           1.61257         1.69792       -0.780571
LJ          0.867046         1.78977       -0.140333
LJ           1.66093        0.800179       0.0764264
LJ           2.48476         2.43316          0.7436
LJ          -1.45976        -1.78295        0.831259
LJ           2.45392        -1.51264         1.64037
LJ          -1.85025         -2.3815         1.66891
LJ         -0.859704          2.4837        0.920765
LJ      -0.000983351        -1.49819         1.02865
LJ         -0.883214        -1.64037         1.76564
LJ        -0.0416485        -2.27765         1.75464
LJ          0.766894         2.38384        0.858829
LJ           1.67829        -1.59705        0.951276
LJ          0.795358        -1.63594          1.6151
LJ           1.72433        -2.51168         1.56484
LJ          -2.39703       -0.880136        0.793417
LJ          -1.70296        0.140607        0.838041
LJ            2.3785       0.0350768         1.65618
LJ          -1.63958       -0.878427         1.57082
LJ         -0.859327       -0.842901        0.992148
LJ          0.129386       -0.133906        0.885119
LJ         -0.903522      -0.0277398         1.73334
LJ         0.0869369       -0.759734         1.77385
LJ          0.998963       -0.888917        0.559435
LJ           1.73419       -0.258995        0.863433
LJ          0.866242      -0.0204707         1.75169
LJ           1.50783        -0.71607         1.74423
LJ           2.29587        0.915907         1.08375
LJ          -1.81968         1.65548        0.933531
LJ           2.45188          1.8674         1.58833
LJ          -1.73384        0.819804         1.72811
LJ         -0.943309        0.904227        0.845273
LJ          0.371145           1.364        0.779557
LJ         -0.643026         1.55187         1.73522
LJ          0.109204        0.792012         1.63739
LJ           1.02079        0.664606        0.972861
LJ           1.62409         1.78012        0.673139
LJ          0.932731         1.79105         1.69311
LJ           1.81282          1.0293         1.94003
