108
#Comment!
LJ         -0.715837         2.21956        0.513086
LJ          -1.60718         -1.8028        -1.20198
LJ        -0.0438508        -1.28409          1.4288
LJ           1.05587        -2.37736        -1.08452
LJ         -0.310929        -2.34257         1.39397
LJ           2.34142      -0.0328725       0.0847956
LJ          0.662933        0.985499       -0.425193
LJ           1.04183         -1.7938        -2.20483
LJ           2.14812        -1.74305         1.35235
LJ          0.584789        -1.56791       -0.312196
LJ          -1.98861       0.0876007          2.1876
LJ           -1.2736         2.00755         2.31264
LJ          0.659324         0.74619          1.2805
LJ           2.12854         2.24714        0.983365
LJ          -1.99859         2.28112       -0.525307
LJ          -1.61098         1.02432       -0.606675
LJ         -0.912694        -1.56416         1.96091
LJ           1.45898         1.42695        -1.02608
LJ           1.33468       -0.283763        0.902199
LJ          0.294929        -2.39333        -1.77671
LJ           1.13782        -1.26647        0.563833
LJ          -1.24789         1.09717           -2.21
LJ          0.241888         2.15622         2.38997
LJ          -1.61065       -0.779869           -1.01
LJ          0.842181        -1.98698         1.36196
LJ         -0.505469       -0.582045        -2.11969
LJ           -2.3789        -2.29233        -1.60995
LJ         -0.992716       0.0336451       -0.616957
LJ          -1.98202        0.133763        -1.00753
LJ         -0.414869        -1.69373       -0.635395
LJ         -0.564362        0.379918        -1.66304
LJ         -0.924406        -0.62165         1.59288
LJ          -1.73841       -0.957931          2.1749
LJ           1.78592          1.5405         1.77681
LJ           2.39516        -1.04214        0.682542
LJ          -1.24059         1.18952        0.388223
LJ           1.47909        -2.09981       -0.221799
LJ            1.2335       -0.919281         1.67844
LJ          -1.59727         1.94721        -1.81053
LJ          0.564569        0.282205        0.424924
LJ         -0.534827       0.0149495        0.393034
LJ             2.144         2.35619       -0.863959
LJ           -1.1037        -1.38521        -2.07957
LJ           1.45786        -2.45402         1.96518
LJ           1.76114        -1.26193        -1.85316
LJ          0.858902         1.28124         2.36936
LJ           1.20003         1.33354        0.570293
LJ           -1.6053         1.97941         1.07702
LJ           2.28966       -0.550509        -1.01173
LJ          0.321527        -1.72761         2.28971
LJ          -1.13548        -2.34554       -0.284161
LJ          -2.06294        -1.27493        -0.07618
LJ          0.189921       -0.129156       -0.445196
LJ           2.50777        -1.79355         2.44777
LJ          0.304871         1.10504        -1.60473
LJ          0.652373          1.7999         1.46854
LJ           1.71494       -0.952297       -0.196959
LJ          -1.42128        -1.91587         0.70328
LJ           2.19283        0.829119       -0.532637
LJ           1.16605         1.83388        -1.93122
LJ           2.51463         2.30087         1.86739
LJ           1.11336        -1.14524        -1.17487
LJ         -0.892293         1.87368       -0.704259
LJ          -0.16955         1.17996         2.29725
LJ            2.3709        -1.68317       -0.735856
LJ         -0.522472         1.89609        -1.90141
LJ           2.04229         1.83297        0.102033
LJ         -0.527964         1.74603         1.60177
LJ          -2.29314         1.29049        0.850382
LJ         -0.803708       -0.883116      -0.0484705
LJ          -1.72419        0.150222       0.0704774
LJ          -1.64232        -2.22932        -2.46779
LJ         -0.577726        -2.35457        -2.39161
LJ         -0.597491        0.847823         1.16847
LJ           0.14884       -0.852756        0.363646
LJ           2.39755       -0.595384         1.84329
LJ          -1.96626        -2.06594         1.45992
LJ           0.88892        0.309903        -2.41354
LJ          -2.21048        -1.18813        -1.91618
LJ         0.0947837         1.37855        0.290802
LJ           1.51438        0.332817         1.89253
LJ          -2.17154        0.735609        -1.90261
LJ         -0.498133       -0.702974        -1.14616
LJ         -0.373871        0.893733       -0.705041
LJ          0.146049         2.45365       0.0349072
LJ          -2.52782         1.64564        -2.39262
LJ           2.40903        0.701425         2.28111
LJ           1.86999        0.976022        -1.94658
LJ         -0.362008        -1.85985        0.461471
LJ           -1.5711       -0.253891        -2.03385
LJ          0.964572         2.35967        0.663972
LJ         -0.704388        0.419508         2.12975
LJ          -1.85253        -1.08561         1.18173
LJ           2.35238        0.577177         1.18891
LJ          0.286084         1.86873       -0.933163
LJ         -0.591125        -2.36835        -1.31357
LJ          0.836039      -0.0765097        -1.30076
LJ        -0.0373225        -1.39138         -1.7485
LJ           1.26638         0.16746       -0.281027
LJ          -1.73162         1.10193         1.92236
LJ          -2.35336         1.53174        -1.20984
LJ           2.47875        -2.08535         0.32008
LJ          0.358917       -0.440411         2.10987
LJ           1.94114        -2.54985        -2.15188
LJ        -0.0572284       -0.111228         1.27828
LJ          -1.98699       -0.104988         1.10066
LJ          0.673157       -0.772476         -1.9697
LJ           1.90032       -0.301366        -2.29329
