108
#Comment!
LJ           2.52668        -2.54652         2.49408
LJ          -1.75672          -1.744         2.51791
LJ          -2.54291        -1.71796        -1.63062
LJ          -1.75655        -2.43904         -1.7401
LJ         -0.961614         2.45535         2.49869
LJ        -0.0152935        -2.00093        -2.54027
LJ         -0.895611        -1.56439        -1.61508
LJ         0.0861715         2.28323        -1.70183
LJ           1.01364         2.37992         -2.3592
LJ           1.78595        -1.75409        -2.51421
LJ          0.953862        -1.73876        -1.66647
LJ           1.97522        -2.51504        -1.51798
LJ           2.45285       -0.821462        -2.55547
LJ          -1.72789       0.0193329        -2.53893
LJ          -2.48707        0.200184        -1.74887
LJ            -1.652       -0.577532        -1.38738
LJ          -1.17029       -0.852075        -2.44929
LJ         -0.119896       -0.272079        -2.48557
LJ         -0.800479         0.14937        -1.84306
LJ         -0.089502       -0.988646        -1.76412
LJ          0.973817        -1.09083        -2.48403
LJ           1.62293       0.0869335         2.56202
LJ          0.747159      -0.0886709        -1.53724
LJ           1.73709       -0.858568        -1.70317
LJ           -2.4256         1.03694         2.31296
LJ          -1.78026         1.86349         2.53221
LJ          -2.49949         1.67666        -1.72732
LJ          -1.65068        0.939563        -1.78495
LJ         -0.704759         1.06702          -2.504
LJ          0.101311         1.83664         2.52669
LJ          -0.74718         1.74597        -1.73888
LJ         0.0613773         0.83899        -1.85983
LJ          0.838271        0.789444        -2.43952
LJ           1.74523         1.87991         2.40071
LJ          0.943949         1.59767        -1.57598
LJ            1.8357        0.788351        -1.74511
LJ          -2.54095         2.44098       -0.714393
LJ           -1.4902        -1.85411       -0.678286
LJ          -2.50275        -1.75724       -0.184253
LJ          -1.67462          2.4853      -0.0336392
LJ         -0.668062        -2.54885       -0.920069
LJ         0.0549371        -1.69546       -0.946879
LJ         -0.597413        -1.81603        0.064938
LJ         -0.187358         2.32969        0.107735
LJ          0.827701        -2.48594       -0.938756
LJ           1.83209        -1.69283       -0.806216
LJ           0.70942        -1.97604        0.131169
LJ           1.68489        -2.41167      -0.0432834
LJ          -2.46624       -0.942013       -0.769078
LJ          -1.94409        0.072969       -0.668917
LJ           2.34773       0.0512457      -0.0398275
LJ           -1.6297       -0.833786     -0.00668929
LJ           -0.6319       -0.767572       -0.822733
LJ         0.0400232        0.191803       -0.932522
LJ         -0.779901       -0.085281      -0.0315302
LJ         0.0766132       -0.779083        0.222143
LJ          0.802151       -0.826018       -0.765004
LJ            1.7983       -0.165228       -0.886319
LJ           0.74673       0.0070909      -0.0793046
LJ           1.73428       -0.934578      -0.0893207
LJ           -2.4424        0.957948       -0.924251
LJ          -1.64599         1.71653       -0.998418
LJ           2.43887         1.62099       0.0385643
LJ          -1.95197        0.860539       0.0659174
LJ         -0.933174        0.729721       -0.893143
LJ        -0.0556954         1.57094       -0.854168
LJ         -0.838139         1.50564      -0.0476524
LJ         0.0686042        0.935452          0.1232
LJ          0.788171         1.06915       -0.696033
LJ           1.74721         1.68647       -0.892211
LJ          0.855394         1.98845     -0.00649676
LJ           1.84363        0.831133       -0.119499
LJ           2.50801         -2.4784        0.852766
LJ          -1.51137        -1.71282        0.751478
LJ           2.53647        -1.45094         1.66598
LJ            -1.919         2.49489         1.56941
LJ         -0.814752        -2.48137         1.04482
LJ          0.107989        -1.64316        0.940133
LJ         -0.865886        -1.67423         1.70435
LJ          0.124638        -2.43326         1.68075
LJ           1.00114         2.52827        0.901264
LJ           1.87373        -1.53754        0.766845
LJ          0.895933          -1.713         1.67905
LJ            1.5981        -2.48866         1.78234
LJ           2.50499       -0.602688         1.03479
LJ          -1.83519       -0.005045        0.804111
LJ           2.45499       0.0485711         1.89636
LJ          -1.65308       -0.919196         1.45857
LJ         -0.749757       -0.921818         1.00827
LJ         0.0435239      -0.0508984          0.9507
LJ          -0.82551        0.160993         2.13151
LJ         0.0973091        -0.96921         1.73444
LJ           0.93144       -0.855108         0.80225
LJ           1.66197       -0.125004        0.635546
LJ          0.703077      -0.0714629         1.88599
LJ           1.65029       -0.818525         1.68136
LJ           2.46678        0.664752        0.835467
LJ          -1.44591          1.9353        0.789324
LJ          -2.54089         1.58297         1.54962
LJ          -1.57118        0.894973         1.59027
LJ         -0.921532        0.741972        0.741942
LJ          0.201076         1.64068        0.875175
LJ         -0.715374         1.66012         1.53283
LJ         0.0186625        0.938825         1.56125
LJ          0.888917        0.665237        0.878831
LJ           1.73107         1.64603        0.771189
LJ          0.855716         1.56314         1.73533
LJ            1.7172        0.696272         1.73249
