108
#Comment!
LJ          -1.68606         2.31889        -0.65165
LJ           1.11075         1.23902        0.743578
LJ         -0.644837       0.0109295         1.77704
LJ           2.47181       -0.611374         1.08066
LJ           1.27361          2.5475       -0.211058
LJ            2.5046        -1.23202        -0.64287
LJ           2.34607        -1.92593         1.80652
LJ          -1.29857         1.09757        0.737325
LJ           2.41568        -2.47675        -2.27426
LJ           1.71766         2.47093        -1.29174
LJ           2.55556         1.84328        -1.03798
LJ           1.47514        -1.09458         1.33179
LJ          -2.43068        0.833179        -1.43754
LJ          0.824471         1.78297        -2.51467
LJ        -0.0116878       -0.866153       -0.491946
LJ          -0.77867         2.28858        -1.20774
LJ           1.99176        -0.49622        0.116925
LJ          0.577808        0.879401        -1.55465
LJ           2.28386        0.847088        -2.42723
LJ         -0.943189        0.180707        0.599233
LJ          -1.82563         1.28313        -2.50382
LJ           1.14867        0.673271        -2.50712
LJ           2.06903      -0.0131227       -0.841639
LJ          0.678458        -2.36691        -2.16801
LJ           1.55596       -0.522379         2.36634
LJ         -0.938395        -2.25599       -0.058052
LJ         -0.554611         1.17703         1.44425
LJ           1.08381        0.137842        0.630838
LJ          -1.61921        0.487993        -0.04587
LJ           1.97367         1.38708         1.29243
LJ        -0.0747495        0.389357        -0.65718
LJ           1.18652        -1.79838        -1.56969
LJ          -1.69103       -0.978983         1.44829
LJ          -2.48705         1.88804         0.16007
LJ           2.48476         2.27188         1.19279
LJ          0.403889       -0.129614        -2.09709
LJ            2.3536        -2.35319        -0.21699
LJ           1.95786        -1.09469        -1.83029
LJ          -1.89047        -1.72167        -2.40745
LJ          -2.28873        -1.75837        0.851699
LJ           -1.9654         1.24981         1.66515
LJ          -1.07502        -1.78171        0.849864
LJ          -2.44879         0.95701       -0.447997
LJ          -1.82325        -0.45785        0.494166
LJ         -0.581326         1.96722        0.566001
LJ          0.597749        -1.74038       -0.338266
LJ           1.47321         -1.3513       -0.761684
LJ          0.185764        -1.20396        -1.71531
LJ           1.26873       -0.199299        -1.58978
LJ        -0.0628653        -2.06873        0.549661
LJ          -1.07967       -0.473763       -0.658062
LJ        -0.0374798       -0.181591        0.295892
LJ         -0.927851        0.644436        -2.42347
LJ          -1.93855       -0.629432        -1.90165
LJ          0.838592        -1.90032        0.871682
LJ           0.86343        -1.04494        0.473601
LJ           1.87725        -1.84423         0.54274
LJ          0.635786         1.92897         1.49091
LJ          -2.11191         2.22931         2.06626
LJ          -2.34232        0.107219         2.37834
LJ         -0.456325        -0.33764        -1.48426
LJ            0.4134         2.53834        -1.20851
LJ          0.397706       -0.579463         1.26657
LJ           1.43398         2.40676        0.851321
LJ         -0.153326        0.990468        0.486982
LJ         -0.275532       -0.738904         2.41194
LJ         -0.968374        -1.65159        -1.80427
LJ          -1.63565         1.45161        -1.33578
LJ          0.999193         1.69228         -1.0491
LJ          0.407904        0.760478         1.44284
LJ         -0.433965        -2.55098         1.50019
LJ           1.60423         1.55665       -0.121434
LJ           2.06955         1.73511        -1.89282
LJ        -0.0756711        -1.52118         1.45434
LJ           2.32541       -0.151877        -1.87373
LJ          -1.60346        -1.41318       -0.912235
LJ         -0.363912        -1.77448        -0.89625
LJ           -1.6802        -2.05881         1.67238
LJ          0.922513        0.584391       -0.424585
LJ          0.830009      -0.0712602         1.98105
LJ          -1.51598       -0.453581         2.26848
LJ           1.60515        0.799665        -1.47754
LJ        -0.0880399         1.33521       -0.896146
LJ          -1.14153         1.36328       -0.429071
LJ          -1.85589          2.4898        -1.63104
LJ          -1.15341         1.86042          1.7503
LJ           2.50294        0.253579        0.596787
LJ          0.658137        -2.23369         1.90787
LJ         -0.818434       -0.922036        0.507827
LJ          0.695752        -1.13459         2.19663
LJ          -2.08061       -0.254072       -0.550176
LJ           1.63661         2.23785         2.01759
LJ          0.238502         2.15438      0.00452328
LJ          -1.04106        -1.48259         2.26227
LJ         -0.275014         -2.0301         2.37263
LJ          -1.88394        0.227704         1.33838
LJ          -1.64298        0.213757        -1.34279
LJ         -0.714209        0.697438        -1.37004
LJ          -1.60069         2.33246         0.67903
LJ         -0.426074         1.80041        -2.39107
LJ          -2.48968        -1.85103        -1.52424
LJ          -1.12164        -2.56383        -2.56034
LJ         0.0342639        0.805411        -2.54103
LJ           1.50373        -1.67819         2.45182
LJ           1.03025       -0.478461       -0.613741
LJ          -1.86452        -1.60379      0.00674623
LJ           2.05274        0.146411         1.60677
LJ          -2.53538       -0.920849         2.30024
