108
#Comment!
LJ             2.546         2.52344          2.5618
LJ          -1.71659        -1.78509         2.56243
LJ           2.52884        -1.79448        -1.78964
LJ          -1.78568         2.54057        -1.69475
LJ         -0.934343         2.44924         2.52674
LJ        -0.0911526        -1.75374        -2.52753
LJ         -0.781915        -1.65557        -1.70541
LJ        -0.0530216        -2.50853        -1.56654
LJ          0.896481        -2.55184         2.49119
LJ           1.69678        -1.83273        -2.46893
LJ          0.874246        -1.61485        -1.62421
LJ           1.79218          2.5531        -1.68284
LJ           2.45079       -0.869412         2.51334
LJ          -1.59469         0.04951         2.47178
LJ           2.48221        0.013089          -1.713
LJ          -1.64269       -0.906765        -1.66253
LJ         -0.885644       -0.822548        -2.55886
LJ          0.134598      -0.0768495        -2.52261
LJ         -0.835856        0.141441        -1.62782
LJ        -0.0543804       -0.938321        -1.69372
LJ          0.829328        -1.00377        -2.49955
LJ           1.76525       0.0726321         2.52263
LJ          0.789912       0.0330427        -1.70719
LJ           1.68084       -0.889873        -1.62437
LJ           2.54067        0.820019         2.51251
LJ          -1.76578         1.73671        -2.55078
LJ          -2.43506         1.56494        -1.74366
LJ          -1.78108        0.835421        -1.74199
LJ         -0.811474        0.925293         2.39469
LJ         0.0739195         1.64397         2.44085
LJ          -0.80734         1.73953        -1.70501
LJ         0.0130612        0.829694        -1.80451
LJ          0.855679        0.955937        -2.52653
LJ           1.71251         1.75134        -2.53753
LJ           1.02307         1.73948        -1.75587
LJ           1.63592        0.750759        -1.62899
LJ          -2.53911        -2.55291       -0.884408
LJ           -1.6177        -1.73112       -0.809757
LJ          -2.54832        -1.77291      -0.0244556
LJ          -1.66852         2.54891      -0.0330796
LJ         -0.824408         2.51425       -0.815206
LJ        -0.0203924         -1.5941       -0.863044
LJ         -0.858436        -1.66861      -0.0105405
LJ         -0.124119         2.45284      -0.0698572
LJ          0.918605         2.53272       -0.761093
LJ           1.64591        -1.70905       -0.802753
LJ          0.772757        -1.86471       0.0803545
LJ           1.66428        -2.48148     -0.00778311
LJ          -2.54124       -0.891571       -0.740282
LJ          -1.81289        0.140105       -0.999886
LJ           2.51971       0.0185354      -0.0509863
LJ          -1.78129       -0.903333       -0.015959
LJ          -0.79003       -0.782967       -0.792568
LJ         0.0536711       -0.176236       -0.911818
LJ          -0.93682        -0.11145       0.0303068
LJ         0.0220228       -0.739248       0.0728568
LJ          0.920819       -0.825787       -0.857993
LJ           1.70218     -0.00227731       -0.899126
LJ          0.863404      -0.0001853      -0.0993776
LJ           1.64622       -0.922847       -0.122582
LJ           -2.5429        0.918748       -0.857562
LJ          -1.73621         1.68317       -0.929476
LJ           2.51672          1.6844       0.0231286
LJ          -1.70556        0.952197         0.14144
LJ         -0.770211        0.826271       -0.658385
LJ         -0.136123         1.71156       -0.951255
LJ         -0.949169          1.7276      -0.0923653
LJ        -0.0406102        0.870328        0.173416
LJ          0.792121        0.953625        -0.87042
LJ           1.76902         1.76753       -0.781293
LJ          0.725027         1.72739      -0.0902953
LJ            1.6745        0.760265       0.0439631
LJ          -2.54507        -2.53256        0.842536
LJ          -1.65092        -1.73258        0.940338
LJ           2.46571        -1.63603         1.72265
LJ          -1.82446         2.55182          1.6769
LJ         -0.911112         2.51079        0.759447
LJ         0.0535257        -1.75237        0.905107
LJ         -0.868438        -1.72544         1.85741
LJ           0.07124        -2.51056         1.73863
LJ          0.928716         2.43136        0.884995
LJ           1.73944        -1.88372        0.883302
LJ          0.910508        -1.76686         1.53475
LJ           1.76655        -2.53817         1.74526
LJ           2.55006       -0.786241        0.926217
LJ          -1.73613       0.0412184        0.865672
LJ          -2.52348      -0.0747732         1.83769
LJ          -1.70839       -0.872231         1.85047
LJ          -0.87868       -0.825266        0.762655
LJ          0.168043      -0.0269908          0.8849
LJ         -0.703983       0.0476615         1.68978
LJ         0.0278818       -0.907527         1.65633
LJ          0.786537       -0.889724        0.866205
LJ           1.65249       -0.099795        0.910278
LJ          0.830102      -0.0393421         1.71591
LJ           1.79497       -0.810879          1.6443
LJ           2.52421        0.844995        0.803668
LJ          -1.66674          1.6649        0.824775
LJ          -2.52596         1.64739          1.8203
LJ          -1.59419        0.797625         1.75272
LJ          -0.84668        0.818898        0.844189
LJ         0.0520816         1.59432        0.869485
LJ         -0.793623         1.71885         1.65523
LJ        -0.0113457        0.738625          1.6023
LJ          0.879291        0.735686        0.691496
LJ           1.61329         1.63576        0.783981
LJ          0.855789         1.59131         1.72985
LJ           1.69489        0.969008         1.62552
