108
#Comment!
LJ         -0.461543        -1.59751       -0.203956
LJ          -2.40647        -1.41978          1.8267
LJ          0.147631        0.969181        -1.02452
LJ           -1.2713        -1.55257        -1.75914
LJ           -1.8969       0.0847041         2.02729
LJ         -0.266527        -1.86481        0.904778
LJ           1.13596        -1.34833        -1.19012
LJ          0.123094        -1.62257         1.90245
LJ          0.628081        0.356655         1.76829
LJ           1.20289         1.73205        -2.03611
LJ          0.687555        -1.50083        0.214591
LJ         -0.890102          -1.311         2.30453
LJ          -1.63393         2.00902       -0.366041
LJ         -0.720841        0.450451          1.9918
LJ           1.65569       0.0253702         1.81553
LJ           1.36044        -2.04998       -0.277641
LJ            -1.293          1.7249        0.651976
LJ           1.74211         1.27052       -0.897815
LJ        -0.0830632         1.07036         1.62373
LJ           1.46133         1.16076        0.564523
LJ           1.51645        -2.54135         2.48586
LJ         -0.146017         2.01184        -1.39395
LJ         -0.411476       -0.966156        -1.71064
LJ           2.14285        0.779477         1.32441
LJ          0.913285        -2.16908        -1.70569
LJ          -2.07741         2.56319        0.846159
LJ          0.781229        -2.11624         1.22703
LJ          -1.00155       -0.328347        -2.46979
LJ          0.532606          1.6815        0.876444
LJ           2.23343       -0.713165        -1.54608
LJ         -0.416757         1.93257       -0.411072
LJ          -0.47203         2.02021         1.53289
LJ           2.15768        -1.64608       -0.851656
LJ          -2.14169        -2.43813        -1.04993
LJ          -2.46184        -1.61798        0.803637
LJ           -1.2377        0.718001        0.966001
LJ          0.727716         2.25272         2.07311
LJ          -2.40382        0.102608        -1.97345
LJ           0.23536        -2.27447       -0.744567
LJ           1.25259         0.29241       -0.319459
LJ          0.381882       -0.871189       -0.591043
LJ         -0.261689       0.0428258        0.747203
LJ          -1.61892        -1.47832        0.163335
LJ          -2.24265        -2.01949        -2.34668
LJ           1.73613        -1.93475        0.872156
LJ           2.43578        -2.36028      -0.0956037
LJ          -1.56414       -0.522912        -1.60388
LJ           1.88935         1.56099         2.27766
LJ          -1.33926        -1.65317         1.20682
LJ        -0.0962636       -0.554332         1.84426
LJ          -1.84583          1.0443       -0.354362
LJ          -1.93774          2.2671         2.14177
LJ           1.09897         1.30376         1.75408
LJ          -1.43229         1.40748         1.94038
LJ           1.20284         2.27928        0.307377
LJ         -0.673497         1.74548        -2.40612
LJ          -1.96649         1.64768        -2.00505
LJ         -0.266527        -1.99883        -1.64802
LJ         -0.664505      -0.0535953        -1.43955
LJ        -0.0830059        0.838506         -1.9965
LJ           2.25084         -0.7215         2.43182
LJ          -1.94267       -0.893779        -2.46517
LJ           2.45093         1.73038       0.0299283
LJ           1.36627       -0.696465        -2.21536
LJ         -0.149334       0.0415782       -0.309069
LJ           1.06015        0.578922        -1.32017
LJ           1.33673       -0.707003      -0.0789506
LJ          0.501734        -0.42877        -1.52365
LJ          -1.18661       -0.394429          1.5051
LJ           1.96292        0.771229        -1.76802
LJ          -2.30851         1.50948         1.08483
LJ           1.92183        -1.01699         1.22627
LJ         -0.720469        0.865968       -0.558321
LJ           2.32156        -2.31551         1.81396
LJ          0.339599         1.45835         2.41936
LJ         -0.877923        -2.48168         0.49572
LJ          0.382894         -1.1114        -2.39293
LJ          -1.93867       -0.169101       -0.503383
LJ          -1.17021          1.6669        -1.29736
LJ          -2.28601       -0.572726         1.20917
LJ        -0.0653717       -0.965368        0.698765
LJ         -0.233604         1.08767        0.486409
LJ          -1.26108         2.49641        -1.89758
LJ          -1.63457         0.57242         -1.4048
LJ           2.23918      0.00374383       -0.639511
LJ        -0.0418324         2.49704        -2.39176
LJ           1.77046        -1.64249        -2.04874
LJ         0.0236764      -0.0354161         -2.3433
LJ          -1.14085        -2.22998         2.12543
LJ          -1.12106        -2.23952       -0.805032
LJ            2.4675        -1.05296       -0.109465
LJ          -1.97252        -1.23913       -0.882831
LJ           2.26021          2.0936        -1.94121
LJ          -1.12204       -0.200414        0.382407
LJ           1.41629        -1.65932         2.01164
LJ           1.08474        0.131436        0.903327
LJ           1.13192        0.508583        -2.30506
LJ           1.98152       -0.176897        0.582968
LJ           0.84314        -1.13849         1.18543
LJ          -1.33361        0.887937        -2.30307
LJ          0.292871        -2.43878        0.306672
LJ          -2.42826         1.29453        -1.21298
LJ          0.904383         1.95464       -0.962825
LJ          0.701565         1.07472     -0.00426458
LJ          -2.45559        0.935857         2.27612
LJ           1.86291         2.17062          1.0255
LJ            1.9286         2.29874       -0.927203
LJ          -1.03399       -0.751822       -0.588516
