108
#Comment!
LJ           -2.5327        -2.55401           2.489
LJ          -1.75467        -1.69733         2.45567
LJ           -2.4857        -1.66839        -1.81886
LJ          -1.76324         2.51646        -1.62542
LJ           -0.8277         2.53804        -2.45128
LJ       -0.00652098        -1.99458        -2.44382
LJ          -1.16857        -1.45617        -1.76664
LJ        -0.0354793         2.32481        -1.86033
LJ          0.784857        -2.55702         2.43011
LJ           1.78062        -1.72628         2.52802
LJ           0.75368        -1.94741        -1.77498
LJ           1.87394         2.48406        -1.68416
LJ           2.50218       -0.931812        -2.56256
LJ          -1.80599       0.0108441        -2.54343
LJ           2.48092        0.146154        -1.94452
LJ          -1.73812       -0.573699        -1.68799
LJ          -1.07899       -0.744672         -2.4562
LJ        -0.0909932       -0.256844        -2.49008
LJ         -0.822689       0.0332028        -1.83155
LJ         -0.122477         -1.1944        -1.90959
LJ          0.855272        -1.18653        -2.43802
LJ           1.68766       0.0149374          2.5145
LJ          0.885643       0.0698088        -1.83091
LJ           1.71725       -0.621631        -1.80361
LJ           -2.5505        0.924271         2.47015
LJ           -1.6578         1.96948         2.44681
LJ          -2.38136         1.62013        -1.60613
LJ          -1.66145        0.801867        -1.87437
LJ         -0.582613        0.925942         2.49187
LJ          0.128124         1.65356         2.36474
LJ          -1.07419         1.62046        -1.79543
LJ         0.0947875         1.06391        -1.75025
LJ          0.863181        0.834345         2.45118
LJ           1.78194         1.88826           2.365
LJ          0.953212         1.94835        -1.78253
LJ           1.58199        0.974573        -1.65439
LJ           2.53952         2.37247       -0.772029
LJ          -1.38658         -1.6841       -0.825224
LJ          -2.44842        -1.93183       -0.130745
LJ          -1.70263          2.4695      -0.0286822
LJ         -0.865412        -2.55469        -1.14257
LJ          0.146928        -1.65429        -0.75742
LJ          -0.63409        -1.93332       -0.068796
LJ          -0.13266         2.36529      0.00492538
LJ          0.744361        -2.46894       -0.916792
LJ           1.90983         -1.8539        -1.01176
LJ          0.770203        -1.92055        0.231478
LJ           1.68343        -2.45835       -0.174227
LJ          -2.50767        -0.89572       -0.726075
LJ           -1.9183        0.142121        -0.78264
LJ          -2.47566        0.145802       0.0114187
LJ           -1.8151        -0.90471        0.119335
LJ         -0.532202       -0.815875        -0.67773
LJ         -0.164622        0.331814       -0.940975
LJ         -0.673821        0.013666       0.0509345
LJ        -0.0560298       -0.770299        0.260236
LJ          0.745921       -0.875683       -0.646537
LJ           1.99127        -0.11494       -0.742125
LJ           0.63705      0.00958822      -0.0087844
LJ           1.74669        -1.14223       -0.212445
LJ           2.55403         0.94693       -0.829315
LJ          -1.61918          1.7992       -0.783757
LJ           2.43979         1.65261      -0.0261648
LJ          -1.90385         1.03577        0.254279
LJ          -1.10419        0.794215       -0.840338
LJ          0.135349         1.74191       -0.950319
LJ         -0.735553         1.56019      -0.0708019
LJ          0.107744        0.936057      -0.0748675
LJ          0.851216        0.975652       -0.823142
LJ           1.69445          1.7733       -0.931476
LJ          0.839474         2.03172      -0.0530903
LJ           1.70679        0.865034      -0.0905433
LJ           2.47024         2.31761        0.728393
LJ          -1.42707        -1.78356        0.702114
LJ           2.49131        -1.57397          1.6639
LJ          -2.08218        -2.35774         1.40806
LJ          -0.66809         2.45824         1.10567
LJ          0.101219        -1.60541        0.910067
LJ          -1.02253        -1.81477         1.78543
LJ         0.0898127        -2.36048         1.73766
LJ          0.871503         2.41019        0.960222
LJ           1.96877        -1.60989        0.801702
LJ           1.00474        -1.76802         1.79894
LJ           1.71551         2.55204         1.63919
LJ           2.49838       -0.691667        0.995766
LJ          -1.73008       0.0846691        0.757519
LJ           2.53857      -0.0080038         1.78642
LJ          -1.82458       -0.765273         1.78915
LJ         -0.727086       -0.982027         1.01021
LJ       0.000524666       -0.117819         1.04862
LJ         -0.852612        0.134292         1.94532
LJ          0.194062        -1.05378         1.88548
LJ           1.08955        -0.98312        0.707765
LJ           1.56711       -0.107355        0.651673
LJ          0.789126      0.00447662         1.89423
LJ           1.67747       -0.797247         1.85137
LJ           2.37666        0.817966        0.776885
LJ          -1.62203         1.88876        0.878849
LJ           2.44611         1.56221         1.51979
LJ          -1.80809         1.01995         1.61966
LJ         -0.931962        0.771222        0.894347
LJ          0.134908         1.47591        0.816367
LJ          -0.78538         1.60394         1.53996
LJ         0.0990357        0.780087         1.59685
LJ           1.02328         0.75601        0.982756
LJ           1.56124         1.69506         0.54849
LJ          0.824815         1.55797         1.64868
LJ           1.70006        0.849802         1.80802
