108
#Comment!
LJ           1.21836        -1.68836        -1.13637
LJ           2.15198       -0.446737         1.10006
LJ         -0.575252        0.853112       0.0620175
LJ          -2.37887        -1.67096         2.11098
LJ          -2.32783       -0.685842         1.77369
LJ           0.31238        -1.75802         1.90081
LJ          -1.22215        0.182612        0.362507
LJ         -0.283008        -1.14143         2.49973
LJ         -0.412238       -0.965177        -1.11966
LJ           1.17709         2.52766         2.46735
LJ         -0.369996        -2.37362      -0.0577299
LJ         -0.239182      -0.0786781         2.34077
LJ         -0.748603          1.8199       -0.622487
LJ          -1.75736         1.21747         1.71044
LJ           1.71688       -0.568391         2.02527
LJ           1.11716        -0.51565        -1.02783
LJ          0.646527        0.695463       -0.360386
LJ            0.2346      -0.0818625       -0.985593
LJ          -1.90884         2.28107         1.88801
LJ          0.783714         1.78572        -2.21144
LJ          0.951363        -1.17973        -2.09081
LJ         -0.151641          2.2603         -2.3685
LJ         -0.528142        0.114792        -1.88101
LJ          0.951349         0.42478        0.701173
LJ           1.38921         1.42944       -0.794719
LJ           2.33637         2.41276         1.00809
LJ            1.7563        -1.64728         2.20139
LJ          -1.40219        0.268522        -1.31803
LJ          0.400331         2.26228         1.80677
LJ           1.27408        -1.41511       -0.195883
LJ         -0.772098        0.985958         1.12777
LJ          -1.33675         1.96705        0.230716
LJ           1.35467        -2.56317       -0.490795
LJ          -2.15853       0.0853707       -0.211728
LJ          -1.47962        -0.64158       -0.112744
LJ           2.32349         1.51267         1.49511
LJ          -1.50224        -2.28809         1.14379
LJ            -2.414        0.350717         2.05957
LJ          0.110557        -2.50049       -0.913654
LJ          0.129922        0.318445         1.32173
LJ           -0.3866         -1.1435        0.192179
LJ         -0.682809       -0.309795         1.05342
LJ         -0.881752         2.26967        -1.45451
LJ          -2.15639         2.49949       0.0767508
LJ           1.88758        -1.89582        0.404763
LJ           2.27538        -2.37871        -0.79419
LJ         -0.586495        -1.83515         -1.7651
LJ           1.52487        -2.42736         1.45502
LJ          -1.76988         2.39906        -1.01001
LJ           -1.4277         0.64096         -2.4015
LJ           1.68271        0.457347         1.53226
LJ          -2.32803        -1.50605       -0.217395
LJ          0.199725         1.15814         2.02698
LJ          -1.15373         2.12628        -2.56302
LJ         -0.176998         2.34895        0.854595
LJ          -1.29102       -0.488519        -2.23274
LJ          -1.96825         1.64568        -2.33716
LJ          -1.61114         1.44353        -1.08332
LJ          -1.27272        -1.29572         2.31411
LJ          -1.89845        0.393876         1.10344
LJ           -2.1853        -1.61976        0.968951
LJ          -1.65837       -0.777454        0.953862
LJ            1.2533         1.48496         1.37883
LJ            1.3189     -0.00659374      -0.0902124
LJ          -2.24681         1.29105         0.62963
LJ          0.447512        -2.01635         -1.8683
LJ         -0.682651        -1.50678         1.28814
LJ          0.370006        0.892214        -2.09286
LJ          -1.21489         -1.6858        0.222293
LJ          0.953042        0.649634        -1.26228
LJ           2.08707         1.27307         -2.4104
LJ           1.43029        -1.44335         1.24707
LJ           2.05714        0.503021        0.405359
LJ           1.01113         2.30771        0.639831
LJ         -0.678146         1.20079         -2.0901
LJ           2.20583         2.00485      -0.0791295
LJ          0.516402       -0.114681        -2.07385
LJ          0.998021        -0.72724        0.521702
LJ          -2.52737       -0.381105        -2.26584
LJ          -1.11842        0.340357         1.74632
LJ           2.19665       -0.642636       -0.126966
LJ          0.146548       -0.851513          1.3751
LJ          -2.48991         1.30855       -0.650089
LJ           1.66342       0.0979292        -2.24442
LJ         -0.659837        0.920293       -0.998354
LJ           -0.6539        -2.13672         2.27067
LJ          -2.49619       -0.714342         -1.1909
LJ           0.75668      -0.0755901         2.00549
LJ          -1.96954        -2.38434        -2.30732
LJ         -0.675052        -0.14218       -0.515021
LJ          0.532997        -1.76504        0.563054
LJ           2.35818          2.0242        -1.56297
LJ           2.06855        -2.17444        -1.97317
LJ           1.20441         1.34362        0.348796
LJ            1.9575        -1.15977        -1.90734
LJ           0.27935         1.28988        0.919828
LJ          0.258262         1.57357        -1.11162
LJ          0.171337       -0.111238        0.226205
LJ          0.414476        -1.10935       -0.369304
LJ          -2.49333         0.35078        -1.33734
LJ         -0.699275         1.87042         1.72827
LJ          -1.48774         1.00566       -0.197968
LJ          0.227376         1.98814      -0.0882225
LJ           1.20553        0.848907         2.34414
LJ          -1.87218        -1.48028        -1.77597
LJ           2.35163          2.4411         2.17085
LJ           1.36048         2.35338        -1.44432
LJ          -1.36303        -1.41694       -0.822135
