108
#Comment!
LJ          -2.37102        -2.37378         2.39909
LJ          -1.74343        -1.62212          2.5325
LJ          -2.26138         -1.5103        -1.74943
LJ          -1.58237        -2.47163        -1.78887
LJ          -0.76361          2.4205         2.55374
LJ         -0.141625        -1.52784         2.46499
LJ          -1.03136        -1.53918        -1.81734
LJ         0.0665928         2.43269        -1.90343
LJ          0.877418        -2.50704         2.54211
LJ           1.74364        -1.62061         2.41913
LJ           1.04564        -1.79455        -1.65029
LJ           1.92312         2.39969        -1.64405
LJ           2.55505       -0.675535         2.54108
LJ          -1.85931      0.00859223         2.35414
LJ          -2.45695      -0.0383421        -1.81211
LJ          -1.66842        -0.63115         -1.6285
LJ          -1.05304       -0.775285         2.56097
LJ         0.0159922       -0.186504        -2.32641
LJ         -0.899885        0.034442        -1.78208
LJ          0.071324        -1.09459        -1.73467
LJ          0.814826       -0.953762         2.55688
LJ           1.74085      -0.0100409         -2.4357
LJ          0.800648        0.159693        -1.69744
LJ           1.56259       -0.733002         -1.6881
LJ          -2.46536        0.990595        -2.48416
LJ          -1.78332         1.98259         2.31921
LJ           -2.4398         1.62847        -1.54544
LJ           -1.6323        0.760576        -1.87845
LJ         -0.546282        0.680632         2.53269
LJ           0.14134         1.65831         2.32366
LJ          -1.20431         1.61849        -1.63276
LJ        -0.0401296         1.18029        -1.72626
LJ           1.12199        0.939582          2.4664
LJ           1.80926         1.72159         2.55171
LJ          0.941776         1.79791        -1.96841
LJ           1.61687        0.821825        -1.70917
LJ          -2.54943         2.35007       -0.797344
LJ          -1.46848        -1.67975       -0.883813
LJ          -2.27063        -1.67838       -0.052677
LJ          -1.55738         2.48573         0.14504
LJ         -0.610181        -2.46099        -1.12754
LJ       -0.00767829        -1.69719       -0.834808
LJ         -0.809084        -1.84306      -0.0328952
LJ        -0.0855712         2.28507        0.106708
LJ           0.72327        -2.43939       -0.937203
LJ           1.93344        -1.70889       -0.929715
LJ          0.841329        -1.88024        0.252673
LJ           1.63752        -2.51102       0.0479386
LJ          -2.43809       -0.826549       -0.806028
LJ          -1.95001        0.143883       -0.937742
LJ          -2.45874       0.0867226       0.0604233
LJ          -1.61519       -0.732621       0.0423711
LJ         -0.828342       -0.840285       -0.845919
LJ         -0.226844       -0.057507        -1.01617
LJ         -0.736198        0.012235       0.0322417
LJ       -0.00927915        -0.78802       0.0981095
LJ          0.952032        -1.30358       -0.775261
LJ           1.81949       -0.186815        -0.66179
LJ          0.878755        0.141151       0.0770079
LJ           1.96472       -0.986173      -0.0329474
LJ           2.50002        0.876896       -0.861628
LJ          -1.67686         1.65803       -0.819078
LJ           2.38379          1.5554       0.0473949
LJ          -1.77094          1.1151        0.249858
LJ          -1.12202         0.70993       -0.981646
LJ          0.132144         1.71364       -0.821448
LJ         -0.859528         1.62486       -0.137025
LJ         0.0587125        0.896966       -0.181073
LJ          0.969595        0.954075       -0.842833
LJ           1.70404         1.71299       -0.734716
LJ           0.94708          1.6118       -0.146555
LJ           1.60141         0.80958       0.0490571
LJ          -2.55854         2.38975        0.661676
LJ          -1.39003        -1.79492        0.816022
LJ          -2.48395         -1.4545         1.55035
LJ          -1.93455        -2.27753         1.51443
LJ         -0.834178          2.3558        0.943211
LJ         -0.119504        -1.54658        0.960625
LJ         -0.964842        -1.62016         1.85724
LJ         0.0857831        -2.31102         1.70091
LJ          0.806564         2.46137        0.993216
LJ           1.68536        -1.54604        0.977862
LJ          0.933815        -1.59044         1.73711
LJ           1.80196         2.56381          1.6029
LJ          -2.44272       -0.942117        0.763601
LJ          -1.52893     -0.00161747        0.762123
LJ           2.45113       -0.031349         1.62858
LJ          -1.73512        -0.81961         1.62835
LJ         -0.856594       -0.919211         1.09313
LJ          0.191643      -0.0899213        0.950633
LJ         -0.948965     -0.00795432          1.7296
LJ          0.202375       -0.799852         1.72126
LJ          0.901697       -0.929246        0.625014
LJ           1.71981       -0.265269        0.826831
LJ          0.797553      0.00734603         1.81129
LJ           1.58708       -0.789904         1.79113
LJ           2.27492        0.927873        0.972836
LJ          -1.69741          1.7802         1.06889
LJ           2.52179         1.85794         1.65432
LJ          -1.89587        0.829957         1.45817
LJ         -0.890659        0.847357         0.59901
LJ          0.460424         1.54752        0.799195
LJ         -0.895458         1.40539         1.66712
LJ         0.0112703         0.94057         1.49107
LJ           1.19892        0.707736        0.993559
LJ           1.52293         1.72103        0.700685
LJ           1.09197         1.67412         1.73692
LJ           1.85731         1.02929         1.85249
