108
#Comment!
LJ          -2.49076        -2.38318         2.54485
LJ          -1.80265        -1.48278           2.472
LJ          -2.25181         -1.5997        -1.78616
LJ          -1.56094        -2.38406        -1.84327
LJ         -0.819562         2.31685         -2.4245
LJ         -0.136267        -1.55092         2.44401
LJ         -0.950378        -1.50296        -1.92103
LJ         0.0709939         2.49064        -1.89253
LJ           1.03453        -2.39693        -2.40948
LJ            1.7001         -1.6423         2.45473
LJ           1.21479         -1.7031        -1.65329
LJ           1.91244         2.45393        -1.52371
LJ           2.40286       -0.632781        -2.55019
LJ           -1.8324      -0.0235205         2.31962
LJ          -2.46207      -0.0803083        -1.79873
LJ          -1.54015       -0.588685         -1.6927
LJ         -0.961303       -0.740592        -2.53535
LJ         0.0290393       -0.183173        -2.45772
LJ         -0.817767        0.131286         -1.7312
LJ          0.142795       -0.866783        -1.67452
LJ          0.793016       -0.915789        -2.54497
LJ           1.64081       0.0143943        -2.41083
LJ          0.770667        0.151197        -1.67553
LJ           1.58165       -0.662054        -1.55549
LJ           2.55059        0.929803        -2.42382
LJ          -1.76827         1.96609         2.39743
LJ          -2.55049          1.6903        -1.54951
LJ          -1.59541        0.802536        -2.07653
LJ         -0.499813        0.756897         2.52972
LJ          0.111062         1.74999         2.34647
LJ          -1.27675         1.75567         -1.6738
LJ         0.0112157         1.02947        -1.73452
LJ           1.06868          1.0784        -2.44649
LJ           1.74838         1.86235         2.50546
LJ          0.994536         1.88204        -1.87459
LJ           1.83385        0.853707        -1.76401
LJ           2.50797        -2.50491        -0.72369
LJ          -1.41937        -1.71587       -0.905991
LJ          -2.30309        -1.63921       -0.204494
LJ          -1.63652         2.43517       0.0883147
LJ         -0.683926        -2.49576        -1.01572
LJ         0.0618027        -1.80886       -0.718637
LJ         -0.716058        -1.78446      -0.0356314
LJ        -0.0277057         2.33368        0.196892
LJ          0.699165         2.52423       -0.821245
LJ           1.91911        -1.53669       -0.888931
LJ          0.778163        -1.88653        0.155178
LJ           1.69601        -2.48051      -0.0127817
LJ          -2.36007        -0.79703       -0.918339
LJ            -1.785        0.117679       -0.966794
LJ          -2.37976        0.073592      -0.0296063
LJ          -1.62548       -0.739329     -0.00376578
LJ         -0.837201       -0.790155       -0.693331
LJ         -0.144819        0.164635       -0.997379
LJ         -0.658842      -0.0337115       0.0774644
LJ        -0.0609787       -0.882736        0.115725
LJ          0.923262        -1.13172       -0.757883
LJ           1.83399       -0.190781        -0.62186
LJ          0.764905       0.0955879        0.135063
LJ            1.9468        -1.03233       0.0277636
LJ           2.44062        0.794198       -0.752421
LJ          -1.82355         1.65959        -0.73295
LJ           2.52781         1.59462      -0.0641202
LJ           -1.8824        0.939405        0.137601
LJ          -1.07042        0.795017       -0.955324
LJ          0.136662         1.73609       -0.814803
LJ         -0.753836         1.69926       -0.132437
LJ         0.0645728        0.840729       -0.164978
LJ            0.8818        0.895567       -0.913491
LJ           1.63841         1.70269       -0.866942
LJ          0.846487         1.75202      -0.0798859
LJ           1.60051        0.829834         0.14154
LJ           2.45196         2.44381        0.671768
LJ           -1.5087         -1.8236        0.788028
LJ          -2.55291        -1.44626         1.58678
LJ          -2.00129        -2.43873         1.66613
LJ         -0.881763         2.42886          1.0193
LJ        0.00977874        -1.45936         1.10469
LJ          -1.06742        -1.69401         1.86031
LJ        0.00931141        -2.25232         1.69373
LJ          0.781205         2.37168        0.863737
LJ           1.65745        -1.54183         1.04052
LJ          0.815343        -1.71157         1.79498
LJ           1.72448         -2.4964         1.48888
LJ          -2.41033       -0.749412        0.656669
LJ          -1.61862       0.0854759        0.888016
LJ           2.36952       0.0131978         1.66436
LJ          -1.71135       -0.891124         1.61142
LJ         -0.841317       -0.928693         1.07299
LJ          0.152593       -0.125521        0.913821
LJ         -0.957751       0.0373954         1.83447
LJ          0.213873       -0.774686         1.76036
LJ          0.917553       -0.832411        0.585141
LJ           1.75326       -0.340622         0.82711
LJ          0.849181       0.0452057         1.72642
LJ           1.51017       -0.791736         1.77313
LJ           2.33537        0.976395         1.04176
LJ          -1.80739         1.69834        0.997311
LJ           2.49482         1.88302         1.61596
LJ          -1.79543        0.870829         1.63617
LJ         -0.830513         1.00526        0.764715
LJ          0.363753          1.3828        0.772508
LJ         -0.699702         1.36598         1.73395
LJ         0.0758456        0.792413         1.67834
LJ           1.18425        0.648955         1.01725
LJ           1.53667         1.74297        0.702225
LJ           0.96516         1.71385         1.68426
LJ           1.81465         1.08624         1.92025
