108
#Comment!
LJ           2.51416         2.56147        -2.55727
LJ          -1.69633        -1.85441        -2.52914
LJ          -2.56173        -1.75356        -1.64441
LJ          -1.73494         2.54468         -1.7183
LJ         -0.903268         2.55682          2.5004
LJ        -0.0495206        -1.71731        -2.54166
LJ         -0.789803        -1.75031        -1.70905
LJ        -0.0271863         2.55346        -1.59208
LJ          0.812886         2.51249          2.4865
LJ           1.73236         -1.8051        -2.51449
LJ          0.853968        -1.72023        -1.70776
LJ           1.71791        -2.53991        -1.70979
LJ          -2.53161       -0.825147        -2.52951
LJ          -1.65789      -0.0267268        -2.51225
LJ          -2.53568      -0.0585108        -1.66868
LJ          -1.68444       -0.847102        -1.67097
LJ         -0.836897       -0.713879        -2.54831
LJ         0.0460674      -0.0297246         2.55861
LJ         -0.880655       0.0839931        -1.65278
LJ        -0.0719976       -0.911191        -1.73446
LJ          0.844302       -0.957495        -2.49417
LJ           1.66601        0.149836         2.53602
LJ          0.731219      -0.0120833        -1.74214
LJ           1.67083       -0.855032        -1.68493
LJ          -2.55738        0.836978        -2.54021
LJ          -1.67558         1.69975         -2.5608
LJ          -2.55593         1.58155        -1.75296
LJ          -1.70893        0.822795        -1.65973
LJ         -0.770855        0.880903         2.46195
LJ         0.0175309         1.66666         2.46535
LJ         -0.826075         1.65382        -1.79529
LJ         0.0246654        0.843893        -1.85285
LJ          0.882966        0.916077         2.52692
LJ            1.6679         1.67082         2.54325
LJ          0.946069         1.71109        -1.80446
LJ           1.69107        0.888027        -1.73043
LJ          -2.54207         2.56258       -0.807235
LJ          -1.58033         -1.7042       -0.880576
LJ          -2.54204         -1.7774     -0.00381025
LJ          -1.73094        -2.53212      -0.0363317
LJ         -0.779858         2.51825       -0.847067
LJ         0.0045611        -1.67615       -0.906159
LJ         -0.807937        -1.72415        0.017776
LJ         -0.106941         2.49493      -0.0876533
LJ          0.957608         2.53931       -0.754593
LJ            1.6217        -1.72622        -0.86758
LJ          0.814232        -1.77849       0.0256389
LJ           1.72189        -2.51101      -0.0356635
LJ           2.48944         -0.8548         -0.8206
LJ          -1.76123       0.0120171        -1.00548
LJ           2.56289     0.000268658       -0.111038
LJ          -1.70503       -0.875009       0.0140319
LJ          -0.82363       -0.771526       -0.799676
LJ         0.0890592      -0.0815213       -0.845486
LJ          -0.92442      -0.0195476        0.029935
LJ       -0.00600738       -0.805383       0.0574782
LJ          0.891668        -0.74928       -0.864946
LJ            1.7058     -0.00286017       -0.871101
LJ          0.855757       0.0209761      -0.0682128
LJ           1.66786       -0.880076       -0.119396
LJ          -2.53012        0.881673       -0.838528
LJ          -1.73021         1.72682       -0.867982
LJ           2.50333         1.63533      -0.0135368
LJ          -1.74147        0.945368       0.0422303
LJ         -0.792216         0.81103       -0.754075
LJ         -0.134993         1.69266       -0.860509
LJ         -0.867782         1.70173      0.00799663
LJ        -0.0324716        0.843029          0.1089
LJ          0.868724        0.876956       -0.795448
LJ           1.74655          1.7173        -0.83916
LJ          0.846196         1.80237      -0.0799859
LJ           1.73557         0.84904       0.0728986
LJ          -2.49993        -2.49325        0.851617
LJ          -1.68082        -1.72189        0.791467
LJ          -2.54251        -1.69575         1.71585
LJ           -1.7838        -2.54984         1.69957
LJ         -0.776629        -2.46967        0.789119
LJ         0.0713173        -1.70422        0.862391
LJ         -0.855651        -1.70996         1.74571
LJ         0.0656602        -2.55442           1.757
LJ          0.920485         2.40481        0.871875
LJ           1.70123        -1.82031        0.867873
LJ          0.881533        -1.77755         1.56169
LJ           1.80774        -2.54713         1.75873
LJ           2.51909       -0.791109        0.869231
LJ          -1.71553       0.0189989        0.925024
LJ           2.55919       0.0324717         1.72566
LJ          -1.66538       -0.818018         1.79452
LJ         -0.902391       -0.864288        0.786692
LJ          0.111652      -0.0285141        0.921231
LJ         -0.782887      -0.0617305         1.62173
LJ        -0.0549621       -0.804266         1.67576
LJ          0.879248       -0.892402        0.838159
LJ           1.60014      -0.0559309        0.814771
LJ          0.780929      -0.0390312         1.69161
LJ           1.78565       -0.749446         1.67446
LJ           -2.4977        0.859027        0.873923
LJ          -1.65822         1.65159        0.920569
LJ          -2.56415         1.70827         1.77063
LJ          -1.68088        0.847543          1.7283
LJ         -0.849519        0.849862        0.844418
LJ        0.00557895         1.65077        0.866962
LJ         -0.853188         1.72442         1.67341
LJ        -0.0887689        0.785082         1.65973
LJ          0.826699        0.755266        0.785051
LJ            1.6778         1.62435        0.894631
LJ          0.846874         1.64682         1.76377
LJ           1.80691        0.785217         1.69124
