108
#Comment!
LJ          0.430399        -2.24768         2.01762
LJ          -1.52593        -1.47028       -0.872646
LJ          0.458875        -1.61174         1.02381
LJ           1.04944         1.65767        -1.12097
LJ          0.359813        -1.25645         2.22483
LJ           2.29261        0.649802        0.557833
LJ           1.37662          0.5123       -0.858121
LJ           1.77645        -1.70369         -1.5379
LJ          -2.34448        -2.18491         1.87346
LJ          0.877866         1.64323       0.0394943
LJ           2.28067        0.658966         1.61163
LJ           -1.9741          2.1107        -2.39357
LJ         0.0160151         1.04406       -0.383885
LJ          -1.79405         1.75974         1.81422
LJ          -1.81916         1.91935       -0.263128
LJ          -1.15612       -0.464239       -0.926129
LJ         -0.645477        -1.00981        -2.45925
LJ          -1.50375        0.733707        -1.07374
LJ           1.21901        -1.05115         1.65543
LJ           1.18514         2.55621        -2.04203
LJ           1.93177       -0.339418        0.796664
LJ         -0.590059         1.19807         2.22106
LJ           1.93281         1.83402        -2.26882
LJ          -2.31549       -0.664713       -0.911541
LJ           1.41093        -2.28607         2.07159
LJ          0.166269       -0.406156        -1.80526
LJ           2.50444        -1.91893       -0.873614
LJ         -0.153714        -1.06727        -1.02755
LJ          -1.68777        0.093493       -0.175967
LJ         -0.665329        -1.54225       -0.140234
LJ         -0.575929        0.168789        -2.36842
LJ          -1.03658          1.0884        0.986703
LJ          -1.45365      -0.0484338         2.08083
LJ           2.35778         2.04195        0.345174
LJ           2.41608        -1.17817       0.0638372
LJ         -0.226634        -2.39265        0.740203
LJ           2.05478         -2.2431      -0.0380431
LJ           2.10516        -1.36878         1.22017
LJ          -1.11498         1.76612        -1.91297
LJ          0.427818       -0.596761        0.798342
LJ        0.00598639         0.42571        0.541542
LJ           2.36693         2.21103        -1.11231
LJ         -0.140758       -0.702392         1.58142
LJ           2.37344          1.9136         1.97413
LJ          -2.24275        -1.19653        -1.82881
LJ           1.43855         1.50601         2.04101
LJ           1.76792         1.40343        -0.24099
LJ          -1.35602        -2.41039         1.70141
LJ           2.07385      -0.0428804       -0.304179
LJ           1.14825        -0.93866        -2.25982
LJ          -1.85188        -2.19003        -0.14663
LJ          -1.52953       -0.834461        0.091503
LJ          0.814493        -1.17244        -1.27206
LJ              2.39       -0.353983        -2.19936
LJ           1.13289         1.29451        -2.05214
LJ          0.696446         2.25322        0.930146
LJ           1.33198        -1.28143        0.651312
LJ          -1.96577        -1.19946          1.1935
LJ          -2.48899        0.780453       -0.567219
LJ           1.95359          1.2616        -1.47666
LJ          -1.93921        -1.15672         2.31183
LJ           1.35834        -2.53843       -0.895531
LJ           -0.6965           2.563       -0.473185
LJ          0.145944         1.21565         1.32877
LJ           1.46103        -1.40584       -0.512316
LJ          0.175125         1.79374         2.32205
LJ          -2.20157        -2.07057        0.816557
LJ         -0.525955         2.10016         1.45432
LJ          -1.12237         1.07284     -0.00215243
LJ          0.577554        -1.43137      -0.0562697
LJ         -0.663957         1.60363       -0.915682
LJ          -1.61756        -2.01365        -2.39318
LJ         -0.740666        -2.42865         2.55221
LJ         -0.295833         1.66925        0.342955
LJ          0.967769        -2.33714        0.138404
LJ           -1.7784       0.0134135          1.0018
LJ          -2.44082       -0.384147         1.70198
LJ          0.490668        0.645336         2.47152
LJ          -1.56916       -0.111624        -1.92988
LJ         -0.530965        0.404715       -0.901158
LJ           1.06364         0.57554         1.38758
LJ            2.3542        0.328152        -1.42345
LJ          0.430396        -2.19756        -1.15124
LJ          0.363448        0.865587        -1.33079
LJ          0.299452         2.10418       -0.618945
LJ          -2.08249         1.35802        -1.63167
LJ             1.563         1.49255         0.97244
LJ           1.23892       0.0410421        -2.03211
LJ         -0.422739        -1.78049         1.84761
LJ           2.15887         0.86166         -2.4081
LJ           1.99242        -2.54178         1.26506
LJ         -0.461647        0.296027         1.73268
LJ         -0.531233       -0.373868      -0.0482779
LJ           1.26543        0.459944        0.160871
LJ          0.135693         1.79119        -1.72536
LJ         -0.629359        -1.79339        -1.46196
LJ           1.66409       -0.529938         -1.1423
LJ          0.146349         -2.0022        -2.14354
LJ          0.318864      -0.0710552       -0.617373
LJ          -1.65174        0.879762         2.37797
LJ          -1.66538        -2.40308          -1.415
LJ          -1.23872         2.20021        0.541923
LJ          0.602224       -0.208552         2.01434
LJ          -2.56099        -2.23886        -2.13965
LJ         -0.625796       -0.962253        0.777177
LJ          -1.95542         1.30328        0.702765
LJ            1.9935        -1.27568         2.41806
LJ           1.62272      0.00165366         2.03896
