108
#Comment!
LJ          -2.49877        -2.36973        -2.56428
LJ          -1.85894        -1.50081         2.51624
LJ          -2.26673        -1.61437        -1.79768
LJ          -1.54067        -2.43647        -1.80678
LJ         -0.812191          2.3803        -2.47148
LJ        -0.0756149        -1.55979         2.43371
LJ         -0.937393        -1.53535        -1.91499
LJ          0.078694         2.44968        -1.89063
LJ           1.03268        -2.37517        -2.45408
LJ           1.69754        -1.62918         2.39353
LJ           1.22748        -1.72411        -1.66552
LJ            1.9062         2.45123         -1.5289
LJ           2.39072       -0.617213         2.54671
LJ          -1.80677      -0.0155789         2.34513
LJ          -2.41747      -0.0436736        -1.82602
LJ          -1.57846       -0.642697        -1.67293
LJ         -0.985621       -0.760159        -2.48497
LJ        -0.0355296       -0.154485        -2.47246
LJ         -0.812606        0.133218        -1.76539
LJ         0.0936924       -0.887157        -1.63613
LJ          0.812624       -0.991675        -2.55814
LJ           1.63197      0.00301095        -2.36647
LJ          0.768623        0.166109         -1.6963
LJ           1.55064       -0.690786        -1.60671
LJ          -2.55019        0.937394        -2.47019
LJ          -1.74373         1.95852         2.44169
LJ          -2.49628          1.6877        -1.52299
LJ           -1.5474        0.738162        -2.02425
LJ         -0.483157        0.777404         2.55103
LJ          0.102483         1.71738         2.35492
LJ          -1.25847         1.70279        -1.70964
LJ          0.016276         1.02361        -1.74006
LJ           1.10316         1.05892        -2.45268
LJ           1.74131         1.89037         2.50603
LJ           1.00122         1.90104        -1.85285
LJ           1.78509        0.838121        -1.74522
LJ           2.50076        -2.55759       -0.697372
LJ          -1.45027        -1.72372        -0.90263
LJ          -2.30622        -1.62629       -0.226169
LJ          -1.60795         2.45735        0.146472
LJ         -0.641867        -2.49355        -1.01819
LJ         0.0482392        -1.81399        -0.74824
LJ         -0.728107        -1.75226       -0.025847
LJ        0.00462952          2.3412        0.173163
LJ          0.656886         2.52038       -0.826531
LJ           1.91521         -1.5344       -0.900507
LJ          0.805337        -1.93196        0.178152
LJ           1.70982        -2.50337      -0.0137988
LJ          -2.36178       -0.811358       -0.888877
LJ          -1.84499        0.119993       -0.970015
LJ          -2.35599       0.0619746       -0.013062
LJ          -1.65206       -0.766112      -0.0339901
LJ          -0.76602       -0.754208       -0.691137
LJ         -0.102498        0.133745        -1.04492
LJ         -0.663418      -0.0717979        0.120126
LJ        0.00171546       -0.839574        0.137153
LJ           0.91983        -1.15708       -0.722347
LJ           1.85531       -0.187631       -0.552222
LJ          0.791008       0.0857816         0.16093
LJ           1.95996        -1.02483        0.016331
LJ           2.43649        0.819783       -0.777595
LJ          -1.78033         1.68946       -0.718273
LJ           2.50056         1.57789      -0.0414026
LJ          -1.85637        0.985926        0.175026
LJ          -1.10121        0.766429       -0.953967
LJ          0.159418         1.75377       -0.865317
LJ         -0.814559         1.70735      -0.0846971
LJ         0.0825459        0.869065       -0.160102
LJ          0.906055        0.909036       -0.909351
LJ           1.68941         1.69289       -0.864257
LJ          0.815218         1.75321      -0.0674121
LJ            1.6362        0.833555        0.137372
LJ           2.47283         2.46282        0.662695
LJ          -1.50533        -1.79813        0.778531
LJ          -2.52377        -1.46163         1.57425
LJ          -1.98781        -2.37339         1.66837
LJ         -0.813571         2.45513         1.07983
LJ         0.0435041        -1.46266         1.06423
LJ          -1.04816        -1.70237         1.86183
LJ        0.00211501        -2.25139         1.70252
LJ          0.838879         2.35854        0.872595
LJ           1.69492        -1.55003         1.11314
LJ          0.799665        -1.66882         1.78681
LJ           1.77264        -2.48393          1.4931
LJ          -2.41856       -0.821642        0.746823
LJ          -1.60964       0.0991142        0.904019
LJ            2.3826     -0.00587132         1.65821
LJ          -1.68238       -0.925748         1.59397
LJ          -0.85547       -0.935563         1.06294
LJ          0.140414       -0.118388         0.91151
LJ         -0.945378       0.0532975         1.83294
LJ          0.214549       -0.711523         1.74767
LJ          0.921407       -0.841677        0.637526
LJ           1.76313       -0.373486        0.840985
LJ          0.875027       0.0691927           1.773
LJ           1.50428       -0.738167         1.75738
LJ            2.3265         1.02858          1.0613
LJ          -1.75511         1.68741         1.00916
LJ           2.52106         1.88489          1.6537
LJ          -1.84863        0.849333         1.63083
LJ         -0.870259        0.952061        0.770969
LJ           0.36664         1.37938        0.798645
LJ         -0.742877         1.37603         1.67151
LJ          0.107113        0.804074         1.63106
LJ           1.13876        0.671688         1.02431
LJ           1.53285         1.70339        0.682859
LJ          0.998885          1.6811         1.71395
LJ           1.82903         1.11867         1.93847
