108
#Comment!
LJ         -0.959333         -2.0382       -0.447831
LJ           1.98195        0.318595       -0.741727
LJ        -0.0478853        0.515921        0.586522
LJ          -2.19812         -1.3314         1.36355
LJ           1.63688         2.29927        0.214919
LJ          -2.33075        0.708239        -1.08526
LJ           1.53786        -1.35154        -2.09568
LJ          -1.61094          1.6394        0.879076
LJ           2.16801        -2.15735        -1.28455
LJ          -1.94779        -2.28949       -0.909331
LJ           2.46747        -2.26471      -0.0755634
LJ           1.81643      -0.0852938         1.85156
LJ           1.85019        0.984504         -1.5667
LJ           0.70812         2.21332         2.24847
LJ          0.522645       -0.549115       -0.943521
LJ          0.349471         1.40104       -0.985018
LJ           -1.7133       -0.949315        0.020484
LJ          0.829398        0.478177       -0.821738
LJ          -2.50862         2.14909        -1.59879
LJ         -0.195528        0.696172       -0.442818
LJ          -1.63653         2.51159         2.54347
LJ          -2.26565        0.679875         1.71539
LJ          -2.49876         1.90008        0.354801
LJ           1.25104        0.826862          1.9511
LJ          0.782876        -0.58694        -1.94193
LJ          0.201634        -2.11459       -0.965977
LJ         -0.273504         1.80342         1.48598
LJ          -1.67524        0.586261        0.747677
LJ         -0.682557         1.44252        -1.39884
LJ             1.689       -0.764982         0.90063
LJ          0.533432       0.0736416         2.14838
LJ         -0.487077       -0.908764         2.25645
LJ         -0.911393       -0.205432        0.601858
LJ           2.14134        -2.09983        0.951301
LJ            1.5369          -1.872         2.02923
LJ          0.384828       -0.877516         1.60466
LJ           2.39358        -1.17762        0.257913
LJ           1.28915        -1.34713        -1.09275
LJ           -1.5193         -1.5408         2.32939
LJ          -1.81054        -1.99599        0.622032
LJ          -1.55002          1.3292         2.03412
LJ         -0.836054        -1.36467        0.453239
LJ          -1.59607          2.2365       -0.182334
LJ          -1.09741         1.03794      -0.0382684
LJ         -0.480622         1.67401        0.511593
LJ          0.523177          2.4409      -0.0580776
LJ           2.50801        -1.38526       -0.815827
LJ         -0.942773        0.516883         2.50487
LJ           1.92919        0.038206        -2.09725
LJ          0.705934         2.37243         1.13391
LJ          -1.08161       -0.703405        -1.13169
LJ          0.739057        -1.23411       -0.226714
LJ         -0.734612          1.9012        -2.55184
LJ          -1.76623        -1.84478        -1.83141
LJ          0.984491        -1.65187        0.972157
LJ           1.60649        -1.74877        -0.16041
LJ           1.68593        -0.62077       -0.489616
LJ          0.988874         1.31515         1.14949
LJ          -2.37405         1.89543         2.44315
LJ          -2.30772       -0.830072        -2.20316
LJ         -0.811262        0.907019         1.44777
LJ           1.15783        -2.42614        -1.03585
LJ        -0.0154193        -0.61356         0.62487
LJ           2.10793         1.24877         1.43685
LJ          0.654075       -0.215834        0.028799
LJ         -0.518849        -2.31855         2.27493
LJ          -1.19094       -0.528777        -2.17924
LJ         -0.330491       -0.153656        -1.60812
LJ           1.42017         1.42498       -0.697524
LJ         -0.373247       -0.357562       -0.340362
LJ          0.781384        0.554538        -2.02779
LJ           2.04334        0.264423        0.875916
LJ           2.35107        -2.05811         -2.4048
LJ          -1.02985         2.50632        0.910315
LJ           2.45001        0.983475      -0.0263568
LJ         -0.810777        -1.90681        -1.44414
LJ         0.0774296        -1.35997        -1.77319
LJ           -1.1487       -0.799492         1.37267
LJ          -2.38563        -0.40343         0.97117
LJ          0.841531        0.331802         1.16702
LJ          -1.90115         0.17512          -2.199
LJ           2.17432         1.03486         2.47159
LJ           2.29576          1.9646        -0.67155
LJ         -0.353446         2.12573       -0.718794
LJ          -1.72682         1.52725       -0.911211
LJ          -2.21088         2.30864         1.39471
LJ          -2.33808      -0.0613525       -0.172519
LJ          0.348771        -1.92624          1.7754
LJ         -0.334027        -1.23298       -0.845689
LJ         -0.578777        -1.66572         1.44709
LJ           -1.4387         0.10238       -0.479026
LJ           1.70759         2.15285         2.46434
LJ           1.71864         2.15445         1.16636
LJ         -0.225464       -0.122093         1.42306
LJ         -0.111096         2.32028        -1.78772
LJ          -1.44534       0.0947639         1.74569
LJ          -1.29327        0.545167        -1.49539
LJ          0.577866         1.45521        0.149778
LJ         0.0663527        -1.90807        0.494786
LJ           1.29812         1.84932        -1.82095
LJ          -1.34885         2.32983        -1.54721
LJ          0.148324         1.25633        -2.21821
LJ            0.1641        0.979883         1.89793
LJ          0.844706        -2.20145        -2.12961
LJ           2.04596       -0.767421        -1.49857
LJ          -2.16921       -0.395639        -1.11063
LJ          -1.60535         1.44162        -2.06964
LJ          -2.22534       -0.404097         2.07235
