108
#Comment!
LJ           2.53313        -2.55037        -2.56459
LJ          -1.70113        -1.81677         2.53645
LJ           -2.5621        -1.76376        -1.75431
LJ          -1.80887         2.56383        -1.68622
LJ         -0.937133         2.48206         2.48007
LJ         -0.171037        -1.79204        -2.51569
LJ         -0.843525        -1.61901        -1.53777
LJ        -0.0271254        -2.50854        -1.51541
LJ          0.947365         2.51967         2.42853
LJ           1.69698        -1.76007        -2.49718
LJ          0.932732        -1.55584        -1.54797
LJ           1.83702        -2.47642        -1.73893
LJ           2.36333       -0.873543         2.44231
LJ          -1.62729       0.0131331         2.46145
LJ           2.47606      0.00828378        -1.74301
LJ          -1.66653       -0.932211        -1.67873
LJ         -0.977103       -0.968032         2.55329
LJ         0.0787126       -0.124852         2.53133
LJ         -0.886984       0.0993503        -1.69582
LJ        -0.0204096       -0.871546        -1.68876
LJ          0.768494        -1.06011        -2.53928
LJ           1.81494        0.112342         2.55577
LJ          0.734577        0.101502        -1.68983
LJ           1.67512       -0.860598        -1.62752
LJ           2.55954        0.860475        -2.55592
LJ          -1.76018         1.69104         2.53168
LJ          -2.50167         1.56062        -1.75313
LJ          -1.77683        0.859925        -1.62012
LJ         -0.812851         1.00509         2.39798
LJ          0.143493         1.63414         2.38879
LJ         -0.860864         1.74854        -1.62838
LJ        -0.0351693        0.876539         -1.8217
LJ          0.840429        0.913513        -2.46707
LJ           1.79573         1.74347         2.51819
LJ           1.10541         1.75187        -1.76512
LJ           1.65714        0.786506        -1.65313
LJ           -2.5257        -2.45053       -0.880938
LJ          -1.58088        -1.74223       -0.810927
LJ           2.54352        -1.77893       -0.078584
LJ          -1.64223         2.46828       0.0296416
LJ         -0.781101         2.54452       -0.863119
LJ        -0.0423161        -1.61944       -0.867907
LJ         -0.897306        -1.66003       0.0590519
LJ        -0.0679227         2.49939      -0.0434422
LJ          0.899842         2.53249        -0.82896
LJ           1.66627        -1.83145          -0.754
LJ           0.68141        -1.96028        0.178273
LJ           1.63008         2.54836      -0.0344697
LJ          -2.48483        -0.79696       -0.796702
LJ          -1.85178        0.117429       -0.876009
LJ            2.4524       0.0173039      -0.0172646
LJ          -1.71981       -0.872118      -0.0278509
LJ         -0.902629       -0.707523       -0.797828
LJ        -0.0644389        -0.13445       -0.882099
LJ         -0.892269      -0.0676458     -0.00839229
LJ        -0.0184119       -0.740337       0.0896913
LJ          0.855315       -0.799401       -0.806076
LJ           1.70103      -0.0880746       -0.883914
LJ          0.945128      -0.0250707       -0.137259
LJ           1.70542       -0.986195       -0.200133
LJ          -2.50097        0.899438       -0.783621
LJ          -1.80072         1.74659       -0.900914
LJ           2.53926         1.72173       0.0801744
LJ          -1.68454        0.840896        0.124772
LJ         -0.821778         0.76071       -0.605509
LJ         -0.107139         1.75865        -0.94144
LJ         -0.949328         1.76684         -0.1284
LJ        -0.0765151        0.930233       0.0845363
LJ          0.768108        0.953464        -0.79807
LJ           1.74322         1.83703       -0.841807
LJ          0.691839         1.69827       -0.169371
LJ           1.74214        0.798494       0.0380111
LJ            2.5339         2.52595        0.929511
LJ          -1.63789        -1.76954         1.02126
LJ           2.44288        -1.66268         1.75789
LJ          -1.79088        -2.52602         1.70834
LJ         -0.816184         2.38825        0.848679
LJ          0.101334        -1.77963        0.931708
LJ         -0.822177        -1.68316         1.83427
LJ         0.0452525        -2.55446         1.75745
LJ           1.05726         2.48431        0.886508
LJ           1.70611        -1.81999        0.768791
LJ           1.00612        -1.66014         1.61838
LJ           1.73866        -2.51446         1.71198
LJ           2.48038       -0.674424        0.967762
LJ          -1.74952      -0.0180987        0.754159
LJ          -2.52037      -0.0457821         1.85896
LJ          -1.74424       -0.929051         1.85213
LJ         -0.844833       -0.920161        0.820115
LJ         0.0956064      -0.0549218        0.879072
LJ         -0.731882      -0.0137394         1.65913
LJ          0.049704       -0.916859         1.60381
LJ          0.820856       -0.905947        0.850376
LJ           1.68467        -0.14664        0.778666
LJ          0.804649        -0.10725         1.68127
LJ            1.7534       -0.845158         1.73712
LJ           2.55106        0.947747        0.776219
LJ          -1.70065         1.71981        0.810977
LJ          -2.52028          1.7024         1.78682
LJ          -1.64013        0.768523         1.76194
LJ         -0.832082        0.723951        0.815167
LJ       -0.00990934         1.57248        0.893629
LJ         -0.860488         1.73398         1.68612
LJ         0.0490384         0.81844         1.53392
LJ          0.845875        0.736455        0.789799
LJ            1.7362         1.66377        0.784774
LJ          0.883816         1.58892         1.67286
LJ           1.68986         0.98823         1.62029
