108
#Comment!
LJ           2.51624        -2.56139         2.54241
LJ          -1.72677        -1.80956         2.53324
LJ          -2.50158        -1.77848        -1.75203
LJ          -1.84404        -2.53415        -1.71376
LJ         -0.900024          2.4747         2.46884
LJ         -0.203558        -1.78963        -2.51721
LJ         -0.817949        -1.64187        -1.52384
LJ        0.00616171        -2.50029         -1.5705
LJ          0.947638         2.48714         2.44412
LJ           1.68072        -1.76404        -2.55713
LJ          0.857352        -1.54837        -1.57496
LJ           1.85668         -2.5075        -1.70031
LJ            2.4071       -0.895638         2.51446
LJ          -1.59936       0.0251979         2.49243
LJ           2.49668      0.00488508        -1.72982
LJ          -1.70194       -0.924631        -1.69266
LJ          -1.02633        -0.94455         2.55581
LJ          0.104274        -0.14788         2.54471
LJ         -0.885408        0.130563        -1.71716
LJ         0.0158264       -0.895303        -1.69201
LJ          0.841262        -1.01604        -2.52495
LJ           1.82144        0.126293         -2.5298
LJ          0.752312        0.134895         -1.7158
LJ           1.71192        -0.86801         -1.6504
LJ           2.51511        0.843594         2.53244
LJ          -1.75304         1.72433        -2.56177
LJ           -2.4616         1.58252        -1.79154
LJ          -1.79787        0.885534        -1.62056
LJ         -0.812763         1.01739         2.40053
LJ          0.168685         1.65146         2.40318
LJ         -0.839352         1.77637         -1.6505
LJ        -0.0662419        0.844628        -1.83411
LJ          0.857115        0.962427        -2.40017
LJ           1.77269          1.7673        -2.53695
LJ           1.09371         1.77181        -1.78791
LJ           1.71244        0.813262        -1.65762
LJ          -2.55015        -2.46413       -0.885953
LJ           -1.5852        -1.78311       -0.754761
LJ           2.49368        -1.75056      -0.0508621
LJ          -1.64676         2.47035       0.0589757
LJ         -0.828772        -2.56006       -0.871538
LJ        -0.0332817        -1.67732       -0.889063
LJ         -0.887564        -1.71804        0.114933
LJ        -0.0561507         2.47373      -0.0374096
LJ          0.882312         2.55098       -0.817422
LJ            1.6564        -1.80215       -0.780404
LJ          0.706094        -1.91509        0.152802
LJ            1.6752        -2.52293       -0.100698
LJ          -2.53267       -0.825977       -0.795767
LJ          -1.88037        0.117934       -0.866119
LJ           2.43902       -0.033298     -0.00656456
LJ          -1.67521       -0.882151     -0.00718754
LJ         -0.915343       -0.718405         -0.7877
LJ        -0.0954209       -0.123106       -0.897085
LJ         -0.876081      -0.0914448     0.000753118
LJ        -0.0261882       -0.709782       0.0583679
LJ          0.884093       -0.837095       -0.832295
LJ           1.67004       -0.149947       -0.886006
LJ          0.945172      -0.0193673       -0.096053
LJ           1.70286        -1.00244       -0.196189
LJ          -2.45588        0.936744       -0.845347
LJ           -1.7781         1.74899       -0.937313
LJ           -2.5467         1.70445       0.0600617
LJ          -1.67573        0.896723         0.14892
LJ         -0.873563        0.763138       -0.654262
LJ         -0.122658         1.75744       -0.933794
LJ         -0.953047         1.74755      -0.0995869
LJ        -0.0852318        0.943576       0.0592476
LJ          0.754705        0.960806       -0.861066
LJ           1.67805         1.84859       -0.862216
LJ          0.652089         1.69859       -0.171405
LJ           1.71486        0.770896       0.0602017
LJ           2.53495         2.49511        0.970114
LJ          -1.63109        -1.73748         1.04773
LJ           2.38565        -1.69538         1.78776
LJ          -1.82538        -2.49078         1.68968
LJ         -0.854773         2.39734        0.855172
LJ         0.0729092        -1.77915        0.936069
LJ         -0.864124        -1.62722         1.79997
LJ        0.00283718        -2.48745         1.83081
LJ           1.06508         2.44819         0.87907
LJ           1.74583        -1.84864        0.813951
LJ           1.01479        -1.71128         1.59992
LJ            1.7422        -2.48594         1.72789
LJ           2.43229       -0.681533        0.994818
LJ          -1.72931      -0.0440994        0.779583
LJ          -2.54742      -0.0269849         1.86698
LJ          -1.70681       -0.922249         1.78519
LJ         -0.801741       -0.886462        0.821213
LJ         0.0808668      -0.0194129        0.838961
LJ         -0.721491      -0.0202915         1.64616
LJ         -0.011821       -0.942902         1.63222
LJ          0.815396       -0.893621        0.881708
LJ           1.68375        -0.12136        0.791711
LJ          0.846801      -0.0935751         1.65647
LJ           1.75774       -0.812968         1.72705
LJ            2.5336        0.955836        0.794364
LJ          -1.75469         1.71728        0.828547
LJ          -2.55739         1.76611         1.79007
LJ          -1.63204        0.727226         1.78415
LJ         -0.858425        0.697727        0.833538
LJ        -0.0528142         1.57182        0.895736
LJ         -0.831241          1.7295          1.6978
LJ         0.0272566        0.808261         1.49869
LJ           0.87794        0.691051        0.756432
LJ           1.75987         1.60555        0.790742
LJ          0.832706         1.60219         1.68078
LJ           1.72582         1.00975         1.68143
