108
#Comment!
LJ            1.3253         -1.2443         1.02145
LJ           2.23107       -0.768789         1.19218
LJ          -0.95501         1.08718         1.57573
LJ         -0.161696       -0.405899        -1.48805
LJ          0.979508        0.566796        0.676828
LJ           1.93597        -2.11423       -0.397038
LJ           1.01312         0.45837         -2.4712
LJ            1.5981       -0.398534        0.528785
LJ           1.73778         1.03436         2.28326
LJ          -1.40641         1.06306        0.703068
LJ           1.64823       -0.946062         -1.1766
LJ         0.0805286        0.123701         1.81143
LJ         -0.838382        -2.18269       -0.232321
LJ           1.25271         1.74164         1.69531
LJ           2.33073        0.224216         1.72448
LJ         -0.816177        -1.17306        0.385688
LJ          -1.34119        -1.84679         2.15799
LJ          -2.35783         0.73669        0.509886
LJ           0.37422         2.16546         2.28612
LJ          -2.50751       -0.371057       -0.912612
LJ         -0.246875         1.63738        -2.09986
LJ         -0.938298          1.4475        -1.26954
LJ          -1.56222         0.52899         -1.1232
LJ          -1.60665      -0.0337762        -2.27562
LJ          0.616966       -0.739647       -0.966637
LJ          -1.35618        -2.46482        0.928444
LJ            2.3439        -1.40155        0.377429
LJ         -0.422845      0.00434974        -2.49167
LJ          0.449422         1.90449        0.288853
LJ          -1.12551       -0.874377         2.56221
LJ           1.85538        -1.83973        -1.71534
LJ          -1.50221        -1.67843        -1.62919
LJ          -2.21929       -0.683381        -2.02666
LJ         0.0637974         2.42848       -0.943194
LJ          -2.13031        -2.29759        0.150439
LJ         -0.577164         1.98276        0.775278
LJ           1.75537         1.97909        0.531051
LJ         -0.818721      -0.0906336         1.63005
LJ          0.974825        -1.26153        -1.94295
LJ          0.490021      -0.0487979      -0.0386704
LJ          0.801616        -1.92437        -0.97136
LJ          -1.82362        -0.98201         -0.1876
LJ         -0.476038       -0.561775       -0.531415
LJ          -1.58947         1.59163         -2.5353
LJ           1.51518        -2.14656        0.669357
LJ          -1.85635        -2.47636       -0.900398
LJ         -0.958116         0.87837        -2.46363
LJ           1.21008     -0.00175372         1.68871
LJ          0.557894        -2.36501         1.49131
LJ          0.823174        -1.82081         2.28117
LJ          -1.69491        0.395634         1.63719
LJ          0.297243         1.47285         1.32238
LJ           1.11263           1.583        -2.26781
LJ         -0.562737         1.61084       -0.380356
LJ          -2.44979           1.576         1.78504
LJ          -2.22276         1.31067        -1.33507
LJ         -0.623262         2.24089         2.25557
LJ         -0.542333        -1.52508        -1.13114
LJ           1.16079         -1.3047       -0.124711
LJ            1.9269         1.01605        -1.81851
LJ          -1.46147        -1.19499          1.3118
LJ         0.0745025        -1.18372        -2.39153
LJ          -1.37182         2.11727       0.0414831
LJ          -2.30542        0.768636         2.51596
LJ          -2.46771       -0.249623        0.332467
LJ           1.11352        0.297603         -1.2153
LJ          -1.54996      -0.0550385       -0.244485
LJ          0.921963       -0.645815         2.47648
LJ         -0.322144        -2.24485        0.627527
LJ          -2.39341        0.277405        -1.65002
LJ           1.55455         2.37947         2.45952
LJ          -1.64658          1.1858       -0.371898
LJ          0.666645         1.25738        -1.25479
LJ          -2.25442          2.0181        0.795455
LJ           2.24224         2.29185        -1.17486
LJ         -0.559163        -1.10701         1.64346
LJ          0.242642         -2.3188        -1.88954
LJ          -2.47262        0.632306       -0.544291
LJ         -0.637928          -1.855         -2.2669
LJ         -0.337675        -0.14434        0.612187
LJ          -1.27753       -0.637735        -1.43662
LJ         -0.698284        0.637108       -0.457532
LJ           -2.3063        -1.81774         1.27612
LJ         -0.422535         0.98043        0.655018
LJ           1.89828       -0.241542        -1.92959
LJ           2.04515         2.42244          1.5637
LJ           1.92772       -0.689363         2.19117
LJ          0.397605         1.16349         2.34904
LJ          0.123551        -1.27308       -0.115312
LJ          0.532161         -2.2368      -0.0723736
LJ          -2.33324        -1.42828         2.25308
LJ          0.219663        -1.23592         1.00674
LJ           2.52779         1.82833        -2.21091
LJ          -2.02188       -0.502497         2.07578
LJ          -2.40609        -1.37572        -1.12813
LJ           1.86735        0.901099         1.20413
LJ           1.75023         1.35689       -0.883258
LJ            -1.119         2.51819        -2.05296
LJ           1.71709        -1.70406         1.80894
LJ          -1.38937        0.113127        0.701958
LJ          0.613857         1.13832       -0.326977
LJ           1.08793         2.05349       -0.561908
LJ           2.43324         1.88593       -0.170899
LJ           1.59345       -0.180642       -0.493116
LJ           1.24179         2.46698        -1.56501
LJ          -2.07705         2.54757          2.1342
LJ          -2.32477        -2.36576        -1.94333
LJ        -0.0596309        0.665048        -1.66606
