108
#Comment!
LJ          -2.50024        -2.38891         2.49996
LJ          -1.67097        -1.53956         2.49286
LJ          -2.32897        -1.51311        -1.83707
LJ          -1.66768        -2.48487        -1.73219
LJ         -0.742825         2.34621        -2.43556
LJ         -0.121296         -1.4958         2.52483
LJ         -0.919962        -1.42035        -1.97628
LJ         0.0776164        -2.48782        -1.97127
LJ          0.984573        -2.37764        -2.41978
LJ           1.69151        -1.50509         2.35231
LJ           1.17937         -1.6659        -1.71404
LJ           1.84937        -2.54771        -1.63619
LJ           2.42257       -0.731202        -2.47906
LJ          -1.74272      -0.0449377         2.30147
LJ           -2.5551       0.0208826        -1.69455
LJ          -1.51905       -0.565946        -1.75012
LJ         -0.838644       -0.674183        -2.54002
LJ         0.0778011       -0.101361          -2.376
LJ           -0.7946       0.0830794        -1.73869
LJ          0.156598       -0.930399        -1.59896
LJ           0.74683        -1.02226        -2.53731
LJ            1.6696      0.00966597        -2.39507
LJ          0.931646        0.179354        -1.62783
LJ           1.51999       -0.594811        -1.53565
LJ          -2.46054        0.849756        -2.43729
LJ          -1.81252         2.01002         2.42413
LJ          -2.48296         1.70442        -1.60327
LJ          -1.54137        0.699503        -2.11179
LJ          -0.54371        0.800415         2.51963
LJ          0.035264         1.71012         2.37198
LJ          -1.28582         1.72062         -1.6796
LJ          0.010108         1.06499        -1.70558
LJ           0.98603        0.964425         -2.5498
LJ           1.74583         1.89459         2.45889
LJ          0.909467         1.82838        -1.74864
LJ           1.72328         1.00251        -1.84679
LJ          -2.53716        -2.50185        -0.76751
LJ           -1.3862        -1.66292         -1.0038
LJ           -2.3446        -1.56779       -0.109316
LJ          -1.65676         2.41132        0.131554
LJ          -0.73497        -2.49492        -1.00611
LJ         0.0524407         -1.8364        -0.68421
LJ         -0.776622        -1.83926       0.0410085
LJ        -0.0206029         2.36248        0.240406
LJ          0.881123        -2.53981        -1.05492
LJ           1.90739        -1.58994       -0.872315
LJ          0.800387        -1.87458        0.214749
LJ           1.74107        -2.50466       0.0887765
LJ          -2.41062       -0.734605       -0.699846
LJ          -1.82821        0.205819       -0.889779
LJ          -2.34528      0.00147684      -0.0590309
LJ          -1.52959       -0.662349      -0.0794794
LJ         -0.675588       -0.816267       -0.730841
LJ       -0.00516641       0.0172564       -0.981926
LJ         -0.674459       -0.141724     -0.00176241
LJ       -0.00370459        -0.97278        0.196668
LJ          0.989938        -1.03382       -0.759893
LJ            1.8677       -0.286674       -0.678542
LJ          0.791119       0.0948483       0.0394786
LJ           1.86828        -1.04971       0.0885968
LJ           2.37886        0.825794       -0.774281
LJ          -1.84775         1.75062       -0.661553
LJ           2.49354         1.79048      -0.0424686
LJ          -1.74338         0.94218        0.192046
LJ         -0.993133        0.781352       -0.919925
LJ         0.0559864         1.73366        -0.75013
LJ         -0.698809         1.64855       -0.166399
LJ         0.0822013        0.845234       -0.144015
LJ          0.832267         1.05993       -0.991728
LJ           1.61376         1.70453        -0.77604
LJ           0.86006         1.78943       -0.123857
LJ           1.67981        0.787154       0.0599695
LJ           2.48664          2.4515        0.745381
LJ           -1.4433          -1.776        0.835471
LJ           2.46019        -1.51486         1.63193
LJ          -1.84066        -2.36778         1.69048
LJ         -0.878641         2.47305         0.92779
LJ        0.00506204        -1.48641         1.01514
LJ         -0.881592        -1.62129         1.76026
LJ        -0.0445183         -2.2625          1.7494
LJ          0.781681         2.38929        0.863783
LJ           1.68549        -1.59137        0.946229
LJ          0.786799        -1.63138         1.61111
LJ            1.7107        -2.51146         1.56516
LJ          -2.38303       -0.890242         0.78237
LJ          -1.70169        0.133814        0.837461
LJ           2.39501       0.0411963         1.66292
LJ           -1.6395       -0.871977         1.57844
LJ          -0.85036       -0.851075        0.999911
LJ           0.12962       -0.136941        0.897416
LJ         -0.892796      -0.0283228          1.7422
LJ         0.0851562       -0.765047         1.77428
LJ          0.994214       -0.885347        0.552887
LJ           1.74712       -0.252347        0.861734
LJ          0.869812      -0.0278854         1.75221
LJ           1.50952       -0.717708           1.736
LJ           2.30275        0.918794         1.07788
LJ          -1.82645         1.66825        0.938014
LJ            2.4547         1.86339         1.59203
LJ          -1.74275        0.806255         1.71615
LJ         -0.924918        0.903843        0.850755
LJ          0.363651         1.36116         0.77478
LJ         -0.646209         1.54957         1.73403
LJ          0.099983        0.792675         1.61802
LJ           1.03612        0.652086        0.989064
LJ           1.60234         1.79671        0.678458
LJ          0.932679         1.79914          1.6606
LJ           1.81712         1.02628         1.93549
