108
#Comment!
LJ          -2.54394        -2.33455         2.40555
LJ          -1.75513        -1.62153         2.50812
LJ          -2.36671        -1.53348        -1.67015
LJ          -1.72689         2.54989        -1.64653
LJ         -0.836425         2.40756        -2.51746
LJ        -0.0358733        -1.87591        -2.43085
LJ          -1.06036        -1.50023        -1.79935
LJ        -0.0975111         2.25629         -1.8221
LJ          0.786426         2.54758         2.52296
LJ           1.76979        -1.65186         2.54287
LJ           0.76762        -1.91918        -1.70697
LJ           1.98868         2.36827        -1.77676
LJ           2.49225       -0.846797         2.50364
LJ          -1.71306       0.0682826        -2.54256
LJ           2.53152       0.0620559        -1.77541
LJ          -1.82378        -0.52773        -1.70255
LJ          -1.03526       -0.789539         -2.4413
LJ        -0.0796434       -0.134998        -2.48582
LJ         -0.960239       0.0524535        -1.81935
LJ         -0.119969        -1.13088        -1.85568
LJ          0.820783        -1.08432         2.56068
LJ           1.72562      0.00354013         2.48424
LJ           0.98393        0.105367        -1.86923
LJ           1.63137       -0.653457        -1.74942
LJ          -2.54902        0.971373        -2.54002
LJ           -1.6829         1.86424         2.40295
LJ          -2.40063          1.5861        -1.66841
LJ          -1.68748        0.839109        -1.76848
LJ         -0.503253        0.903601        -2.54334
LJ          0.116402         1.72376         2.36105
LJ          -1.14917          1.6963        -1.78901
LJ         0.0978766         1.13161        -1.78294
LJ          0.840686        0.933872         2.50067
LJ           1.69733          1.7475         2.41356
LJ          0.979977         1.92507        -1.85673
LJ           1.65239          1.1053        -1.65986
LJ           2.52991         2.46981       -0.727399
LJ          -1.55015        -1.68018       -0.777511
LJ          -2.36265        -1.78551       -0.149022
LJ          -1.76118         2.42156      0.00743453
LJ         -0.694369         2.53462        -1.03306
LJ          0.164357        -1.69479       -0.781978
LJ         -0.708747        -1.94334       -0.218496
LJ         -0.209711         2.29625       0.0538374
LJ          0.859615        -2.55017       -0.952222
LJ           1.79993        -1.83987        -1.03078
LJ          0.748781        -1.94946         0.26262
LJ           1.66956        -2.51102       -0.116527
LJ          -2.47061       -0.950992       -0.700144
LJ          -1.96064      -0.0283785       -0.763839
LJ          -2.54739        0.235239       0.0610108
LJ          -1.79666       -0.708832        0.131354
LJ         -0.722216       -0.865643       -0.699288
LJ         -0.111664         0.18704        -1.05819
LJ         -0.615714        0.111262       -0.057278
LJ        -0.0353587       -0.702269        0.111049
LJ          0.983186        -1.04437       -0.803247
LJ           1.86988        -0.17556       -0.583766
LJ           0.72746        0.036197       0.0944877
LJ           1.90621        -1.14487       -0.108518
LJ          -2.52487        0.941868       -0.800163
LJ          -1.65941         1.88217       -0.863152
LJ           2.44219         1.69417      -0.0374427
LJ          -1.94227         1.13256         0.39273
LJ          -1.10499        0.744598       -0.913298
LJ          0.103135         1.62809       -0.934733
LJ         -0.828713         1.45129       -0.167273
LJ         0.0245065        0.891545       -0.214929
LJ           1.00721        0.936384       -0.753232
LJ           1.62121         1.76971        -0.73657
LJ          0.767189         1.99147      -0.0350951
LJ           1.71167        0.847382      -0.0994207
LJ           2.43065          2.3523        0.721229
LJ          -1.36632         -1.7672        0.650019
LJ           2.47311        -1.40761         1.66512
LJ          -2.01752        -2.35414         1.35894
LJ         -0.760491         2.54948         0.96477
LJ          0.124694        -1.48788        0.966686
LJ          -0.94281        -1.86156         1.84845
LJ         0.0303123        -2.34736         1.71875
LJ          0.751225         2.37622         0.98567
LJ           1.82882        -1.65853        0.857391
LJ           0.96612        -1.80529         1.74961
LJ           1.75214        -2.41499         1.69583
LJ           2.48903       -0.624868         0.85568
LJ          -1.56803       0.0698413        0.800844
LJ           2.53879       0.0169495         1.75261
LJ          -1.71517       -0.759774         1.77351
LJ         -0.793536        -1.07125         1.01012
LJ          0.185818       -0.155554         1.06091
LJ          -0.94716        0.203736         1.95574
LJ          0.104123       -0.916131         1.83284
LJ            1.0301        -1.00382        0.811129
LJ           1.62745       -0.161673        0.593912
LJ          0.641486       0.0249772         1.94469
LJ           1.54719        -0.80959         1.74589
LJ           2.19323         0.73946         0.88987
LJ          -1.57072          1.9117         1.01727
LJ           2.43182         1.67586         1.49827
LJ          -1.85405        0.884112         1.52328
LJ         -0.788067        0.754228        0.746896
LJ          0.261666         1.44353        0.806285
LJ         -0.814592         1.41546         1.61022
LJ          0.147765        0.868231         1.75004
LJ           1.16716         0.73497        0.953896
LJ           1.43803         1.76463        0.645128
LJ          0.954793         1.52415         1.63596
LJ           1.63554        0.764353         1.88969
