108
#Comment!
LJ          -2.46906        -2.28347         -2.5324
LJ          -1.66326        -1.56295         2.56091
LJ          -2.44887        -1.52838          -1.725
LJ          -1.73876        -2.43579        -1.80681
LJ         -0.834552            2.38        -2.49491
LJ        -0.0676258        -1.50926         2.54161
LJ         -0.789086         -1.4225        -1.90686
LJ          0.135698         2.55711        -1.82695
LJ           1.06508        -2.52501         2.56108
LJ           1.57686        -1.55249         2.42559
LJ           1.05489        -1.70466         -1.7568
LJ           1.92166        -2.55363        -1.63217
LJ           2.53804       -0.752411        -2.46006
LJ          -1.92686      -0.0584192         2.30988
LJ           2.53163       0.0759382        -1.61497
LJ          -1.63646        -0.56014         -1.6222
LJ         -0.791936         -0.6977          2.5134
LJ         0.0986358      -0.0239771        -2.33531
LJ         -0.755854         0.06662        -1.75057
LJ          0.181739       -0.900365        -1.52141
LJ          0.711947       -0.987897        -2.47123
LJ           1.71525        0.083132        -2.44262
LJ          0.881723        0.242458        -1.62379
LJ           1.38517       -0.709377        -1.53208
LJ           2.55413        0.900704          -2.362
LJ          -1.74222         1.91164         2.41091
LJ          -2.44144         1.73262        -1.48693
LJ          -1.55064        0.657644        -2.00657
LJ         -0.467178        0.851003         2.49874
LJ          0.078436         1.87435         2.43833
LJ          -1.19319         1.62391        -1.74272
LJ           -0.2036         1.07391         -1.6579
LJ          0.995345        0.985059        -2.46051
LJ           1.78284         1.92777        -2.50831
LJ           0.93447         1.83776        -1.79313
LJ           1.70917         1.23213        -1.82323
LJ           2.51218        -2.37657       -0.640714
LJ          -1.40073        -1.59611        -0.91481
LJ          -2.30459        -1.61618       0.0843138
LJ           -1.7152         2.43892        0.342187
LJ         -0.698659         2.54915        -1.01187
LJ         0.0921513        -1.81063       -0.721218
LJ         -0.807098        -1.85076       0.0617741
LJ        -0.0126433         2.45472       0.0606313
LJ           1.02794        -2.46367       -0.920069
LJ           1.93265        -1.51541       -0.855713
LJ          0.724222         -1.9268        0.230342
LJ           1.65951        -2.50892       0.0379617
LJ          -2.24112       -0.806132       -0.720551
LJ          -1.84395        0.295401       -0.915379
LJ          -2.46528      0.00481071      -0.0119836
LJ          -1.55257       -0.610662      -0.0794184
LJ         -0.741551       -0.788329       -0.838448
LJ       -0.00138694       0.0228389       -0.781914
LJ         -0.671299      -0.0400529        0.044906
LJ        -0.0452724        -1.07766       0.0955079
LJ          0.895373        -1.11075       -0.636585
LJ           1.91802       -0.287608       -0.565278
LJ          0.877951       0.0680491       0.0260031
LJ           1.91483        -1.02892        0.193939
LJ           2.30503        0.836662       -0.715842
LJ          -1.74794         1.67053       -0.662518
LJ           2.35961          1.6332       0.0276576
LJ          -1.80533         1.03402        0.103058
LJ         -0.867756        0.838092       -0.889365
LJ          0.052453         1.81496        -0.91375
LJ         -0.838475         1.67976      -0.0792832
LJ          0.174561        0.916176       -0.138941
LJ          0.836385        0.939037       -0.933276
LJ           1.73834         1.76381       -0.843411
LJ          0.861686         1.85032       -0.146186
LJ            1.6867        0.638284       0.0652427
LJ           2.41869         2.43672        0.731267
LJ          -1.51986        -1.79645        0.918605
LJ           2.41396        -1.43412         1.65082
LJ          -1.89698        -2.37889         1.65325
LJ         -0.700423         2.44348        0.984781
LJ         -0.115108        -1.58118         1.07707
LJ         -0.836154        -1.65781         1.79891
LJ        -0.0103098        -2.30858         1.75873
LJ          0.852672         2.49255         0.92893
LJ           1.54576         -1.6797         1.00408
LJ          0.786119        -1.54935         1.70002
LJ           1.56932         2.55128         1.58011
LJ          -2.31667       -0.764872         0.95733
LJ          -1.80772        0.200242        0.779693
LJ           2.32444        0.105979         1.66983
LJ          -1.62255       -0.847547         1.61459
LJ         -0.889649       -0.902653        0.885321
LJ          0.133178      -0.0559512         0.89814
LJ          -1.00946      -0.0258902         1.58555
LJ         0.0384249       -0.624924         1.82444
LJ          0.949167       -0.896747        0.495461
LJ           1.69775       -0.200547        0.872019
LJ          0.970767      -0.0268132         1.72177
LJ           1.57207        -0.82087         1.69855
LJ           2.38569         0.93541         1.03894
LJ          -1.91196         1.67059        0.928095
LJ           2.42647         1.96851         1.63559
LJ          -1.67146        0.823085         1.63433
LJ         -0.925013        0.885705        0.925814
LJ          0.286919         1.45502        0.721275
LJ         -0.721608          1.5212         1.69017
LJ          0.148797        0.714163         1.64983
LJ           1.11909        0.696126         1.09558
LJ           1.56407          1.7724        0.851006
LJ          0.792514          1.7861         1.61453
LJ           1.77877        0.893195         1.93977
