108
#Comment!
LJ           2.51148        -2.46345         2.45439
LJ           -1.6663        -1.87089         2.50734
LJ           2.49328        -1.67895        -1.54938
LJ          -1.89781        -2.52219        -1.77852
LJ         -0.952802         2.53068         2.37489
LJ         -0.230469        -1.84247        -2.54565
LJ         -0.921502        -1.51966        -1.68426
LJ         0.0455404         2.38671        -1.72715
LJ          0.887707         2.53177        -2.44025
LJ           1.81339        -1.71073        -2.55765
LJ          0.839146         -1.6118        -1.55833
LJ            1.9495        -2.53046        -1.57321
LJ           2.43717        -0.86762        -2.52783
LJ          -1.76007        0.149571         2.51317
LJ          -2.48809        0.210314        -1.79929
LJ          -1.76463        -0.71482        -1.45336
LJ          -1.17986       -0.909039        -2.56037
LJ         0.0725376       -0.114305        -2.56136
LJ         -0.832163        0.115069        -1.77749
LJ         0.0646943       -0.845352        -1.73341
LJ          0.980281        -1.03739        -2.56333
LJ            1.6627       0.0538082         2.55956
LJ          0.770781       0.0495895        -1.52407
LJ           1.68667       -0.912017        -1.77344
LJ          -2.54951        0.975336         2.41147
LJ          -1.68947         1.85969         2.52459
LJ          -2.53346         1.62174        -1.80712
LJ          -1.66043        0.906885        -1.81967
LJ         -0.686543         1.07064         2.35083
LJ         0.0330705         1.72513         2.41979
LJ         -0.727268         1.62317        -1.75851
LJ        -0.0333417        0.826215        -1.81496
LJ          0.771376        0.886767        -2.48533
LJ           1.76376         1.89095         2.56446
LJ          0.962145         1.77642        -1.53328
LJ           1.78028        0.880975         -1.7575
LJ          -2.44682         2.51664       -0.851769
LJ          -1.56169        -1.84296       -0.650797
LJ          -2.55333        -1.73331      -0.0633449
LJ          -1.66211         2.43716      0.00472259
LJ         -0.819781         2.47459       -0.889085
LJ         0.0666895        -1.68176       -0.928734
LJ         -0.782416        -1.73989        0.123877
LJ         -0.247184         2.27802       0.0269488
LJ          0.917524        -2.50764       -0.976597
LJ           1.72238        -1.65686       -0.794387
LJ          0.677355        -1.89385       0.0464007
LJ           1.58686        -2.41709      -0.0990033
LJ           2.50939        -0.89233       -0.762637
LJ          -1.80757        0.128667       -0.779523
LJ          -2.56195       0.0353194      -0.0157336
LJ          -1.79266       -0.734911      -0.0847032
LJ         -0.778323       -0.748346       -0.878922
LJ        -0.0389784        0.160711       -0.828887
LJ         -0.875826       0.0107792      -0.0293384
LJ        -0.0832496       -0.738383      -0.0398842
LJ          0.739045       -0.952248       -0.751348
LJ           1.73771       -0.105894       -0.796555
LJ          0.789544       0.0596233       -0.111651
LJ           1.75607       -0.958671      -0.0231285
LJ          -2.52845         1.01257       -0.843308
LJ          -1.61584         1.67631        -1.06164
LJ          -2.55719         1.74684       0.0661972
LJ          -1.90258        0.873299       0.0798687
LJ         -0.986615        0.749225       -0.875287
LJ         -0.010079          1.7332       -0.913453
LJ         -0.873156         1.47018      -0.0551855
LJ          0.045317         1.07234       0.0686008
LJ          0.726106        0.972336       -0.779942
LJ           1.85696         1.70332       -0.900508
LJ          0.749183         1.88144      -0.0355775
LJ           1.75193        0.857829       -0.134218
LJ           2.44273        -2.52059         1.00362
LJ          -1.51256        -1.75908         1.03951
LJ          -2.51039        -1.56337         1.86601
LJ          -1.87389         2.52682         1.63758
LJ         -0.701277         2.56027        0.914307
LJ          0.195428        -1.70197        0.932648
LJ         -0.971117        -1.63915         1.78617
LJ         0.0736161        -2.45984         1.81354
LJ           1.14186        -2.50009        0.950957
LJ           1.84711        -1.48494        0.900189
LJ          0.852896         -1.6225         1.67404
LJ           1.60519        -2.45081          1.8316
LJ           2.50557       -0.648398        0.900646
LJ          -1.87297       0.0205001        0.819007
LJ          -2.54739      -0.0190439         1.89861
LJ          -1.68544       -0.943705          1.6179
LJ         -0.672592       -0.869662        0.869185
LJ         0.0458969      -0.0542401        0.818876
LJ         -0.784902       0.0935224         1.92076
LJ          0.125128       -0.923548          1.6097
LJ          0.915868       -0.925694         0.94409
LJ           1.59357      -0.0572351        0.637307
LJ           0.81325      -0.0668283         1.88863
LJ           1.68094       -0.912129         1.72648
LJ           2.40262        0.766222        0.732924
LJ          -1.58493         1.90563        0.880041
LJ           2.48889         1.63714         1.61974
LJ          -1.56886        0.838941          1.6255
LJ         -0.981507        0.667681        0.815246
LJ         0.0737175         1.64951        0.817661
LJ            -0.765         1.70981         1.46373
LJ        0.00234415        0.866815         1.69647
LJ          0.796388        0.801377         1.01258
LJ           1.79531            1.73        0.797502
LJ          0.976836         1.61249         1.84381
LJ           1.72288        0.920024         1.68705
