108
#Comment!
LJ          -2.55262        -2.40042         2.52555
LJ          -1.69228        -1.64453         2.41266
LJ           2.54131        -1.70494         -1.7368
LJ          -1.75909        -2.39358        -1.70707
LJ         -0.782687         2.51344         2.49308
LJ        0.00844577        -2.05213        -2.41979
LJ          -1.04232        -1.45981        -1.57808
LJ       -0.00471841         2.32333        -1.69044
LJ          0.980736         2.39075        -2.53622
LJ           1.72469        -1.81446         2.52649
LJ          0.994834        -1.83017        -1.74883
LJ            1.9027         2.54911        -1.62781
LJ           2.47068       -0.797945          2.5509
LJ          -1.90576       0.0565102         2.52933
LJ           2.44709         0.12104        -1.98421
LJ          -1.74317       -0.517987        -1.56001
LJ          -1.09405       -0.790343        -2.42684
LJ        -0.0225801        -0.18935        -2.43497
LJ         -0.713813     -0.00804978        -1.74324
LJ         -0.122392        -1.14849        -1.89401
LJ          0.914978        -1.10435        -2.48632
LJ           1.63814       0.0117583        -2.49055
LJ          0.831035       0.0590612        -1.74523
LJ           1.64843       -0.684022         -1.7672
LJ          -2.42033         1.03324         2.45716
LJ          -1.73792         1.96019         2.54514
LJ           -2.4909         1.65423         -1.6915
LJ          -1.51385        0.813396        -1.81592
LJ         -0.660302         1.06984         2.49442
LJ          0.138989         1.85795         2.45222
LJ         -0.803649         1.65576        -1.76486
LJ         0.0120047         1.03553        -1.79909
LJ          0.940265        0.883674        -2.54179
LJ           1.95662         1.80045         2.52688
LJ          0.948149         1.83439        -1.67189
LJ           1.72892        0.899273        -1.70272
LJ           2.36073          2.3666       -0.776093
LJ          -1.47414        -1.85964       -0.821265
LJ           -2.4688        -1.86747      -0.0727314
LJ          -1.64203         2.52799      -0.0764475
LJ         -0.793937        -2.51483        -1.13212
LJ          0.144957           -1.76       -0.872421
LJ         -0.469167         -1.7945       0.0040523
LJ         -0.236199         2.41018       0.0417755
LJ          0.848924        -2.54905       -0.957268
LJ           1.72578        -1.75446        -0.98025
LJ          0.641074        -1.99526        0.119994
LJ           1.64717        -2.38285      -0.0653616
LJ          -2.50402       -0.865764       -0.673823
LJ          -1.91426       0.0720089       -0.716133
LJ           2.47543       0.0718758       0.0693586
LJ          -1.61856       -0.937966       0.0134211
LJ         -0.518707       -0.866876       -0.763317
LJ        -0.0184444        0.195481        -1.03587
LJ          -0.88225       -0.111198        -0.15954
LJ         0.0322421        -0.71396        0.291032
LJ          0.910025       -0.970976       -0.673228
LJ           2.03976      -0.0404527       -0.900492
LJ          0.709519       0.0378347      -0.0327543
LJ           1.60166       -0.919787       -0.116102
LJ          -2.43093         0.96039       -0.919754
LJ          -1.50096         1.77205       -0.792075
LJ           2.37836          1.7856       0.0491466
LJ          -1.91341        0.970729       0.0426288
LJ          -1.06613        0.686258       -0.939074
LJ         0.0728886         1.86112       -0.812588
LJ         -0.778895         1.45448       -0.108847
LJ        -0.0571971        0.825779       0.0526601
LJ           0.73427        0.996861       -0.714157
LJ           1.62619         1.61182        -0.93156
LJ          0.867008         1.94201      -0.0567822
LJ           1.66325        0.902703       -0.195831
LJ           2.50047         2.43273        0.880803
LJ          -1.40416        -1.74499        0.692637
LJ           2.51305        -1.52083         1.82452
LJ          -2.07217        -2.50146         1.69645
LJ         -0.689891        -2.56193         1.06189
LJ          0.172029        -1.60541         0.96569
LJ         -0.927343        -1.74917         1.67561
LJ         0.0922403        -2.34511         1.71078
LJ          0.940766         2.34369        0.942002
LJ           1.89109        -1.49424        0.676431
LJ          0.987269        -1.76938          1.7325
LJ            1.7233         2.53954         1.70455
LJ          -2.55727       -0.609597        0.977055
LJ          -1.69278       0.0167379        0.794691
LJ           2.52102     -0.00441489          1.8174
LJ          -1.80105       -0.834665         1.63231
LJ         -0.728013        -0.87123         1.09311
LJ         0.0106005       0.0144104        0.919037
LJ         -0.860334        0.163987         1.97212
LJ          0.220298       -0.950522         1.88465
LJ           1.02639        -1.05535        0.724172
LJ           1.66258       -0.121745        0.758364
LJ          0.871572       0.0372988         1.86698
LJ           1.57794       -0.841092         1.77077
LJ           2.42191        0.872909        0.868679
LJ          -1.52736         1.95239        0.777482
LJ           2.40356         1.63548         1.60623
LJ          -1.77803        0.915467         1.49955
LJ         -0.918454        0.662181        0.890386
LJ          0.274845         1.48977        0.776198
LJ         -0.842669         1.63633         1.56975
LJ        -0.0535364        0.869357         1.61473
LJ          0.966332        0.756717        0.881875
LJ           1.58541         1.68511        0.547272
LJ          0.840632         1.53456         1.73872
LJ            1.9136         0.80732         1.79149
