108
#Comment!
LJ          -1.25402         1.74003        0.982975
LJ           2.01989         2.24176         -1.3059
LJ           -1.4355        0.830738        -2.55636
LJ         -0.396991         2.26861        0.478204
LJ         -0.672022        -1.41828        0.569596
LJ          -2.50416         1.82499         2.52321
LJ           2.41406       -0.330048         1.10268
LJ          0.663976       -0.223294         1.16673
LJ          -2.10004         2.41598        0.463023
LJ          0.847164         0.90364         1.08653
LJ           1.70137        -1.22827       -0.382644
LJ          -2.44896        -1.04224         1.86853
LJ            -2.295        -1.87459         1.18464
LJ           1.36768       -0.352752        0.366633
LJ          -2.49171       -0.434602       0.0970084
LJ          0.619116         2.02652        0.388582
LJ         -0.261563       -0.862095         1.59497
LJ           1.22577        0.413546         1.90313
LJ           1.48461       -0.740976        -1.74863
LJ          -2.17605          1.0542         1.81074
LJ         -0.672049       0.0522602          2.4924
LJ          0.447734         1.06047        -1.00845
LJ           -2.4208         1.38415        0.741536
LJ           -2.4146          -2.422        -1.97809
LJ          0.350578       -0.260563        -1.63416
LJ          -2.21103        -1.63716       -0.198497
LJ          0.654875        -1.31513         -1.8554
LJ          0.094319       -0.661422        0.235478
LJ           1.92831        -0.24069       -0.762357
LJ         -0.182925       -0.966345        -2.43256
LJ         -0.453469        -1.74654        -1.94277
LJ          -2.17993         1.51513        -1.33261
LJ         -0.408368         -2.3342         1.29063
LJ           2.35269        0.745341       -0.538725
LJ          -0.84178        -1.85564         2.21818
LJ           1.37844        -2.37754        0.430294
LJ          -1.82259        -1.38032        -2.42589
LJ         -0.350523         1.90731        -2.04109
LJ          -1.79091       -0.245714       -0.689992
LJ          -1.82248       -0.707792          1.1155
LJ            1.5219         1.34101        -1.21179
LJ          -1.52705         2.01492        -2.15028
LJ         -0.947425         1.96789         2.02979
LJ         -0.777635       -0.314849        0.760285
LJ          -1.13969         0.92729         1.63233
LJ            1.7199         1.62933        -2.18951
LJ          0.527136      -0.0880334         2.35437
LJ         -0.677718       -0.618883        -0.36556
LJ          0.912695        -1.32294        0.375253
LJ          0.353877        -1.19974       -0.636719
LJ         -0.218119        0.336569         1.57441
LJ          0.311125        -2.15382        0.579631
LJ            1.7091        0.736927        0.503832
LJ          -1.05824         1.60604        -1.29093
LJ          -1.91544           1.392       -0.114393
LJ           2.20573         1.99201       -0.221369
LJ          0.976356         2.52803        -2.51207
LJ          -1.45009        0.667207       -0.611459
LJ          0.959171         1.54298         1.94794
LJ          0.833925        0.845762        -2.28395
LJ          -1.21074        -1.97233       -0.206639
LJ          0.879422        -2.45836         1.43388
LJ         -0.629662        -2.56242        -1.26624
LJ           -1.8861         1.99794         1.73973
LJ          -1.32936        -0.72101        -1.53536
LJ           1.95348        -2.45989         2.38999
LJ           1.90399         1.36604         1.79888
LJ          -2.17446        0.484307        -1.40284
LJ           0.25478         -1.8635         2.36568
LJ           1.22428         1.76157       -0.357491
LJ          -2.55401        0.899856        -2.36737
LJ          -1.21768         2.11443        -0.13646
LJ          0.982021        -2.29638       -0.438778
LJ          -2.25471        -2.18063         2.11242
LJ           -0.1779        -2.04657       -0.367426
LJ          -0.23224        0.752727         -1.8994
LJ          -2.00254         2.53668       -0.599243
LJ           1.34485        -1.45688         2.31254
LJ          0.773901        0.920971       -0.108176
LJ           -1.2956        -2.19003        0.908709
LJ          -1.29032       -0.811009          1.9997
LJ         -0.438495        0.577487       -0.743458
LJ             2.398         -1.2927        -2.25398
LJ           1.55493       -0.640155         1.56287
LJ              1.65         0.40811        -1.95365
LJ       -0.00717142         1.82894       -0.539151
LJ           2.21928        0.328269         1.77638
LJ           2.26035         2.44977         1.28229
LJ           2.19795       -0.280487         2.52423
LJ         -0.715554         1.24309        0.275088
LJ          -1.06557        0.331208        -1.54697
LJ          0.135661         2.20495         1.94046
LJ         -0.120182         1.39591         1.12829
LJ        0.00237556        0.594874        0.335066
LJ           1.44671        -2.16032         -1.5298
LJ          -1.63853        0.497789        0.731804
LJ         -0.378672        -1.00584        -1.26078
LJ           2.13868         -2.1702       -0.637533
LJ           1.55387          1.7132        0.836459
LJ         -0.133684         1.20534         2.24866
LJ           1.89338        -1.71844         1.40991
LJ          -1.83284       -0.119689        -2.23042
LJ          0.672888         2.22587        -1.21887
LJ          -1.74008        -1.72582        -1.34788
LJ          -2.01925      -0.0199779         1.89439
LJ          -2.35785       -0.692108        -1.55539
LJ           2.04519        -1.18388        0.516878
LJ          0.596446      -0.0440192       -0.530941
