108
#Comment!
LJ          -2.41385        -2.29381         2.42141
LJ          -1.72355        -1.62985         2.46323
LJ          -2.23423        -1.53518         -1.7825
LJ          -1.47785         -2.4785        -1.87867
LJ         -0.763007         2.45195        -2.56409
LJ         -0.130028        -1.60303         2.48213
LJ          -0.99088        -1.52001        -1.74539
LJ          0.117929         2.39913        -1.83172
LJ          0.948719        -2.47881         2.51607
LJ           1.68025        -1.57637         2.41614
LJ           1.02004         -1.8284        -1.71191
LJ           1.93022         2.29236        -1.73665
LJ          -2.54315       -0.790361        -2.55119
LJ          -1.78953      -0.0111415         2.32251
LJ          -2.46122       0.0276278        -1.78891
LJ          -1.67397       -0.653374        -1.63198
LJ          -1.12228       -0.786021        -2.54426
LJ        -0.0241214       -0.145605        -2.32202
LJ         -0.918201       0.0686447        -1.81931
LJ         -0.008301        -1.06449        -1.71241
LJ          0.830844       -0.944006          2.5228
LJ           1.69398       0.0116885        -2.44328
LJ          0.831152        0.122733        -1.79741
LJ           1.57425       -0.661636        -1.70687
LJ           -2.4541        0.987168        -2.50771
LJ          -1.73847         2.01081         2.37944
LJ          -2.47428         1.58636        -1.56011
LJ           -1.6446        0.750331        -1.89992
LJ         -0.521221        0.729789         2.47315
LJ          0.129027         1.67466         2.29448
LJ          -1.17286         1.60899         -1.6395
LJ        -0.0368898         1.11869        -1.78672
LJ            1.0839        0.969829         2.47991
LJ           1.81876         1.71097         2.52786
LJ          0.926925         1.80733        -1.90588
LJ           1.62384        0.862208        -1.69863
LJ          -2.53265          2.3502        -0.81941
LJ           -1.4795        -1.64206       -0.851034
LJ          -2.30798        -1.74925      -0.0124035
LJ          -1.66626         2.55325        0.135503
LJ         -0.572327         -2.4746        -1.15273
LJ         0.0119013        -1.64672       -0.835244
LJ         -0.801972        -1.86197      -0.0204487
LJ        0.00332643         2.24911       0.0968658
LJ          0.758747        -2.55144       -0.977797
LJ            2.0099         -1.7448        -0.90228
LJ          0.832019        -1.86697        0.264029
LJ            1.6685        -2.53776       0.0402387
LJ          -2.35945        -0.85973       -0.795124
LJ          -1.93243        0.094237       -0.916872
LJ          -2.43124       0.0718304       0.0186071
LJ          -1.66384       -0.741999       0.0982005
LJ         -0.775167       -0.874927       -0.839966
LJ         -0.204821      -0.0484224       -0.991858
LJ         -0.707413     -0.00785248       0.0155831
LJ        -0.0151553       -0.767728       0.0810073
LJ          0.987325        -1.27794       -0.786045
LJ           1.79347       -0.154249       -0.659006
LJ          0.923015        0.102409       0.0335682
LJ           1.95035        -1.04358      -0.0151804
LJ            2.5077         0.83611       -0.817259
LJ          -1.66947         1.59718       -0.799171
LJ           2.35531         1.58863        0.099351
LJ          -1.78399          1.0574        0.272099
LJ          -1.10837        0.693575       -0.936429
LJ          0.104643         1.63443       -0.825876
LJ          -0.87373         1.56981       -0.183768
LJ          0.028799        0.860205       -0.184013
LJ           1.00338        0.843675       -0.815567
LJ           1.69639         1.71562       -0.779942
LJ          0.869425         1.66078       -0.150326
LJ           1.64636        0.756016      0.00391261
LJ          -2.55558         2.40103        0.696958
LJ          -1.37033        -1.80147        0.851714
LJ          -2.50937        -1.48243         1.57299
LJ          -1.94665        -2.32727         1.50374
LJ          -0.75919         2.42601        0.906117
LJ      -0.000244853        -1.51079         1.00148
LJ         -0.886295        -1.65605         1.90127
LJ          0.059325        -2.33262         1.64716
LJ          0.759426          2.4107        0.975489
LJ           1.71506        -1.53925        0.931097
LJ           0.95636        -1.58035          1.7456
LJ           1.84758        -2.52224         1.61234
LJ          -2.48486        -0.92258        0.743669
LJ           -1.5542      -0.0945442        0.773946
LJ           2.43795      -0.0926045         1.61477
LJ          -1.69999        -0.76264         1.65641
LJ         -0.814041       -0.934407         1.15051
LJ          0.217961       -0.136066        0.953217
LJ         -0.924362       0.0211117         1.75143
LJ          0.174306       -0.777991         1.68536
LJ          0.875298       -0.891332        0.646786
LJ           1.66646       -0.255341        0.822657
LJ          0.763585       0.0105416         1.82306
LJ           1.62922        -0.77542         1.67856
LJ           2.21141        0.906856         1.03752
LJ          -1.66226         1.74662         1.05188
LJ           2.49448         1.79539          1.7748
LJ          -1.90496        0.849432         1.40829
LJ         -0.898039         0.80276        0.603037
LJ          0.435869         1.49132        0.803077
LJ         -0.898154         1.39395         1.65857
LJ         0.0438858        0.920167         1.52121
LJ           1.21667         0.65598         1.05213
LJ           1.49155          1.6848        0.590068
LJ            1.1842          1.7357         1.70986
LJ           1.84874         1.03181         1.86812
