108
#Comment!
LJ           -2.5094        -2.27661        -2.56102
LJ          -1.68823        -1.52428        -2.55264
LJ          -2.43256         -1.5728        -1.72318
LJ          -1.70862         -2.4484        -1.77063
LJ         -0.817446         2.35539          -2.468
LJ         -0.096057        -1.52268         2.52818
LJ         -0.824855         -1.4375        -1.95142
LJ          0.120959        -2.52184        -1.82848
LJ           1.09654        -2.52108        -2.54522
LJ           1.60098        -1.52171           2.421
LJ           1.05655         -1.7642        -1.74622
LJ           1.92442         2.56214        -1.62096
LJ           2.54162       -0.749398        -2.42455
LJ          -1.91476      -0.0371858         2.30076
LJ           2.53637       0.0452848        -1.61038
LJ          -1.61675       -0.564126        -1.59694
LJ         -0.763125       -0.709677         2.49851
LJ         0.0846482      -0.0432312         -2.3509
LJ         -0.736139       0.0723562        -1.73137
LJ         0.0865326       -0.879286        -1.53674
LJ             0.721       -0.983352        -2.52201
LJ           1.70257       0.0671863        -2.43232
LJ          0.884363        0.220544        -1.59718
LJ           1.40363       -0.697524        -1.52135
LJ           2.55669         0.90109        -2.36202
LJ          -1.77646         1.90071         2.44605
LJ          -2.44443         1.72291        -1.52998
LJ          -1.54548        0.644697        -2.02088
LJ         -0.485173        0.825584         2.50866
LJ         0.0613091         1.85873         2.45572
LJ          -1.21407         1.62743        -1.71279
LJ          -0.17259         1.01385        -1.67166
LJ          0.995595        0.992041         -2.4969
LJ           1.78415         1.96626        -2.54219
LJ          0.943969         1.84947        -1.80856
LJ           1.75689         1.23461        -1.80791
LJ           2.56343        -2.39904       -0.621996
LJ          -1.40455        -1.58962       -0.840976
LJ          -2.25128        -1.61625       0.0348048
LJ          -1.72112         2.43238        0.352214
LJ         -0.692581         2.55881        -1.04921
LJ         0.0425729        -1.85206       -0.714854
LJ         -0.799415        -1.83326       0.0548441
LJ         0.0498712         2.45486       0.0851288
LJ           1.01389        -2.48883       -0.941899
LJ           1.91597        -1.49362       -0.933053
LJ          0.744118        -1.95614        0.252607
LJ           1.69392        -2.48286       0.0392401
LJ          -2.27525       -0.797373       -0.749538
LJ          -1.84991        0.240453       -0.933928
LJ          -2.42427      -0.0118638       0.0262558
LJ          -1.57951       -0.620756        -0.11587
LJ         -0.729048       -0.817732       -0.823239
LJ         -0.031398      -0.0119943       -0.808335
LJ         -0.653684      -0.0694269       0.0389225
LJ       -0.00298287        -1.09307       0.0879917
LJ          0.915984        -1.14698       -0.674296
LJ           1.91093       -0.314149       -0.560732
LJ          0.831005       0.0787767        0.040029
LJ            1.9257        -1.07644        0.168049
LJ            2.3509        0.789208       -0.722984
LJ          -1.79254         1.63591       -0.652842
LJ           2.37123         1.64007       0.0138696
LJ          -1.80371         1.00535        0.130583
LJ         -0.861549        0.872035       -0.904936
LJ       -0.00665279          1.7932       -0.930871
LJ          -0.79758         1.70827       -0.113068
LJ          0.164439        0.925035       -0.197452
LJ          0.827956        0.979183       -0.959561
LJ           1.72072         1.73878       -0.802816
LJ          0.851981         1.85503       -0.128435
LJ            1.6833         0.71092       0.0865836
LJ           2.45189         2.42258        0.712417
LJ          -1.48598        -1.82868        0.872734
LJ           2.41953        -1.45704         1.64171
LJ          -1.96595        -2.41579         1.65442
LJ         -0.717421         2.45764        0.975015
LJ         -0.130562        -1.57391         1.09589
LJ         -0.882422        -1.64273         1.77385
LJ        -0.0293054        -2.31142         1.79717
LJ          0.836703         2.48321        0.890698
LJ           1.57115        -1.68082        0.988234
LJ          0.781483        -1.56391         1.62994
LJ           1.59477         2.54133         1.54916
LJ          -2.35843       -0.797591        0.899265
LJ          -1.82556        0.189464         0.78998
LJ            2.3355        0.109608         1.68549
LJ          -1.58616       -0.841383         1.65438
LJ         -0.940117       -0.897777        0.852403
LJ           0.10063      -0.0596916        0.871215
LJ           -1.0114      0.00635312         1.57772
LJ         0.0224928       -0.700852         1.78833
LJ          0.963862       -0.904764        0.491712
LJ           1.67874       -0.198977        0.875911
LJ          0.937321      -0.0502211           1.704
LJ           1.54689       -0.843974         1.71053
LJ           2.34966         0.95246         1.04548
LJ          -1.93299          1.6731        0.954163
LJ           2.39703         1.92548         1.62279
LJ          -1.69727        0.830738         1.65041
LJ         -0.964414        0.850817        0.883942
LJ          0.266508         1.47612        0.746855
LJ         -0.697232         1.44928         1.69772
LJ          0.124839         0.69408         1.62501
LJ           1.14495        0.661806         1.08813
LJ           1.55523          1.7388        0.770345
LJ          0.841386         1.76944         1.61854
LJ           1.75606         0.91238         1.91624
