108
#Comment!
LJ          -2.38977        -2.32104         2.42303
LJ          -1.68174        -1.61165         2.49529
LJ          -2.23722         -1.5413         -1.7532
LJ          -1.52541         -2.4744        -1.85241
LJ         -0.770581         2.44738        -2.54971
LJ         -0.106459         -1.5416          2.5257
LJ          -1.00984        -1.54835        -1.75159
LJ         0.0869792         2.40321        -1.88415
LJ          0.960103        -2.49986         2.54314
LJ           1.71868        -1.55197         2.46685
LJ           1.04179         -1.8177        -1.64962
LJ           1.93807         2.31223         -1.7064
LJ           -2.5414       -0.730214         -2.5586
LJ          -1.84003       -0.032833         2.34101
LJ          -2.46684       0.0257806        -1.84315
LJ          -1.68909       -0.654957        -1.65539
LJ          -1.06787       -0.778412         -2.5448
LJ        -0.0166951       -0.137275        -2.29505
LJ         -0.942852       0.0594487        -1.79363
LJ         0.0307568        -1.04852        -1.70877
LJ          0.822768       -0.945669         2.52052
LJ           1.70707      0.00260848        -2.46731
LJ          0.775998        0.109746        -1.76035
LJ           1.56879       -0.694777        -1.69191
LJ          -2.45543         0.98371        -2.49036
LJ          -1.74481         2.00304         2.36675
LJ          -2.46869          1.6271        -1.57711
LJ          -1.61717        0.752951        -1.86728
LJ         -0.510916        0.717953         2.48393
LJ          0.142872         1.66283         2.30167
LJ          -1.21551         1.63486        -1.66431
LJ        -0.0279231          1.1371        -1.77134
LJ             1.083        0.999626         2.49841
LJ            1.8443         1.72512         2.56247
LJ          0.965215         1.80277        -1.91739
LJ           1.65458        0.836701        -1.68266
LJ          -2.55109         2.36493       -0.786209
LJ           -1.4798         -1.6411       -0.871806
LJ          -2.27751        -1.72354      -0.0292718
LJ          -1.61246         2.55856        0.174054
LJ         -0.593133        -2.45516        -1.09695
LJ       -0.00890136         -1.6656       -0.836427
LJ         -0.815959        -1.85838     -0.00539641
LJ        -0.0540334         2.23661       0.0798946
LJ          0.754355        -2.53684       -0.960266
LJ            1.9858        -1.75538         -0.9011
LJ          0.830876        -1.82521         0.25404
LJ           1.67377        -2.53061       -0.014079
LJ          -2.40305       -0.887334       -0.821275
LJ          -1.94075        0.143411       -0.943462
LJ          -2.45611        0.106881       0.0554957
LJ          -1.66507       -0.761461       0.0791744
LJ         -0.756461        -0.88742       -0.859958
LJ         -0.187697      -0.0315432       -0.996544
LJ         -0.725187       0.0266862        0.018963
LJ        -0.0438645       -0.769889       0.0717792
LJ           1.03142        -1.28008       -0.835304
LJ           1.82382       -0.182085       -0.645623
LJ           0.87725       0.0857504       0.0653773
LJ           1.92244        -1.05141      0.00709645
LJ           2.47229        0.833677       -0.814969
LJ          -1.66144          1.5952       -0.781166
LJ           2.38227         1.54352        0.106861
LJ          -1.79715         1.06945        0.239634
LJ          -1.09605        0.694851       -0.940692
LJ          0.124297         1.69187       -0.801553
LJ         -0.879164         1.59779       -0.115785
LJ         0.0657017        0.887955       -0.162053
LJ           1.00297        0.887373        -0.84006
LJ           1.69283         1.73089       -0.763751
LJ          0.870363         1.64986       -0.187583
LJ           1.62727         0.76957       0.0637014
LJ          -2.55552         2.38322        0.663114
LJ          -1.37116        -1.82833        0.817368
LJ          -2.51053        -1.51451         1.55734
LJ          -1.92163        -2.26598         1.50425
LJ         -0.776551         2.37563        0.922615
LJ        -0.0885435        -1.53769        0.972659
LJ          -0.89253        -1.64534         1.87227
LJ         0.0649716        -2.33395         1.64616
LJ          0.782926         2.46126         0.97792
LJ           1.68731        -1.53508        0.963817
LJ           0.94419         -1.5669         1.76573
LJ           1.85348        -2.56165          1.6207
LJ          -2.50291       -0.941484        0.793802
LJ          -1.55285      -0.0697084        0.751972
LJ           2.39838      -0.0674408         1.62635
LJ          -1.68705        -0.76345         1.65097
LJ         -0.854451       -0.941204         1.17652
LJ          0.217784       -0.125241        0.918934
LJ         -0.942617       0.0129161         1.75443
LJ          0.166443       -0.796809         1.72686
LJ          0.896742       -0.931089        0.628729
LJ           1.67208        -0.26768          0.7844
LJ          0.781856      -0.0338048         1.78172
LJ           1.57517       -0.761674         1.70549
LJ            2.2608        0.905534         1.00957
LJ          -1.69116         1.79086         1.08762
LJ           2.50383         1.81895         1.73813
LJ          -1.92405        0.863405         1.40636
LJ         -0.913293        0.828438        0.558435
LJ          0.434041         1.52658        0.802189
LJ         -0.894349         1.40408         1.63656
LJ         0.0440346        0.924562         1.49687
LJ           1.16987        0.691584         1.06133
LJ           1.51457         1.70762        0.649064
LJ           1.15302         1.72175         1.71691
LJ            1.8322         1.02938         1.88404
