108
#Comment!
LJ           -2.5137        -2.37017         2.56453
LJ          -1.84507        -1.51372         2.52069
LJ          -2.25853        -1.58175        -1.79843
LJ          -1.54044        -2.44899         -1.7986
LJ         -0.847925         2.38485        -2.48377
LJ        -0.0896143         -1.5734         2.46528
LJ         -0.944258         -1.5478        -1.89583
LJ         0.0415125         2.43043        -1.89289
LJ           1.01521        -2.37847         -2.4577
LJ           1.72416        -1.62236         2.39414
LJ           1.22055        -1.70393        -1.64749
LJ           1.90107         2.43131        -1.54524
LJ           2.40124       -0.642037         2.55169
LJ          -1.80484      -0.0211612         2.34341
LJ          -2.41974      -0.0564269        -1.84069
LJ          -1.60944       -0.616629        -1.65159
LJ          -1.01216       -0.743845        -2.47804
LJ        -0.0555773       -0.183649        -2.49493
LJ         -0.804141        0.144069        -1.75957
LJ         0.0738457       -0.924409        -1.62584
LJ           0.78122       -0.985955        -2.55917
LJ           1.63539     -0.00569876        -2.36687
LJ           0.77626        0.149852        -1.69809
LJ           1.56374       -0.674933         -1.6029
LJ          -2.54085        0.932191        -2.45203
LJ          -1.73864         1.97103         2.43665
LJ          -2.48082         1.70311        -1.50824
LJ          -1.58168        0.724836        -2.04143
LJ         -0.496094        0.786612         2.54486
LJ          0.110937         1.72447         2.33635
LJ          -1.23482         1.71127        -1.69188
LJ        0.00826984          1.0388        -1.71908
LJ           1.11771         1.03982        -2.46172
LJ           1.72338         1.89559         2.47178
LJ          0.986044         1.89774        -1.87011
LJ           1.78215        0.828552        -1.74553
LJ           2.50263        -2.55626       -0.662885
LJ          -1.45531        -1.73571        -0.91051
LJ          -2.31287        -1.65273       -0.204002
LJ          -1.59977         2.47587        0.149606
LJ          -0.61973        -2.49475        -1.03491
LJ         0.0273478        -1.80937       -0.754838
LJ         -0.697768        -1.76651      -0.0395882
LJ        -0.0150829         2.34321        0.151258
LJ           0.68556          2.5123       -0.843599
LJ            1.9224         -1.5304       -0.912892
LJ          0.802702        -1.91244        0.166691
LJ            1.6725         -2.5227     -0.00161188
LJ          -2.36101       -0.809385       -0.865357
LJ          -1.82881        0.100357       -0.975307
LJ          -2.32746       0.0775682       0.0147471
LJ          -1.65373       -0.774024      -0.0294557
LJ         -0.762539       -0.738762       -0.700998
LJ         -0.108566        0.141653         -1.0247
LJ         -0.672533       -0.065732       0.0959506
LJ        -0.0190077       -0.847077        0.154043
LJ          0.900653        -1.18261       -0.710397
LJ           1.82585       -0.230462       -0.559105
LJ          0.756973       0.0658976        0.128314
LJ           1.99258       -0.991939     -0.00481943
LJ            2.4442         0.84238       -0.782854
LJ          -1.78365         1.66832        -0.72907
LJ           2.49439         1.57815      -0.0147992
LJ          -1.87517        0.992371         0.18118
LJ          -1.10259        0.758813       -0.959738
LJ          0.182958         1.74588       -0.885667
LJ         -0.849662         1.70891      -0.0725044
LJ         0.0770996         0.85711       -0.173979
LJ          0.924264        0.914005       -0.918226
LJ           1.70595          1.7238       -0.872027
LJ           0.84369         1.76021      -0.0655386
LJ           1.64236        0.846276        0.157083
LJ           2.50051         2.46726        0.649267
LJ          -1.52155        -1.77412        0.789965
LJ          -2.51213         -1.4613         1.57427
LJ          -2.01263        -2.38963         1.68789
LJ          -0.81662         2.45645         1.05175
LJ         0.0362426        -1.45812          1.0644
LJ          -1.03948        -1.71291         1.85101
LJ         0.0202034        -2.25183         1.71694
LJ          0.864141         2.36469         0.87164
LJ           1.68041         -1.5589         1.11129
LJ          0.803803         -1.6758         1.78768
LJ           1.77599        -2.46893         1.46585
LJ          -2.43305       -0.821341        0.746217
LJ          -1.62965       0.0938058        0.875793
LJ           2.39368      -0.0153881         1.66451
LJ          -1.69172       -0.946037         1.61353
LJ         -0.854997       -0.937178         1.05908
LJ          0.143448       -0.108081        0.937537
LJ         -0.959366       0.0688291         1.81285
LJ          0.242586       -0.707406         1.74174
LJ          0.892324       -0.872536        0.644957
LJ           1.78754       -0.360418        0.849711
LJ          0.886293       0.0782533         1.75274
LJ           1.53098       -0.716615         1.76288
LJ           2.29067         1.01026         1.04896
LJ             -1.77         1.68661          1.0366
LJ           2.52685         1.88995         1.63154
LJ          -1.85175        0.829327         1.64256
LJ         -0.887019        0.934625        0.770374
LJ          0.367754         1.34801        0.803034
LJ         -0.727167         1.35406         1.65951
LJ          0.104434        0.814408         1.60936
LJ           1.13536        0.644589         1.01111
LJ           1.52979         1.69346        0.701406
LJ           1.00967         1.64656         1.71515
LJ           1.81778         1.13143          1.9176
