108
#Comment!
LJ           2.33484        -2.51447          2.5489
LJ          -1.57479        -1.85892         2.45303
LJ          -2.50595        -1.74697        -1.74417
LJ          -1.86907         2.51535        -1.73273
LJ         -0.893471          2.5075         2.49455
LJ         -0.152038        -1.91341        -2.49337
LJ         -0.875215        -1.57984        -1.63125
LJ          0.027533         2.45309        -1.72973
LJ          0.909923         2.47552        -2.39564
LJ           1.64558        -1.72653        -2.48849
LJ          0.786753        -1.48467        -1.55848
LJ           1.90139        -2.50138        -1.67891
LJ           2.42536       -0.914627        -2.56226
LJ          -1.62531     -0.00351233        -2.55599
LJ           -2.4106        0.177677        -1.78735
LJ          -1.83719       -0.922586        -1.59433
LJ          -1.10826       -0.918047         2.49038
LJ         -0.059894      -0.0684306         2.51284
LJ         -0.755832        0.130835        -1.76154
LJ         0.0639072       -0.768696        -1.79975
LJ           1.00133        -0.93198        -2.52599
LJ           1.78239        0.138226        -2.56243
LJ          0.682137        0.141794        -1.66173
LJ           1.60898       -0.867113         -1.7163
LJ          -2.53577        0.890326         2.48932
LJ          -1.81082         1.88929          2.4332
LJ          -2.52126         1.62822        -1.81309
LJ          -1.71444        0.879785        -1.75379
LJ         -0.615667         1.02931         2.28381
LJ          0.183714         1.68884         2.43299
LJ          -0.81585         1.63874        -1.69973
LJ         -0.104818        0.936032         -1.7124
LJ          0.758189        0.780534         -2.4315
LJ           1.72163         1.77691        -2.51301
LJ          0.922068         1.72069        -1.56035
LJ            1.7495        0.860814        -1.69467
LJ          -2.49405        -2.54171       -0.772748
LJ          -1.54506        -1.74961       -0.693591
LJ           2.51227         -1.7768       -0.010439
LJ          -1.75151          2.4524      -0.0459618
LJ          -0.78325         2.48171       -0.781585
LJ        -0.0517876        -1.68529       -0.882352
LJ         -0.807064        -1.77597        0.115525
LJ         -0.183137          2.4019       0.0513368
LJ            0.9312         2.49654       -0.868373
LJ            1.6166        -1.74453       -0.876484
LJ          0.772346        -1.81705        0.166475
LJ           1.64046        -2.43124      -0.0766954
LJ          -2.48086       -0.954028       -0.794502
LJ          -1.92506        0.122307       -0.768904
LJ           2.53478       0.0460268      -0.0446232
LJ          -1.76073       -0.723694      -0.0957322
LJ         -0.811347       -0.743116       -0.781883
LJ        -0.0475786        0.131908       -0.718386
LJ         -0.888934      -0.0298965       0.0771137
LJ         -0.114489       -0.719328       -0.117332
LJ          0.854755       -0.758029       -0.860182
LJ           1.83111       -0.164265       -0.848268
LJ          0.954808       0.0214677       -0.102358
LJ           1.74595       -0.983273       -0.107698
LJ          -2.54104         1.03105       -0.676895
LJ          -1.66966         1.73353       -0.980379
LJ           2.48155         1.71241        0.214566
LJ          -1.84053        0.917651       0.0740663
LJ         -0.823107        0.769234       -0.867963
LJ        -0.0142863         1.67271       -0.877443
LJ         -0.910813         1.63332       -0.139869
LJ        -0.0411533         1.01643      -0.0697694
LJ          0.681929        0.926444       -0.824161
LJ           1.88226         1.81782       -0.925133
LJ          0.738501         1.84875      -0.0953003
LJ           1.72464        0.888192      -0.0281468
LJ           2.46171         2.55755         1.00835
LJ          -1.55016        -1.86207        0.929512
LJ           2.50181        -1.66808         1.65268
LJ          -1.77047         2.55205         1.66501
LJ         -0.825845         2.48999        0.780726
LJ        0.00553346         -1.7311        0.802694
LJ         -0.859929        -1.65948          1.6984
LJ          0.174667        -2.45232         1.75752
LJ           1.08091        -2.51857        0.958706
LJ           1.89048        -1.71757        0.774246
LJ           0.91023        -1.59371         1.57588
LJ           1.61389        -2.52843         1.79476
LJ           2.47394       -0.683793        0.848829
LJ          -1.94094      0.00802417        0.930227
LJ          -2.52963     -0.00699042          1.9179
LJ          -1.81503       -0.829438         1.68019
LJ         -0.682025       -0.806262        0.725531
LJ         0.0674728      -0.0869482        0.809895
LJ         -0.758448        0.103534         1.76171
LJ        0.00812461       -0.950741         1.67784
LJ          0.820233       -0.937078        0.828649
LJ            1.5827      -0.0281896         0.71758
LJ          0.757609      -0.0903558         1.85442
LJ           1.75721       -0.885429         1.68718
LJ           2.41397        0.756948        0.746283
LJ          -1.71924          1.7425        0.777503
LJ           2.52242         1.72419         1.70869
LJ          -1.75581        0.753599         1.56809
LJ         -0.878952        0.703423        0.785024
LJ         0.0910469         1.69354         0.83671
LJ         -0.816822         1.69009         1.49948
LJ         0.0408484        0.866677         1.51314
LJ          0.888744        0.874863         1.04838
LJ           1.71005         1.75178        0.833713
LJ          0.963575         1.69484         1.77477
LJ           1.69889         1.01615          1.7419
