108
#Comment!
LJ           2.53087         2.51993        -2.53197
LJ          -1.69169        -1.81665         2.50395
LJ           2.53895        -1.80361        -1.75578
LJ          -1.83912        -2.55892        -1.69734
LJ         -0.957305         2.42172          2.4623
LJ         -0.144779        -1.79508        -2.52377
LJ         -0.836945        -1.68106        -1.59371
LJ        -0.0331962        -2.52184        -1.52745
LJ          0.928566         2.52625         2.40156
LJ           1.68108        -1.78065         -2.4167
LJ          0.920518        -1.57794        -1.59503
LJ           1.79406        -2.48495        -1.72252
LJ            2.3921       -0.846562         2.43671
LJ          -1.58995      -0.0117368         2.44783
LJ            2.4889      0.00627739        -1.72593
LJ          -1.61564       -0.914128        -1.69887
LJ         -0.965976       -0.948321         2.54085
LJ         0.0985103       -0.134577         2.55556
LJ         -0.843968         0.11395         -1.6801
LJ        -0.0308075       -0.934207        -1.65308
LJ          0.762213        -1.04721        -2.55919
LJ           1.78672       0.0866181         2.56161
LJ          0.729656        0.104688        -1.72209
LJ           1.64025       -0.877042         -1.6274
LJ           2.52413        0.856857         2.55588
LJ          -1.75026         1.72439        -2.50481
LJ          -2.47652         1.58952        -1.74194
LJ          -1.80519        0.827996        -1.65454
LJ         -0.789078        0.975075         2.33942
LJ         0.0957826         1.61592         2.43998
LJ         -0.880768         1.74439        -1.65827
LJ        -0.0102679        0.877665        -1.78968
LJ          0.817415         0.89242        -2.45989
LJ           1.80762         1.73309         2.54291
LJ           1.07555         1.74145        -1.72425
LJ           1.62643        0.784331        -1.62836
LJ          -2.47695        -2.52674       -0.841626
LJ          -1.57549        -1.71494       -0.821293
LJ          -2.56116        -1.80452      -0.0652423
LJ          -1.63209         2.53691       0.0279252
LJ         -0.782635         2.52272       -0.865449
LJ        -0.0305198        -1.62861       -0.867682
LJ         -0.883911        -1.66942      -0.0282681
LJ         -0.124367         2.44059    -0.000852905
LJ          0.928518         2.45056       -0.786504
LJ           1.67705        -1.82056       -0.804749
LJ          0.685336         -1.8946        0.112789
LJ           1.65148        -2.53618      -0.0295795
LJ          -2.53677       -0.808212       -0.783553
LJ          -1.83547       0.0891382       -0.923989
LJ           2.46157     -0.00266143       -0.022731
LJ          -1.74908       -0.886878      -0.0448013
LJ         -0.878161       -0.696417       -0.791223
LJ        -0.0056959       -0.166806       -0.839404
LJ          -0.89557      -0.0989841      0.00731088
LJ         0.0165464        -0.69788       0.0923336
LJ          0.882272       -0.832264       -0.823195
LJ           1.68193      -0.0601433       -0.888944
LJ          0.957971     -0.00826901       -0.118175
LJ           1.65711       -0.935117       -0.159364
LJ          -2.54089        0.939107       -0.859927
LJ          -1.79503         1.72976       -0.933057
LJ           2.50564          1.7011       0.0450551
LJ          -1.65652        0.860761        0.145512
LJ         -0.819468        0.770753       -0.637987
LJ          -0.10736         1.77041       -0.971365
LJ         -0.909003         1.73454       -0.100904
LJ         -0.033603        0.914911       0.0926209
LJ          0.759545        0.952246       -0.806617
LJ           1.76705         1.83819       -0.832865
LJ          0.663019         1.71907       -0.157493
LJ           1.72344        0.778858       0.0420137
LJ            2.5389         2.54948        0.908647
LJ          -1.62982        -1.80769         1.02212
LJ           2.46519        -1.63777         1.77003
LJ           -1.7788        -2.53878         1.72549
LJ         -0.886662         2.46022        0.806258
LJ          0.100117        -1.75555         0.94714
LJ         -0.835708         -1.6991         1.82134
LJ         0.0586397        -2.54924         1.69644
LJ           1.05397         2.48737        0.889479
LJ           1.72434        -1.85206        0.783631
LJ          0.974486           -1.73         1.56077
LJ           1.73971         2.55933         1.73965
LJ           2.43996        -0.72413        0.931458
LJ          -1.73197      -0.0167956        0.767151
LJ          -2.51425      -0.0710265         1.86897
LJ          -1.75776        -0.94872         1.84852
LJ         -0.823106       -0.903221        0.786986
LJ         0.0991219      -0.0435005        0.901749
LJ         -0.734839       0.0238886         1.65032
LJ         0.0029796       -0.921191         1.61881
LJ          0.792898       -0.813269        0.851697
LJ           1.61963       -0.116721        0.827663
LJ          0.834859       -0.111042         1.72752
LJ           1.74202       -0.817346         1.72282
LJ            2.5387        0.896344        0.740262
LJ          -1.69307         1.70619        0.843968
LJ          -2.50506         1.63601         1.74965
LJ          -1.63967        0.754657         1.77264
LJ         -0.817123        0.755693        0.790942
LJ         -0.018865         1.55103        0.907704
LJ         -0.853478         1.72209         1.64986
LJ         0.0448317        0.802133         1.57036
LJ          0.860025        0.708683        0.765987
LJ           1.72383         1.66737        0.784718
LJ          0.857713         1.53307         1.63674
LJ           1.67733         1.00522         1.63223
