108
#Comment!
LJ           2.52165        -2.53179         2.52103
LJ          -1.76066        -1.73829         2.49197
LJ          -2.51443        -1.65457        -1.84227
LJ          -1.79112          2.5166         -1.6182
LJ          -0.87019         2.49832        -2.44876
LJ         0.0401117        -1.99203         -2.4398
LJ          -1.15267        -1.48894        -1.75266
LJ        -0.0531042         2.30806        -1.86561
LJ          0.773469         2.54657         2.43778
LJ           1.77113        -1.70553        -2.53064
LJ          0.801902        -1.95976        -1.77567
LJ           1.87778         2.51254         -1.6866
LJ           2.54276       -0.940806         2.55852
LJ          -1.81949       0.0249453         2.53742
LJ           2.48736         0.18105        -1.97543
LJ           -1.7411       -0.585849        -1.68951
LJ           -1.1145       -0.762528        -2.41933
LJ        -0.0434477       -0.239969        -2.44184
LJ         -0.823619       0.0209193        -1.82262
LJ         -0.164663        -1.20776         -1.8997
LJ          0.869157        -1.18534        -2.48944
LJ           1.67763      0.00529734         2.52565
LJ          0.876861       0.0618173        -1.79231
LJ           1.68135       -0.551782        -1.78431
LJ           2.56265          0.9314         2.48184
LJ          -1.68199         1.92116            2.48
LJ          -2.37334         1.63774        -1.62639
LJ          -1.63621        0.799073        -1.84744
LJ         -0.610399        0.921194         2.48647
LJ           0.10325         1.67158         2.37042
LJ          -1.08208         1.64652        -1.78424
LJ         0.0665225         1.05021        -1.73764
LJ          0.912158        0.816823         2.44668
LJ           1.83808         1.90823         2.42857
LJ          0.958173         1.96642        -1.73111
LJ           1.58856        0.930591        -1.65512
LJ           2.51495          2.4549       -0.773918
LJ          -1.40322        -1.71703       -0.779124
LJ          -2.42048        -1.90427       -0.136912
LJ          -1.67032          2.5128      -0.0438336
LJ         -0.840255        -2.55014        -1.09342
LJ         0.0875331        -1.69632       -0.778451
LJ          -0.63705        -1.91691     -0.00456736
LJ         -0.126329         2.32336       0.0138066
LJ           0.76334        -2.44055       -0.937689
LJ           1.88621        -1.78239        -1.01789
LJ          0.810624        -1.98578        0.252306
LJ             1.714         -2.3966       -0.129944
LJ          -2.44643       -0.924072       -0.733051
LJ          -1.88799        0.133829       -0.808331
LJ          -2.50707       0.0925149     -0.00319627
LJ          -1.80092       -0.910963       0.0933091
LJ         -0.542408       -0.777988       -0.677805
LJ         -0.147975        0.306172       -0.940892
LJ         -0.676428       0.0388256       0.0732461
LJ        -0.0626544       -0.809206        0.280132
LJ          0.802353       -0.896643        -0.68275
LJ           1.96329       -0.115489       -0.735073
LJ          0.622003     -0.00973667      -0.0193815
LJ           1.77329        -1.18025       -0.189693
LJ          -2.55631        0.937857       -0.807189
LJ          -1.59293         1.78039       -0.777375
LJ            2.4321         1.70201      -0.0418125
LJ           -1.9198         1.05981        0.272633
LJ          -1.10829        0.780401       -0.850153
LJ          0.134715         1.78071       -0.872563
LJ          -0.71975         1.54668      -0.0665655
LJ          0.158075        0.945987      -0.0529293
LJ          0.850239        0.919492       -0.760759
LJ           1.68736         1.75266       -0.897131
LJ          0.794458         2.04151       -0.074751
LJ           1.75009         0.84577      -0.0626233
LJ            2.4294         2.35417        0.755039
LJ          -1.41751        -1.77755        0.665739
LJ           2.47712          -1.524         1.69531
LJ          -2.08324        -2.32267         1.45188
LJ         -0.630864         2.42508         1.11325
LJ          0.087265        -1.59165        0.935801
LJ            -1.028        -1.77756         1.79876
LJ           0.05132        -2.34446         1.76361
LJ          0.856951         2.41047        0.956858
LJ           1.97995        -1.60377        0.783347
LJ           1.00971        -1.75221         1.77237
LJ           1.65956         2.52743         1.63676
LJ           2.51303       -0.673769        0.993144
LJ          -1.73102       0.0991686        0.773574
LJ           2.52305      -0.0295653         1.74876
LJ          -1.87394       -0.744092         1.78415
LJ         -0.692545       -0.932936         1.00787
LJ       -0.00205654       -0.105099         1.10256
LJ         -0.885055        0.158297         1.92389
LJ           0.21362        -1.04552         1.84735
LJ           1.06799        -1.00619        0.689675
LJ           1.56219       -0.141933        0.680879
LJ          0.841719      0.00717314         1.91459
LJ           1.61369       -0.793384         1.85239
LJ           2.35621        0.842092        0.788392
LJ          -1.58984         1.87513        0.845092
LJ           2.50144           1.572         1.57344
LJ          -1.79562         1.00113         1.61836
LJ         -0.925775        0.716825        0.894762
LJ          0.162413         1.46322        0.792681
LJ         -0.768291         1.50952         1.53866
LJ          0.063769        0.782196         1.57575
LJ           1.07541        0.746993        0.941233
LJ           1.57548          1.7105        0.515475
LJ           0.84477         1.60058         1.61804
LJ           1.72414        0.860589         1.76406
