108
#Comment!
LJ          -2.44398        -2.31063         2.39785
LJ            -1.689        -1.61652          2.3874
LJ          -2.24798        -1.56923        -1.67925
LJ          -1.62173        -2.40033        -1.78877
LJ         -0.786497         2.44738         2.47967
LJ        -0.0987199        -1.78578         2.55303
LJ          -1.11675         -1.5552        -1.74259
LJ          0.104549         2.40833        -1.90892
LJ          0.938202        -2.53783         2.48935
LJ           1.73667        -1.57781         2.37959
LJ          0.976171        -1.86473        -1.68468
LJ           1.99679         2.38557        -1.87287
LJ          -2.46796       -0.839419         2.45893
LJ           -1.7509      -0.0383028         2.42495
LJ          -2.49048       0.0627178        -1.77385
LJ          -1.73411       -0.619022        -1.61617
LJ          -1.13302       -0.848386        -2.49322
LJ        0.00523899       -0.187169        -2.38544
LJ          -1.00936        0.045039        -1.83606
LJ         0.0654245         -1.0973        -1.70364
LJ          0.926082       -0.945554        -2.55283
LJ           1.62744       0.0147538        -2.50185
LJ          0.899172        0.132681        -1.75174
LJ           1.64654       -0.672372        -1.67968
LJ          -2.46051         1.01784        -2.48717
LJ          -1.69045         1.94162         2.40429
LJ          -2.51722         1.57538        -1.56528
LJ          -1.71259        0.771195        -1.88476
LJ         -0.435788        0.765598         2.47439
LJ          0.200854         1.61219         2.36544
LJ          -1.33792          1.6298        -1.80837
LJ         0.0329334         1.13497        -1.77871
LJ          0.968664         0.89738         2.47882
LJ           1.88839          1.7627        -2.51859
LJ          0.986839         1.80824        -1.91972
LJ           1.62149        0.918808        -1.68581
LJ           2.54252         2.36574       -0.847052
LJ          -1.41747        -1.70553       -0.862193
LJ          -2.26986        -1.76763      -0.0993699
LJ          -1.66996         2.55163        0.102106
LJ         -0.501132        -2.47671        -1.07442
LJ         0.0518124        -1.68403       -0.789531
LJ         -0.757626        -1.98505      -0.0373025
LJ        -0.0695553         2.31577       0.0727796
LJ          0.800821        -2.54081       -0.885189
LJ           1.94275        -1.72062       -0.918672
LJ          0.841914        -1.78643        0.368417
LJ           1.71362        -2.54718      -0.0124401
LJ          -2.34892       -0.908779       -0.828215
LJ          -1.92334       0.0100974       -0.895451
LJ          -2.47772     -0.00775606         0.12739
LJ          -1.63206       -0.684957        0.017404
LJ         -0.678601       -0.860366       -0.826835
LJ         -0.193307      -0.0472441        -1.10777
LJ         -0.718764       0.0476912     -0.00281842
LJ        0.00453584       -0.804717       0.0517362
LJ          0.986752        -1.21885       -0.923685
LJ           1.88846       -0.150602       -0.635362
LJ          0.991417        0.118131        0.158144
LJ           1.94994       -0.947402      -0.0286586
LJ           2.42263        0.933951       -0.824188
LJ          -1.60551         1.71382       -0.844914
LJ           2.31485          1.5966       0.0631049
LJ          -1.82179         1.01821        0.393861
LJ          -1.06331        0.743679       -0.972753
LJ          0.147701          1.6881       -0.871684
LJ         -0.826644         1.55552        -0.22112
LJ        -0.0610578         0.83838       -0.216292
LJ           1.01583        0.781511       -0.809391
LJ           1.65712         1.67944       -0.803321
LJ          0.914965         1.67826       -0.167527
LJ           1.67681        0.875195      -0.0345571
LJ           2.50857         2.43075        0.651155
LJ          -1.31234        -1.78851        0.794239
LJ          -2.52186        -1.49035         1.57683
LJ          -1.94566        -2.29708         1.49581
LJ         -0.711742         2.38488        0.924538
LJ        -0.0567255        -1.56009        0.924487
LJ         -0.874973        -1.73262         1.98376
LJ         0.0442082        -2.29445         1.70795
LJ          0.823688         2.46804         1.08276
LJ           1.63782        -1.52838        0.899858
LJ          0.891124        -1.64973         1.74382
LJ           1.80402        -2.45897         1.59893
LJ          -2.48921       -0.854907        0.728848
LJ          -1.46367     -0.00908554        0.818443
LJ           2.52898      -0.0224853         1.72449
LJ          -1.76739       -0.711394         1.67715
LJ         -0.867365       -0.871768         1.10663
LJ           0.17811       -0.113051         1.04474
LJ         -0.894416       0.0730779         1.76391
LJ          0.249394         -0.7965         1.76651
LJ          0.856331       -0.858521        0.724554
LJ           1.74495       -0.244365        0.746738
LJ          0.705789       0.0350197         1.86042
LJ            1.5706       -0.836643         1.65581
LJ           2.24163        0.843576        0.901198
LJ          -1.70687         1.83601        0.971233
LJ           2.41505         1.79992         1.66227
LJ          -1.92486        0.835945         1.49982
LJ         -0.795675        0.865639        0.596805
LJ          0.396144         1.54126        0.771797
LJ         -0.905565         1.39509         1.62591
LJ         0.0787814        0.938788         1.53136
LJ           1.10939        0.660223         1.05695
LJ           1.51443         1.64044        0.701851
LJ           1.13795         1.66887         1.71731
LJ           1.76589         1.00441         1.82498
