108
#Comment!
LJ          -2.45066        -2.40072        -2.56377
LJ          -1.78866        -1.47392         2.51014
LJ          -2.26461        -1.54467        -1.77924
LJ          -1.60257        -2.37605        -1.85366
LJ         -0.817502         2.26706        -2.42658
LJ        -0.0980427        -1.56662         2.43472
LJ         -0.910484        -1.52329        -1.95201
LJ         0.0241771         2.53036        -1.88743
LJ           1.01111        -2.35649        -2.41915
LJ           1.70073        -1.61036         2.44422
LJ           1.18569        -1.67685        -1.64947
LJ           1.92321         2.46588        -1.56867
LJ            2.3884       -0.631748        -2.54635
LJ          -1.82181      -0.0251175         2.31605
LJ          -2.47305       -0.101759        -1.71821
LJ          -1.50237       -0.658223        -1.69958
LJ         -0.911726       -0.712812        -2.52022
LJ         0.0726764       -0.153808        -2.49276
LJ         -0.808116       0.0889741        -1.73327
LJ           0.15608       -0.944474        -1.65697
LJ          0.786807        -0.93557        -2.48055
LJ           1.63558      -0.0260517        -2.41661
LJ          0.792505        0.162033        -1.71351
LJ           1.60994       -0.630197        -1.56305
LJ          -2.54736        0.852365        -2.39289
LJ          -1.79883         1.96776         2.41778
LJ          -2.48302         1.72826        -1.57887
LJ          -1.56494        0.761509        -2.04108
LJ         -0.510327        0.744155         2.50425
LJ         0.0612698         1.74578         2.31833
LJ          -1.32522         1.73734        -1.72875
LJ         0.0283495        0.976285        -1.66102
LJ           1.13422         1.01741        -2.47983
LJ           1.70127         1.87737         2.52287
LJ          0.961023         1.91981        -1.89828
LJ           1.79907         0.86261        -1.74793
LJ          -2.54023          2.5512       -0.710356
LJ          -1.45579        -1.63838        -0.92786
LJ          -2.29447         -1.6359       -0.112803
LJ          -1.64492         2.37973        0.117161
LJ         -0.706407        -2.44859       -0.970032
LJ         0.0362891        -1.79006       -0.661794
LJ          -0.70611        -1.78526     -0.00546572
LJ         0.0357583         2.34472        0.118906
LJ          0.783233         2.46746       -0.885428
LJ           1.93776        -1.62457       -0.920768
LJ          0.804896        -1.84615         0.19431
LJ            1.7138        -2.43112       0.0231065
LJ           -2.3786       -0.801099       -0.894511
LJ          -1.81475        0.119639       -0.957067
LJ          -2.39226       0.0150381      -0.0128225
LJ          -1.61266       -0.676322      -0.0507077
LJ         -0.760287       -0.764938       -0.712493
LJ         -0.049476       0.0899599        -1.02177
LJ         -0.671873      -0.0376861        0.126262
LJ        -0.0560713       -0.902943        0.183681
LJ           1.01827        -1.10695       -0.827178
LJ           1.81617       -0.251776       -0.603018
LJ          0.799337       0.0633975        0.158896
LJ           1.96003        -1.04493     -0.00644153
LJ           2.44257        0.756047       -0.791453
LJ          -1.84789         1.69395       -0.705279
LJ           2.54503         1.70715      -0.0398707
LJ            -1.795        0.928485        0.103648
LJ          -1.05358        0.836092       -0.980631
LJ          0.050333         1.71002          -0.833
LJ         -0.765583          1.6757       -0.123292
LJ         0.0546185        0.881849       -0.138076
LJ          0.857094        0.931204       -0.891088
LJ            1.6052         1.71483       -0.845685
LJ          0.938609         1.72443       -0.100061
LJ           1.58076        0.791779       0.0844308
LJ           2.49327         2.45603        0.669146
LJ          -1.46343        -1.81945        0.767511
LJ          -2.55652        -1.41812         1.59024
LJ          -1.93612        -2.36091         1.65246
LJ         -0.864248         2.42887         1.01864
LJ        0.00285912        -1.45025         1.08461
LJ         -0.985516        -1.66501         1.78611
LJ         0.0209472        -2.29917         1.74136
LJ          0.706183         2.40217        0.893411
LJ           1.68566        -1.51218         1.08556
LJ          0.795171        -1.68975         1.78512
LJ           1.74217        -2.53849         1.43969
LJ           -2.3851       -0.788838        0.717336
LJ          -1.62167       0.0832549        0.764612
LJ           2.39747       0.0120232         1.64975
LJ          -1.71542        -0.91768          1.5671
LJ         -0.829497       -0.820124         1.03771
LJ          0.156088       -0.182065        0.860217
LJ         -0.913502       0.0287364          1.8602
LJ          0.220843       -0.732125         1.76343
LJ           0.97853       -0.898213        0.637437
LJ           1.73843       -0.364827        0.756427
LJ          0.854804        0.064423           1.735
LJ           1.50725       -0.799076         1.77408
LJ           2.42278        0.963911         1.05541
LJ          -1.86909         1.64162        0.966523
LJ           2.44945         1.87695         1.51628
LJ          -1.74486        0.843604         1.68955
LJ         -0.862067        0.943167        0.800318
LJ          0.394367         1.37937        0.751714
LJ         -0.680119         1.45531         1.71308
LJ         0.0956136        0.806022         1.68102
LJ            1.1705        0.607127         1.02808
LJ           1.54882         1.80288        0.698602
LJ          0.939617          1.7218         1.66786
LJ           1.84512         1.07851         1.93036
