108
#Comment!
LJ           2.54579         -2.2468         2.30179
LJ          -1.69385        -1.57431         2.42457
LJ          -2.21533        -1.56254        -1.71849
LJ          -1.67663        -2.41472        -1.74681
LJ         -0.788115         2.34943         2.49299
LJ        -0.0405412        -1.82735        -2.49271
LJ          -1.15819        -1.52411        -1.86912
LJ         0.0511901         2.36605        -1.85949
LJ          0.900016        -2.47608         2.51495
LJ           1.76691        -1.63573          2.4692
LJ          0.898906        -1.89444        -1.71404
LJ           1.96422         2.42189        -1.83568
LJ          -2.49588        -0.84607         2.36878
LJ          -1.83096       0.0129716         2.52111
LJ           2.54468       0.0447428        -1.78094
LJ          -1.83122       -0.588521        -1.66046
LJ          -1.17218       -0.761222        -2.46436
LJ        -0.0375729       -0.163373        -2.36574
LJ          -1.00846      -0.0107599        -1.72439
LJ         0.0091769        -1.06502        -1.73731
LJ          0.964263       -0.995405        -2.52876
LJ           1.67043       0.0237905        -2.49405
LJ           1.02036        0.150923        -1.72735
LJ           1.56564       -0.628685         -1.7124
LJ          -2.43536          1.0352        -2.51456
LJ          -1.69203          1.9287         2.32658
LJ          -2.56252         1.54986        -1.57197
LJ          -1.67043        0.743433        -1.84326
LJ         -0.539623        0.841409         2.44558
LJ          0.248348         1.66207         2.40484
LJ          -1.19569         1.64781        -1.82921
LJ         0.0443337         1.17748        -1.85756
LJ          0.941324        0.976831         2.53357
LJ           1.81101         1.73731         2.51569
LJ          0.978238         1.76485        -1.89702
LJ           1.67905        0.953036        -1.67464
LJ          -2.56074         2.33376       -0.794803
LJ          -1.44067        -1.74493       -0.793683
LJ          -2.22666         -1.7375       -0.119709
LJ          -1.70705         2.50361        0.117999
LJ         -0.556517        -2.48353         -1.0038
LJ         0.0794435        -1.59679       -0.814427
LJ         -0.741784        -2.01375       -0.101997
LJ         -0.136361         2.34191       0.0375387
LJ          0.831027        -2.51326        -0.84655
LJ           2.05816        -1.76313       -0.949026
LJ          0.804906        -1.71591        0.332961
LJ           1.69866        -2.55839      -0.0536875
LJ          -2.29811       -0.963349       -0.784786
LJ          -1.96067        0.005263       -0.777972
LJ          -2.43532       0.0406814        0.122208
LJ          -1.62533       -0.759934       0.0212517
LJ          -0.72174       -0.815693       -0.820258
LJ         -0.133393       0.0711306        -1.10102
LJ         -0.738157      -0.0548475      -0.0415113
LJ         0.0912699       -0.721948       0.0515647
LJ           1.04207        -1.17407       -0.894812
LJ           1.88309      -0.0726905       -0.591973
LJ          0.922778       0.0430633        0.111662
LJ           2.03588       -0.978875       -0.105411
LJ           2.45245        0.975917       -0.785833
LJ          -1.61295         1.75694       -0.828012
LJ           2.32642         1.65504      -0.0109437
LJ          -1.82553         1.03275        0.273075
LJ          -1.08128        0.699171       -0.872923
LJ         0.0167128         1.63938        -0.94507
LJ         -0.837581         1.53784       -0.286641
LJ         -0.057733        0.740078       -0.165134
LJ           1.11684        0.748411       -0.884842
LJ            1.6412         1.67292       -0.736196
LJ          0.803729         1.79034       -0.177509
LJ           1.70458         0.84687      -0.0762243
LJ           2.47153         2.39318        0.769811
LJ          -1.33743        -1.82801        0.709979
LJ            2.5436        -1.50494         1.52149
LJ          -1.90181        -2.33426         1.53786
LJ         -0.752091         2.48121        0.959406
LJ        -0.0531448        -1.52753        0.927763
LJ         -0.853652        -1.75833         1.90258
LJ         0.0743238         -2.3185         1.73865
LJ          0.792118         2.49243         1.00724
LJ           1.74768        -1.56743        0.905782
LJ          0.964944         -1.6928         1.68609
LJ           1.80475         -2.5053          1.6078
LJ          -2.46293       -0.840913        0.716288
LJ          -1.47337      -0.0651394        0.829869
LJ           2.46105      -0.0428098         1.74983
LJ          -1.76735       -0.712904         1.57262
LJ         -0.869667       -0.902691         1.05596
LJ          0.228385       -0.140215        0.982253
LJ          -0.97049        0.122069         1.81206
LJ          0.187702       -0.867311         1.73372
LJ          0.879327       -0.862309        0.759003
LJ            1.7136       -0.208981        0.670006
LJ          0.692104       0.0347979         1.96956
LJ           1.52392       -0.851014          1.6108
LJ           2.17199        0.842481        0.941879
LJ          -1.69935         1.92803         1.02771
LJ           2.41946         1.73749         1.61081
LJ           -1.8463        0.728698         1.42053
LJ         -0.822933        0.853346        0.651088
LJ          0.384111         1.52245        0.818251
LJ         -0.907852         1.42654         1.59853
LJ         0.0680051        0.823062         1.56065
LJ           1.12876        0.692046         1.08353
LJ           1.43371         1.74374        0.635376
LJ           1.11809         1.62615         1.67255
LJ           1.78333        0.911842         1.87604
