108
#Comment!
LJ         -0.935477         2.42824        0.546123
LJ           -2.5285        -1.76619       -0.771055
LJ           0.07467         -1.0493         1.18398
LJ          0.788766        -2.15011        -0.82056
LJ         -0.764289        -2.21844         1.52213
LJ           2.11751       -0.309533        0.452025
LJ          0.966116        0.961463       0.0607072
LJ           1.01575        -1.05317        -2.21001
LJ           1.77991        -2.45059         1.05297
LJ           1.07598        -1.09836        -0.50792
LJ          -1.64846        0.133088         1.90642
LJ          -1.31653         1.39632         2.55141
LJ          0.298069        0.334889         1.90362
LJ           2.49131         1.58597        0.767755
LJ          -2.19985         1.96222       -0.257558
LJ           -1.0773         1.35509       -0.776413
LJ          -1.62157        -1.76235         2.09835
LJ            1.4974         1.05749        -1.06361
LJ          0.841476       -0.522651            1.25
LJ        -0.0709767          2.3571         -1.0293
LJ          0.958956        -1.63547        0.517363
LJ         -0.863633        0.897956        -1.54913
LJ         0.0545869         2.48386        -2.09175
LJ          -1.26653        -1.10385        -1.11347
LJ          0.265111        -2.24852         1.22609
LJ          -0.75191       -0.878956         2.10461
LJ          -2.52408         -2.0967        -2.19127
LJ         -0.913607      -0.0490911        -0.99556
LJ          -1.87605        0.674962        -0.66519
LJ         -0.215584        -1.37834       -0.638858
LJ         -0.561596        0.106409        -2.18529
LJ          -1.68897       -0.568656         1.15905
LJ          -2.16954       -0.903273         2.24807
LJ           1.55895         1.38826         1.56255
LJ           1.73469        -1.21349         1.26094
LJ           -1.3889         1.26002        0.342305
LJ           0.80137         2.45445        0.272783
LJ          0.922434        -1.29299         1.87948
LJ          -1.86984        -2.41153        -1.41554
LJ          0.331601        0.289956        0.518941
LJ         -0.747526        0.336036        0.145445
LJ           1.91513        -2.41098        -0.58012
LJ          -1.00525        -1.41827        -2.07083
LJ           1.06516         2.39249          1.8029
LJ           2.02748       -0.860177         2.55079
LJ           1.05404         1.32661          2.5549
LJ           1.38384        0.445031        0.947967
LJ          -1.91893         2.30584         0.63585
LJ          -2.16011       -0.628901       -0.989577
LJ       -0.00761715        -1.69572         2.23336
LJ           -1.2358        -1.74434       -0.123481
LJ          -2.26149        -1.04198        0.317835
LJ         0.0574497        0.164125       -0.533119
LJ           1.85206          -2.056         2.05658
LJ         0.0852779         1.02522        -2.18034
LJ          0.660479         1.26112         1.23029
LJ           1.86748        -1.19897       0.0440144
LJ          -1.45087        -1.55851        0.860106
LJ           2.20379        0.282108       -0.855988
LJ          0.685055         1.64001        -1.62412
LJ           1.93494         2.01755         2.40214
LJ           1.93295       -0.664602       -0.967523
LJ          -1.39778          2.4363       -0.491416
LJ         0.0208336          1.7733         1.84945
LJ           1.59251        -1.62549        -1.38414
LJ         -0.928481          1.9392        -1.60651
LJ           1.96847         1.65526       -0.257615
LJ          -1.09525         1.91539         1.44262
LJ           2.25771        0.643258        0.165129
LJ          -0.52838       -0.632118       0.0764396
LJ          -1.66723       -0.314487       -0.129784
LJ          -1.95615         2.24306          2.5075
LJ          -1.03721        -2.45514        -2.44023
LJ         -0.536651        0.908585          1.0819
LJ          0.532026       -0.767554        0.266941
LJ           2.43062       -0.282176          1.6119
LJ             -2.26         2.54103         1.56217
LJ           1.07428      -0.0222067        -2.29554
LJ           -2.0558         -1.3907        -1.82682
LJ          0.107962         1.78418        0.431222
LJ           1.51597         0.10849         1.80197
LJ          -1.88441        0.486408        -1.76017
LJ         -0.351511       -0.836261        -1.65396
LJ         0.0136447         1.18312       -0.927868
LJ         -0.115696        -2.37779      -0.0668578
LJ          -2.19046         1.57866        -1.89117
LJ          -2.51133        0.323847         2.39973
LJ           1.85659        0.972776        -2.08936
LJ         -0.420417        -1.55721        0.504126
LJ          -1.56617        -0.45908        -2.11485
LJ           1.45663         1.70468        0.711401
LJ         -0.696584        0.624614         2.03926
LJ          -2.41694        -1.43063         1.33254
LJ           2.34798        0.709667         1.25179
LJ           1.01896         1.85955       -0.664107
LJ         -0.725151        -2.05989        -1.33185
LJ          0.741429        0.530835        -1.28776
LJ          0.235473        -1.59819        -1.81565
LJ            1.3711      -0.0642637       -0.100966
LJ          -2.00376         1.22292         1.77398
LJ          -2.55855         1.44195        -1.02193
LJ           2.33143        -2.01063        0.366518
LJ         0.0828477       -0.586245        -2.49864
LJ           1.04162        -2.47519        -1.77232
LJ         -0.706266       -0.143284          1.1478
LJ          -1.68367        0.556521         1.02454
LJ          0.551039       -0.511615        -1.16969
LJ           2.34349       -0.212868        -1.79652
