108
#Comment!
LJ          -2.55279        -2.45698         2.50727
LJ          -1.70038        -1.68716         2.39936
LJ          -2.50054        -1.68059         -1.6199
LJ          -1.71124        -2.40294        -1.77214
LJ         -0.839641         2.46166         2.47739
LJ         0.0366639        -2.03096        -2.47836
LJ           -1.0533        -1.50059        -1.60871
LJ         0.0597263         2.22614        -1.65178
LJ          0.987216         2.37859        -2.49063
LJ           1.86835        -1.68681          2.5308
LJ           1.04954         -1.8099          -1.663
LJ           1.92716         2.54216        -1.55685
LJ           2.42362       -0.819156         2.52242
LJ          -1.74805       0.0290937          2.5259
LJ          -2.53146        0.157481        -1.86574
LJ          -1.68094       -0.464068         -1.4752
LJ          -1.14837       -0.887674        -2.45011
LJ       -0.00270551       -0.197415        -2.38448
LJ         -0.811038       0.0315335         -1.7079
LJ        -0.0957112       -0.984313        -1.83299
LJ          0.936374        -1.09854         -2.4645
LJ            1.7132       0.0808613         -2.5399
LJ           0.76196       0.0156631        -1.67405
LJ           1.64851       -0.795215        -1.74358
LJ          -2.39403         1.09759         2.42591
LJ           -1.7753         1.84571         2.48607
LJ          -2.48078         1.69064        -1.64583
LJ          -1.51023        0.870204        -1.66301
LJ         -0.671592         1.10483        -2.51213
LJ          0.106961         1.80627         2.55906
LJ          -0.83296         1.72986        -1.70849
LJ         0.0331325         1.00685        -1.73658
LJ           1.01373        0.819695        -2.40903
LJ           1.84288         1.88859         2.53959
LJ          0.953168         1.70698        -1.62021
LJ           1.83779        0.870482        -1.76703
LJ           2.50343         2.35645       -0.607672
LJ          -1.58236         -1.8853       -0.719894
LJ           -2.4209        -1.81054       -0.136444
LJ           -1.7254         2.42802      -0.0917076
LJ         -0.689058        -2.49142       -0.985315
LJ          0.102763        -1.75481        -0.90995
LJ         -0.513117        -1.73329      -0.0216108
LJ         -0.270168         2.36578        0.218727
LJ          0.767225        -2.51443       -0.966997
LJ           1.77823        -1.62137       -0.945334
LJ          0.621927         -2.0301       0.0962908
LJ            1.6792        -2.28297      -0.0400904
LJ          -2.35623       -0.865276       -0.727796
LJ           -1.8338        0.017755       -0.607119
LJ            2.4523       0.0774814       0.0336718
LJ          -1.63543       -0.886344       0.0438276
LJ         -0.603374       -0.818796       -0.779404
LJ       -0.00630666        0.252759       -0.885453
LJ         -0.955528      -0.0960011      -0.0343724
LJ          0.110445       -0.828288         0.20379
LJ          0.900092       -0.975203       -0.766248
LJ           1.91251       -0.135361       -0.840752
LJ          0.812598       0.0203747      0.00371771
LJ           1.70189       -0.925517       -0.143931
LJ          -2.38163        0.908731         -0.9533
LJ          -1.61831         1.74485       -0.869006
LJ           2.50786         1.62655        0.131842
LJ          -1.94862         0.97091      -0.0383725
LJ         -0.990299        0.738203       -0.809348
LJ        -0.0448046         1.63928       -0.811249
LJ         -0.835204         1.49016      -0.0753697
LJ        -0.0594949         0.86477       0.0632708
LJ          0.824597         0.92993       -0.611028
LJ           1.68144         1.64517       -0.941935
LJ          0.827801         2.00091      -0.0129967
LJ            1.7262        0.778648        -0.16541
LJ           2.37912         2.53326        0.844425
LJ          -1.44221        -1.70683        0.665552
LJ           2.45991         -1.5076         1.71123
LJ          -1.96544          2.4813         1.62195
LJ         -0.744843         -2.5006         1.19713
LJ          0.127601        -1.58223        0.881003
LJ            -0.867        -1.66039         1.69247
LJ         0.0871868        -2.33797         1.73886
LJ           0.95878         2.43436        0.864221
LJ           2.02259        -1.53923        0.698576
LJ          0.968057        -1.73483         1.66027
LJ            1.6702        -2.53933         1.61538
LJ           2.53587       -0.636882        0.958375
LJ          -1.71024      -0.0691531         0.91461
LJ           2.50486       0.0695393         1.91413
LJ           -1.7199       -0.982537         1.58051
LJ         -0.718568       -0.938302        0.960459
LJ         0.0756862       0.0125498         1.08694
LJ         -0.885355        0.141661         2.07434
LJ         0.0863897       -0.915604         1.84718
LJ           1.02801       -0.993441        0.745967
LJ           1.64888       -0.130585         0.70845
LJ          0.749532      -0.0395346         1.82348
LJ           1.62136       -0.842129         1.70131
LJ           2.48169        0.757009        0.972952
LJ          -1.46194          1.8647        0.775617
LJ           2.43475         1.65996          1.5533
LJ          -1.65466        0.981888         1.58913
LJ         -0.989668        0.624016        0.808254
LJ           0.24328          1.5035        0.795565
LJ         -0.790903         1.59443         1.61903
LJ        -0.0787567        0.856839         1.57538
LJ          0.894241        0.689277        0.832952
LJ           1.69962         1.76935        0.732684
LJ          0.875822         1.58067         1.79371
LJ           1.80316        0.835092         1.74198
