108
#Comment!
LJ           2.53149         -2.4634         2.50784
LJ          -1.70003        -1.83423         2.47473
LJ          -2.49943        -1.68921        -1.54281
LJ          -1.84567        -2.46379        -1.80731
LJ          -1.00316         2.45011         2.43575
LJ         -0.173166        -1.91311         2.56001
LJ         -0.930307        -1.48913        -1.69058
LJ         0.0616296         2.37759        -1.71895
LJ          0.888794         2.47483         -2.4279
LJ           1.78091        -1.69711         2.50299
LJ          0.837375        -1.58623        -1.57555
LJ           2.02066        -2.50764        -1.59998
LJ           2.47509       -0.779551         -2.5101
LJ          -1.85883         0.11054         2.49992
LJ          -2.47463        0.112173        -1.74622
LJ          -1.62679       -0.638374        -1.34516
LJ           -1.2292       -0.904321         2.53825
LJ        -0.0932167        -0.18715          2.5312
LJ          -0.83245        0.158192        -1.79243
LJ         0.0744098       -0.945418        -1.77206
LJ           1.01297       -0.976754        -2.49522
LJ           1.70921       0.0493954         2.51228
LJ          0.777221       -0.016488        -1.54407
LJ           1.81361       -0.814869        -1.72767
LJ          -2.55913         1.05496         2.45841
LJ          -1.77607         1.85393         2.53376
LJ           2.55612         1.63423        -1.75855
LJ          -1.62667        0.951183         -1.8923
LJ         -0.778596         1.09018         2.47033
LJ         0.0789013         1.70186         2.40907
LJ         -0.774956         1.56743        -1.80144
LJ        -0.0510919        0.827065        -1.77925
LJ          0.837061        0.887704        -2.37501
LJ            1.8409         1.85075         2.45271
LJ           1.01691         1.77024        -1.52999
LJ           1.76681        0.839579        -1.76503
LJ          -2.40059         2.53865       -0.713402
LJ          -1.56383        -1.86717       -0.602793
LJ          -2.56411        -1.77295       -0.102641
LJ          -1.61608         2.45873       0.0326562
LJ         -0.795638         2.43197        -1.00105
LJ         0.0510175        -1.74863       -0.929101
LJ         -0.808618        -1.79373       0.0912965
LJ          -0.25039         2.33537      -0.0295141
LJ           0.89907        -2.50936          -0.969
LJ            1.6945        -1.63332       -0.877144
LJ          0.710687        -2.00394       0.0899116
LJ           1.62901        -2.39531       -0.177593
LJ             2.493        -0.85181       -0.718022
LJ          -1.87333        0.125976       -0.733537
LJ           2.51458      -0.0384483      0.00908253
LJ          -1.71312       -0.781243      -0.0090742
LJ         -0.762284       -0.767668        -0.81768
LJ       -0.00125701        0.238804       -0.937473
LJ         -0.800032      -0.0502471      -0.0770056
LJ        0.00199064       -0.767896       0.0721924
LJ          0.824359       -0.885505       -0.694545
LJ           1.70204      -0.0936789       -0.837708
LJ          0.884213       0.0336575      -0.0979744
LJ           1.60314       -0.956225       -0.134972
LJ          -2.49991         1.02391       -0.882262
LJ          -1.63318         1.74609        -1.11958
LJ          -2.54269         1.74518       0.0596522
LJ          -1.80046        0.833112       0.0558996
LJ          -1.04924        0.789101       -0.828503
LJ        -0.0562391         1.49463       -0.933995
LJ         -0.858641         1.46926      -0.0699406
LJ         0.0521699        0.938484        0.116649
LJ          0.855637         1.03893       -0.754213
LJ           1.82667         1.66889        -1.01239
LJ          0.840816         1.94634      -0.0163479
LJ           1.74575        0.861944       -0.127373
LJ           2.37438        -2.54642        0.900014
LJ          -1.46229        -1.65245        0.862714
LJ           2.53692        -1.51856         1.81774
LJ          -2.02238         2.46391           1.674
LJ           -0.6792         -2.5338        0.954872
LJ          0.241591        -1.83457        0.975209
LJ         -0.935291        -1.61987         1.75812
LJ         0.0642081        -2.41883         1.76799
LJ           1.18946        -2.53274        0.884963
LJ           1.78095        -1.49684        0.860479
LJ          0.893682        -1.71971         1.70161
LJ           1.53882        -2.45712         1.83794
LJ           2.52414       -0.589377         1.00431
LJ          -1.85539        0.106386        0.855826
LJ           2.53667        0.046299         1.83911
LJ           -1.6602       -0.880788         1.57989
LJ         -0.718065       -0.864528        0.959403
LJ         0.0986541       -0.106389        0.922181
LJ         -0.885334        0.120078         2.02365
LJ           0.16489       -0.904364         1.62823
LJ          0.980259       -0.822614        0.868813
LJ           1.60742        -0.11228        0.545102
LJ          0.741353        -0.14613         1.87131
LJ           1.74765       -0.807779         1.72495
LJ            2.3819        0.776173        0.699128
LJ          -1.52225         1.87059        0.812743
LJ          -2.54062         1.58128         1.52735
LJ          -1.52724        0.879017         1.71178
LJ         -0.956974        0.700016        0.737092
LJ          0.104162         1.68435        0.885926
LJ         -0.782433         1.69803         1.43639
LJ        -0.0404487        0.892212         1.66094
LJ          0.830669        0.669124        0.950522
LJ           1.83788         1.69672        0.798863
LJ          0.998812         1.64715         1.77484
LJ           1.74694        0.772871         1.56042
