108
#Comment!
LJ           2.44547        -2.53124         2.46077
LJ          -1.77524        -1.80757          2.4013
LJ          -2.46736        -1.70253        -1.57056
LJ          -1.78933         -2.4544        -1.86847
LJ         -0.998944         2.46256         2.44473
LJ         -0.150278        -1.92946         2.53458
LJ         -0.927296        -1.50258        -1.66214
LJ         0.0916692         2.39781        -1.70437
LJ          0.948025         2.48025         -2.4043
LJ           1.78533        -1.71545         2.48217
LJ          0.967694        -1.60675        -1.58518
LJ            2.0487        -2.49267        -1.59216
LJ           2.42682       -0.830014        -2.49682
LJ          -1.86841       0.0525509         2.45876
LJ          -2.49843        0.109189        -1.76151
LJ          -1.66921       -0.640736         -1.3607
LJ          -1.23416       -0.942042        -2.56174
LJ        -0.0406635       -0.234248         2.54092
LJ         -0.826081       0.0738326        -1.78622
LJ       -0.00204819       -0.936512        -1.78682
LJ           1.00822        -1.06978        -2.49701
LJ           1.67739       0.0799998         2.54397
LJ          0.774189      -0.0265989        -1.60505
LJ           1.78896       -0.804623        -1.67496
LJ          -2.53263         1.11433         2.39973
LJ          -1.78056          1.8518         2.49645
LJ           2.55731         1.65998        -1.76797
LJ          -1.67034        0.965704         -1.8913
LJ         -0.775439         1.01941         2.54341
LJ         0.0465391         1.73774         2.43986
LJ          -0.83111          1.6506        -1.83051
LJ        -0.0124874        0.822117        -1.83479
LJ          0.897188        0.853563        -2.49285
LJ           1.83492         1.82068         2.45755
LJ            1.0263         1.74287        -1.54958
LJ           1.82667        0.835222        -1.76804
LJ          -2.40464         2.44013       -0.669025
LJ          -1.53402        -1.83422       -0.605527
LJ           2.49178        -1.76702      -0.0660537
LJ          -1.61647         2.40162      -0.0838775
LJ         -0.782255         2.44839        -0.97847
LJ         0.0640776         -1.7094       -0.884996
LJ         -0.734845        -1.80778      0.00852258
LJ         -0.228875         2.35568       -0.066548
LJ          0.870038        -2.51109       -0.902871
LJ           1.75834        -1.64775       -0.888269
LJ           0.69364        -2.03468        0.119604
LJ           1.66261        -2.37676      -0.0784236
LJ           2.53948       -0.797205       -0.776811
LJ          -1.86579         0.14329       -0.742003
LJ           2.43826      -0.0721734       0.0427586
LJ          -1.75027       -0.867349      -0.0318505
LJ         -0.699252       -0.761414       -0.802094
LJ        -0.0401662        0.194958       -0.922953
LJ         -0.817907       -0.132065      -0.0484838
LJ           0.02595       -0.758332        0.144832
LJ          0.829956        -0.88332       -0.763561
LJ            1.7036        -0.11272       -0.873383
LJ           0.77881       0.0647055        -0.10274
LJ           1.59745       -0.907886      -0.0796835
LJ          -2.51875         0.97511       -0.946662
LJ          -1.63697         1.74732        -1.07444
LJ          -2.53541         1.68378       0.0997418
LJ          -1.90665        0.794869        0.125545
LJ         -0.986382        0.746493       -0.851951
LJ          -0.10157         1.50083       -0.863709
LJ         -0.824504         1.49278       -0.086913
LJ         0.0863201        0.942283       0.0605606
LJ          0.822258         1.02451       -0.670267
LJ           1.82441          1.6545       -0.986158
LJ          0.830072         1.91473      0.00754109
LJ           1.76648        0.878112       -0.123829
LJ           2.41663        -2.53842        0.846891
LJ          -1.51484        -1.66703        0.776442
LJ            2.5263         -1.4754         1.76917
LJ          -2.02493         2.51009         1.62236
LJ         -0.671794        -2.50935         1.03078
LJ          0.171737        -1.80459        0.897916
LJ          -0.94608         -1.6255         1.72861
LJ         0.0461479        -2.38805         1.70272
LJ           1.09384         2.56183        0.891279
LJ           1.74745        -1.47306        0.794827
LJ          0.889876        -1.68973         1.71187
LJ           1.48958        -2.41175         1.86947
LJ           2.54336       -0.610135         1.08602
LJ          -1.82259       0.0695043        0.876471
LJ           2.49122       0.0754811         1.87304
LJ          -1.64085       -0.870105         1.57639
LJ         -0.761853       -0.916394         1.00857
LJ         0.0804196       -0.102723         1.02187
LJ           -0.9073        0.144182         2.08119
LJ          0.175225       -0.883378           1.632
LJ          0.974051       -0.780732        0.883405
LJ           1.60147        -0.12875        0.575761
LJ          0.743425      -0.0898143          1.9207
LJ           1.70187       -0.777701         1.74917
LJ           2.44616        0.730962        0.725883
LJ          -1.51493          1.8883        0.804463
LJ          -2.53812         1.54476         1.46487
LJ          -1.51923        0.887012         1.68215
LJ         -0.919741        0.733723         0.72909
LJ          0.104758         1.67593        0.914009
LJ         -0.792128         1.64396         1.48255
LJ         0.0415961        0.930251          1.6803
LJ          0.817995        0.663937        0.954011
LJ           1.78334          1.7496        0.809088
LJ           1.04111         1.64894         1.78734
LJ           1.73321        0.783833          1.6044
