108
#Comment!
LJ           -2.5535        -2.26425         2.52449
LJ          -1.65942         -1.4395         2.48607
LJ          -2.33863        -1.54113        -1.80579
LJ          -1.72567        -2.48952        -1.71528
LJ         -0.783995          2.4004        -2.41285
LJ         -0.145475         -1.4309         2.47543
LJ         -0.904845        -1.43896        -1.93714
LJ         0.0915129        -2.51526         -1.9367
LJ          0.970294         -2.3832        -2.43771
LJ           1.66516        -1.57451         2.40279
LJ           1.14363        -1.69285        -1.73484
LJ           1.88238        -2.53334        -1.65264
LJ           2.49093       -0.704957        -2.42192
LJ          -1.86715      -0.0802287         2.32874
LJ           2.53647     -0.00390379        -1.62667
LJ          -1.61859       -0.486698        -1.68611
LJ         -0.795365        -0.62637         -2.5174
LJ          0.254475      -0.0423901        -2.25363
LJ          -0.75095       0.0581675        -1.72927
LJ          0.147708       -0.912849        -1.54258
LJ          0.764059        -1.01101        -2.49318
LJ           1.68603       0.0403374        -2.41795
LJ          0.869959        0.276023        -1.60786
LJ           1.50884       -0.631946        -1.59745
LJ           -2.5193        0.880089        -2.42903
LJ          -1.78774         2.01553         2.41982
LJ           -2.5494         1.74227        -1.54182
LJ          -1.60629        0.639177        -2.13707
LJ         -0.540559        0.844401         2.50707
LJ         0.0794968         1.79325         2.45948
LJ          -1.25993         1.71015        -1.62231
LJ        -0.0540412         1.03453        -1.60606
LJ          0.971486        0.962855        -2.53361
LJ           1.69629         1.89112         2.53553
LJ          0.931941         1.83862        -1.79815
LJ           1.71141         1.02712        -1.81162
LJ           2.53961         2.54961       -0.723024
LJ           -1.4008        -1.66787       -0.836578
LJ          -2.24588        -1.59816      -0.0668017
LJ          -1.69924         2.42668        0.225382
LJ         -0.714437        -2.52725        -1.05268
LJ         0.0371576        -1.91063       -0.627209
LJ         -0.703104        -1.79995      -0.0290313
LJ        -0.0420508         2.32198        0.161791
LJ          0.957345        -2.50466         -1.0054
LJ           1.84438        -1.55962       -0.930444
LJ          0.770901        -1.98233        0.204122
LJ           1.73599         -2.5449       0.0949575
LJ          -2.35051       -0.755746       -0.824747
LJ          -1.89683        0.232484       -0.963153
LJ          -2.37596      -0.0319052      0.00137262
LJ           -1.5477       -0.647573       -0.145544
LJ         -0.711244       -0.693324       -0.778522
LJ         0.0453592      -0.0760194       -0.953026
LJ         -0.696869       -0.156461      -0.0195993
LJ         0.0398903        -1.06742         0.15003
LJ          0.934641        -1.08391       -0.635311
LJ           1.87336       -0.232629       -0.638599
LJ          0.735743       0.0801219      0.00212628
LJ           1.88831        -1.02398       0.0967739
LJ           2.38721        0.823276       -0.783443
LJ          -1.79073         1.66763       -0.678761
LJ           2.41547         1.68165      0.00451872
LJ          -1.77803        0.954113        0.131661
LJ         -0.943881        0.772725        -1.02097
LJ          0.013384         1.76552       -0.853225
LJ         -0.728214         1.65664       -0.109658
LJ         0.0776101        0.909438       -0.119247
LJ          0.870063         1.06066       -0.988781
LJ           1.66077         1.74862       -0.801357
LJ          0.862818         1.81158       -0.116947
LJ           1.72217        0.820926        0.125598
LJ           2.47297         2.44597        0.730879
LJ          -1.43394        -1.84529          0.8456
LJ           2.50137        -1.53792         1.64418
LJ          -1.89993        -2.39402         1.66233
LJ         -0.819481         2.45312        0.937319
LJ        -0.0685035        -1.54545          1.0959
LJ         -0.913245        -1.61248         1.74295
LJ         0.0204208        -2.29711         1.76702
LJ          0.782555         2.47308        0.873382
LJ           1.63312        -1.64594         1.00891
LJ          0.793486        -1.55421         1.67057
LJ           1.71513        -2.49226         1.57792
LJ          -2.42353       -0.826353        0.793211
LJ          -1.80472         0.18922        0.770225
LJ           2.37371    -0.000478969         1.66587
LJ          -1.67354       -0.827502         1.65289
LJ         -0.853704       -0.893376        0.916674
LJ           0.16001      -0.0352696        0.864397
LJ         -0.919094       -0.069666         1.74516
LJ         0.0082807       -0.736032         1.73627
LJ          0.990004       -0.919822        0.477478
LJ           1.76014        -0.21383        0.823276
LJ           0.93678       0.0194412         1.74003
LJ           1.56186       -0.759609         1.71698
LJ           2.33455        0.903048         1.07441
LJ          -1.89367         1.63168        0.895436
LJ            2.4652         1.88864         1.58987
LJ          -1.70501        0.869672         1.63737
LJ         -0.926235        0.933822        0.841437
LJ          0.368782         1.44133        0.795603
LJ          -0.69782         1.48373         1.66545
LJ          0.103031        0.648145         1.65776
LJ           1.04914        0.748084         1.04335
LJ           1.59494         1.75061        0.747767
LJ          0.928042         1.83276         1.63364
LJ           1.87119        0.987396         2.02051
