108
#Comment!
LJ          0.986005        -1.53684         1.26676
LJ           -1.4626        -1.52643        -1.21532
LJ          0.310437       -0.708637        -2.30002
LJ           2.35036         1.96691         -1.0195
LJ          0.353044        0.292345         1.71491
LJ           2.29398        0.542775        0.240361
LJ           1.07265         1.29533        -1.77861
LJ          -2.02049        -2.35768        -1.76818
LJ           -2.0887        -1.80996         2.06446
LJ          0.849116         2.39056       -0.113507
LJ           2.38232          1.1947         2.16957
LJ          -1.48715         1.93982        0.649533
LJ           1.37002       0.0874288        0.397764
LJ         -0.938684         0.43235         2.05021
LJ          -1.04593          1.8311        -1.07786
LJ         -0.599909       -0.112216       -0.309343
LJ          0.129682       -0.175314        -1.15752
LJ          -1.80847        0.104832         -1.7002
LJ           2.23237        -2.15035         1.39251
LJ           1.54544        -2.24075         2.05169
LJ           2.05032        0.262753         2.36757
LJ         -0.804775         1.35313         1.18877
LJ          -2.52722         2.15531         2.09718
LJ           2.40118       -0.545148       0.0879086
LJ           2.03684         1.71851         1.35721
LJ           1.86281      -0.0432918        -1.74009
LJ          -2.06798        -1.11337         -2.1357
LJ         -0.202734        -1.48604        -1.34216
LJ          -0.99826        0.511498        -1.00722
LJ          0.534645        -2.54358        -1.02122
LJ         -0.188966         1.10577        -1.69164
LJ         -0.221076        0.453247        0.923397
LJ          -2.04007        0.967208         1.02537
LJ          -1.65151          2.1315       -0.286776
LJ         -0.993328        -2.08221        0.539037
LJ          0.199796         1.57001        0.249618
LJ          -2.24539        -1.48256       -0.148973
LJ          -1.90963        -1.78089        0.992949
LJ         -0.334085         1.89783          2.5296
LJ          0.382227       0.0625398        0.201292
LJ          0.698378         1.22809         1.41144
LJ          -1.89367         1.05652         -1.2182
LJ         -0.431256        -1.18296        0.530359
LJ          -2.50336         1.69893        0.545889
LJ           2.51859       -0.993767        -1.23205
LJ           1.40177         1.90264         2.10899
LJ           1.79052         1.44372       -0.351706
LJ          -1.46237        -1.09747         1.93137
LJ          -1.85271       -0.325099       -0.735555
LJ           1.25945       -0.691619       -0.420511
LJ        -0.0104683        -2.00776       -0.248601
LJ          0.200432        0.797677       -0.753315
LJ          0.884822        -1.54558        -1.27962
LJ          -2.32106       -0.503697         2.22726
LJ          0.952963         1.58535       -0.826077
LJ           0.28952         -2.3946        0.708465
LJ           1.46618       -0.327551         1.35243
LJ          -1.47155       -0.224032         1.30407
LJ           2.34351        0.593762       -0.845286
LJ           2.54931        0.742767        -1.86569
LJ         -0.454111       -0.570816         1.46753
LJ           2.25763        -2.04233        -2.27408
LJ         -0.879897        -2.30174       -0.940794
LJ           1.17329        0.879125         2.46981
LJ           1.86392        -1.68241        0.433906
LJ         -0.402088         2.37403         1.56942
LJ          -1.42745       -0.964724        0.393664
LJ           0.57926          2.5117         1.69947
LJ         -0.775032         1.14584       -0.081544
LJ            1.3112        -1.73336       -0.423686
LJ          -1.29449         2.33092        -2.48796
LJ         0.0525982        -1.40108          2.0131
LJ         -0.260801        -2.21057        -2.56189
LJ         -0.621832         2.26329        0.177756
LJ           2.27788         -2.4079       -0.214694
LJ          -1.33228        0.108679         0.30122
LJ           2.38583       -0.945491         1.29577
LJ          0.871941        0.198883        -1.83277
LJ         -0.982973       -0.588584        -1.53976
LJ        -0.0373338         1.85143       -0.677245
LJ       -0.00156799         1.01968         2.49774
LJ          -1.89314        0.534864         2.44435
LJ          0.645931         1.94947        -2.40454
LJ           1.24049         1.49264        0.475462
LJ            1.6753         2.35673        -1.55383
LJ           -1.5101         1.50856         1.99648
LJ           1.58999        0.763223         1.22717
LJ         -0.892161        -1.30158         -0.4425
LJ          -1.59517         2.42849         1.50149
LJ           -2.1969         1.76395        -1.95364
LJ           1.24588          2.5143        0.974792
LJ         -0.419274        0.180119        -2.17072
LJ          0.173347       -0.807893       -0.303504
LJ           2.43297       0.0619342         1.38424
LJ         -0.164758         2.35447        -1.68567
LJ          0.750076        -2.00028        -2.28942
LJ           2.12643        -1.91172        -1.05851
LJ           1.92351        -1.08418         2.27183
LJ           1.25559        0.507259       -0.726041
LJ          -1.21866         1.18567        -1.94255
LJ         -0.617166        -1.24276        -2.33224
LJ         -0.822002        -1.74042         1.51124
LJ           0.47664       -0.607878         1.16727
LJ           1.66663        -1.40235         -1.9523
LJ          0.723714        -1.25891        0.347502
LJ          -1.93985         1.00392        -0.15934
LJ          -1.28257        -0.38126         -2.4688
LJ           1.22392       -0.426596          2.4273
