108
#Comment!
LJ          -2.54811        -2.44931         2.50884
LJ          -1.67998        -1.69185         2.39353
LJ          -2.49605        -1.67634        -1.64343
LJ          -1.68128        -2.39029        -1.78219
LJ         -0.868512         2.43568         2.47552
LJ         0.0521974        -2.03483        -2.46667
LJ           -1.0263        -1.49529        -1.58015
LJ         0.0487212         2.22391        -1.64586
LJ           1.00301         2.37442        -2.47837
LJ           1.84673        -1.72115        -2.56478
LJ           1.06257        -1.80927        -1.66979
LJ           1.93267         2.55818        -1.54004
LJ           2.41716       -0.868576         2.53894
LJ          -1.76491       0.0209751         2.54837
LJ           -2.5402        0.152206        -1.86994
LJ          -1.68615       -0.473711        -1.47465
LJ          -1.16364       -0.867491        -2.45973
LJ        -0.0323956       -0.218309        -2.36425
LJ          -0.77913       0.0421061        -1.68749
LJ         -0.122487        -1.00965        -1.81579
LJ          0.951878        -1.11518        -2.46793
LJ           1.70023       0.0534725        -2.55362
LJ          0.727489     -0.00347379         -1.7038
LJ           1.69472       -0.818685        -1.75186
LJ          -2.38348         1.10709         2.42281
LJ          -1.74583          1.8513         2.49159
LJ          -2.49483         1.71484        -1.64801
LJ          -1.52808        0.855749        -1.64686
LJ         -0.655304         1.11727        -2.50692
LJ          0.120626         1.81197        -2.55367
LJ         -0.860514         1.71605        -1.72053
LJ         0.0381467        0.992684        -1.71012
LJ           1.02171         0.82847        -2.42751
LJ           1.83792         1.87898         2.53079
LJ          0.965696         1.71221        -1.64134
LJ           1.83136        0.865561        -1.77917
LJ           2.52709         2.37084       -0.650157
LJ          -1.54897        -1.90764       -0.732987
LJ           -2.3975        -1.79386       -0.129763
LJ          -1.72332          2.4233       -0.100008
LJ         -0.690958        -2.48207         -0.9611
LJ         0.0994332        -1.75028       -0.896163
LJ         -0.483633        -1.69467      -0.0344748
LJ         -0.268524         2.37143        0.191238
LJ          0.750302        -2.50973       -0.969135
LJ           1.76766        -1.63557       -0.954163
LJ          0.593366        -2.02045       0.0908026
LJ           1.70109        -2.29758      -0.0494115
LJ          -2.38446       -0.902077       -0.713449
LJ           -1.8197       0.0425596       -0.583415
LJ           2.45956       0.0497496       0.0458982
LJ          -1.63436       -0.862217       0.0432153
LJ         -0.580916       -0.820708       -0.759552
LJ        0.00369017        0.229389       -0.866594
LJ         -0.925896      -0.0863318      -0.0230073
LJ         0.0811165       -0.818779        0.243296
LJ          0.879993       -0.987789       -0.766711
LJ              1.91       -0.145589       -0.815247
LJ          0.797699       0.0483438     -0.00285482
LJ           1.64871       -0.909604       -0.130486
LJ          -2.39098        0.907613       -0.955084
LJ          -1.62799         1.76667        -0.87423
LJ            2.5127         1.66197        0.158936
LJ          -1.94971        0.973364       -0.050653
LJ         -0.960863        0.743424       -0.796036
LJ        -0.0343382         1.63417       -0.815889
LJ         -0.813816         1.47677      -0.0666104
LJ        -0.0520733        0.838885       0.0709243
LJ          0.846224        0.921722        -0.62933
LJ           1.69467         1.65168       -0.905719
LJ          0.828003         2.03126      -0.0187857
LJ           1.72579        0.785135        -0.17234
LJ           2.41596         2.53782        0.865802
LJ          -1.46526        -1.70054        0.680971
LJ           2.48211        -1.52041         1.71176
LJ          -1.98092         2.49888          1.6013
LJ         -0.759744        -2.49795         1.18837
LJ          0.143194        -1.55847        0.913057
LJ         -0.890194        -1.63824         1.72128
LJ           0.11898        -2.32112         1.71184
LJ          0.968424         2.43356        0.850038
LJ           1.98357        -1.54551         0.70154
LJ          0.971114         -1.7384         1.66866
LJ           1.69351        -2.52775         1.63449
LJ           2.51229       -0.639506        0.996792
LJ          -1.67617       -0.102841         0.91094
LJ           2.49474       0.0512495         1.91061
LJ          -1.69943       -0.985058         1.58183
LJ         -0.713279       -0.926432        0.968572
LJ         0.0553007     -0.00703959         1.07364
LJ         -0.867333        0.157799         2.07701
LJ         0.0598408       -0.918837         1.81288
LJ           1.04417       -0.993009        0.730155
LJ           1.65306       -0.134276        0.709358
LJ          0.754399      -0.0400201         1.84168
LJ           1.60237       -0.866898          1.7052
LJ           2.47454        0.747977        0.961327
LJ           -1.4832         1.84922        0.773215
LJ           2.46463         1.65885         1.56239
LJ          -1.62129        0.981903          1.5656
LJ         -0.986808        0.614177        0.813541
LJ          0.264731         1.52402        0.808845
LJ         -0.810392         1.60681         1.60699
LJ        -0.0756626        0.826496          1.5589
LJ          0.887806        0.666375        0.869943
LJ           1.71099         1.75187        0.719823
LJ          0.867486         1.56655         1.79739
LJ           1.80628        0.843238         1.76643
