108
#Comment!
LJ          -2.48068        -2.40941         2.52689
LJ          -1.81354        -1.50115         2.46126
LJ           -2.2532        -1.55444        -1.78994
LJ          -1.57001        -2.38053        -1.83932
LJ         -0.793267          2.2978        -2.41231
LJ         -0.136045        -1.53543         2.43085
LJ         -0.910704        -1.50237        -1.92538
LJ         0.0610933         2.51549        -1.91361
LJ           1.03223        -2.41052        -2.43243
LJ           1.71439        -1.64743         2.45802
LJ           1.20894        -1.70153        -1.64881
LJ           1.92533         2.46348          -1.531
LJ            2.3572       -0.603289        -2.54315
LJ          -1.84414       -0.040615         2.31452
LJ          -2.45868      -0.0374743          -1.778
LJ          -1.53343       -0.607607        -1.67825
LJ         -0.934644       -0.690243        -2.55534
LJ         0.0477474        -0.18142        -2.47758
LJ         -0.843775        0.131768           -1.73
LJ           0.16066        -0.89499        -1.68628
LJ          0.792971        -0.93967        -2.51275
LJ           1.63024     -0.00100549        -2.44307
LJ          0.753853        0.137069        -1.67964
LJ           1.56199       -0.658101        -1.49721
LJ          -2.53968        0.931859        -2.39146
LJ          -1.79344          1.9831         2.39244
LJ          -2.52288         1.69086          -1.543
LJ          -1.59701        0.799334        -2.08083
LJ         -0.504308        0.752037         2.54297
LJ          0.105252         1.72315         2.34475
LJ          -1.29627         1.77927        -1.68042
LJ         0.0292745         1.01792        -1.75915
LJ           1.07122         1.06514        -2.44261
LJ           1.71779         1.87492         2.45561
LJ          0.987441         1.89758        -1.84775
LJ           1.82372         0.86291        -1.78152
LJ           2.54063        -2.52036       -0.730062
LJ          -1.41525        -1.70391       -0.907591
LJ          -2.29985        -1.67312       -0.156587
LJ          -1.63362         2.42187       0.0753545
LJ         -0.644678         -2.4782        -1.02006
LJ         0.0269681        -1.77502       -0.682764
LJ         -0.735305        -1.80163      -0.0250713
LJ         0.0436431         2.37357        0.168506
LJ          0.726419         2.53283       -0.836782
LJ           1.94185        -1.59995       -0.919515
LJ          0.784033         -1.8908        0.186672
LJ           1.69612        -2.45684       0.0111617
LJ          -2.34934       -0.793827       -0.868527
LJ          -1.81266       0.0793397       -0.968107
LJ           -2.3824        0.050964      -0.0346608
LJ           -1.6235       -0.737208      -0.0276045
LJ         -0.795837        -0.77208       -0.693644
LJ         -0.101792        0.129911       -0.989397
LJ         -0.656734       -0.027228       0.0621169
LJ        -0.0591916       -0.877917        0.150447
LJ          0.977301        -1.12179       -0.758853
LJ           1.82315       -0.204445       -0.604986
LJ          0.785706       0.0955959        0.153598
LJ           1.94452        -1.03243       0.0363561
LJ           2.42323        0.789316       -0.784049
LJ          -1.86015         1.67301       -0.734509
LJ           2.53003         1.62732      -0.0726684
LJ          -1.86338        0.893957         0.12447
LJ           -1.0479        0.829278       -0.971964
LJ          0.115658          1.7331       -0.820649
LJ         -0.760026         1.63598       -0.117284
LJ         0.0717006        0.857495       -0.157995
LJ          0.898827         0.91494       -0.909306
LJ           1.60799         1.73325       -0.868489
LJ          0.874185         1.71785        -0.10387
LJ           1.60387        0.827393        0.131293
LJ            2.4762         2.46234        0.695897
LJ          -1.52179        -1.82395        0.795197
LJ           2.55161        -1.43341         1.53789
LJ          -1.97553        -2.41988         1.65322
LJ          -0.90437         2.42086         1.00097
LJ         0.0403378        -1.47487         1.12311
LJ          -1.06016        -1.67564         1.82082
LJ         0.0243563        -2.27638         1.71647
LJ          0.742331         2.34281        0.867817
LJ           1.66335        -1.54928         1.05707
LJ          0.807819        -1.72094         1.79426
LJ            1.7326        -2.54232         1.47405
LJ          -2.39294       -0.768608         0.69362
LJ          -1.63011       0.0569316        0.851482
LJ            2.3923     -0.00804978         1.64299
LJ          -1.70561       -0.902689         1.58314
LJ         -0.856104        -0.89009          1.0422
LJ          0.161403        -0.15651        0.905404
LJ         -0.943809       0.0522614         1.84179
LJ          0.229819       -0.768269         1.75393
LJ          0.931834       -0.860569         0.56734
LJ           1.74624       -0.346989        0.828152
LJ          0.834818       0.0867078          1.7291
LJ           1.52415       -0.785624         1.79802
LJ           2.35975        0.980597         1.04504
LJ          -1.81949         1.65279        0.954444
LJ            2.4557         1.87344         1.60962
LJ          -1.77622        0.879179         1.66934
LJ         -0.862691        0.958489        0.750954
LJ          0.360963          1.3863        0.792403
LJ         -0.723817         1.38526         1.73582
LJ         0.0632821        0.788323          1.6671
LJ           1.16779        0.642578         1.04305
LJ           1.56275         1.73432        0.709607
LJ           1.00697         1.72051          1.6875
LJ           1.80328         1.08321         1.92728
