108
#Comment!
LJ         -0.644002         2.52865         0.68313
LJ          -1.25299        -1.81695        -1.15993
LJ          0.247289        -1.37169         1.19284
LJ          0.752678         2.33193        -1.23258
LJ         0.0548713        -2.35264         1.70972
LJ           2.16744       -0.244368       0.0847434
LJ          0.832034         1.33766        -1.17933
LJ          0.971712        -2.52186        -2.30808
LJ           2.22194        -2.07306         1.15478
LJ          0.584681         -2.2013        0.794142
LJ          -1.80483        0.502504         2.27886
LJ          -1.84806         2.17263         2.40807
LJ          0.158312        0.907297         1.06968
LJ          -2.47712          2.1578         1.31199
LJ           -1.6623         1.95583       -0.406298
LJ          -1.44201         1.08347        -1.18045
LJ         -0.719819        -1.52936         1.53936
LJ           1.96175         1.32791        -1.13246
LJ          0.735077       -0.419563        0.953996
LJ        0.00380358          2.3265        -2.07769
LJ           1.40524        -1.51187        0.785858
LJ          -1.49887          1.3745        -2.16139
LJ          0.363438         1.68414          2.2915
LJ          -1.18708       -0.841347        -1.01399
LJ           1.10387        -1.95809          1.8542
LJ        -0.0167758       -0.342669        -1.67216
LJ          -2.13773        -2.42516        -1.17008
LJ          -1.06866        0.230852       -0.683056
LJ          -2.21489        0.252202        -0.53231
LJ         -0.323892        -1.53133       -0.545006
LJ         -0.675644        0.646117        -1.69779
LJ          -1.41955       0.0825214          1.4072
LJ          -1.65626       -0.499465         2.37166
LJ           1.78904         1.45602        0.900711
LJ           2.46493        -1.34809        0.396364
LJ         -0.701511         1.57548        0.785842
LJ            1.4681        -1.99917       -0.180994
LJ           1.34325       -0.832742         1.77777
LJ          -1.12472         2.25034        -1.42278
LJ          0.369979        0.271003        0.124578
LJ          -0.70619        0.515922        0.629245
LJ            1.9044         2.36975        -1.03252
LJ         -0.827735        -1.16895        -1.93658
LJ           1.69895         2.20639         2.05201
LJ           2.23704        -1.64675        -1.52888
LJ           1.29074          1.1071          2.1974
LJ           1.40004         1.65888        -0.03492
LJ           -1.5468        -2.21167         1.54612
LJ          -2.39881       -0.772317       -0.773999
LJ           0.14412        -1.69725         2.49663
LJ          -1.11835        -2.19141       -0.205346
LJ          -1.76546        -1.39736       -0.221227
LJ          0.801501      -0.0597084       -0.886094
LJ           2.11008        -1.40886        -2.51552
LJ          0.413879        0.862734        -1.97251
LJ          0.834078          1.9226         1.28257
LJ            1.5464       -0.876235       -0.298947
LJ          -1.45006        -1.34528        0.806675
LJ           2.45977         1.16822       -0.135676
LJ           1.27527         1.71201        -2.06423
LJ           2.48378        -2.26318         2.19262
LJ           1.04369         -1.5803        -1.02807
LJ         -0.683392         1.62346       -0.497965
LJ           0.39275        0.517287         2.07322
LJ            2.4327        -1.88878       -0.519853
LJ         -0.538099         1.40424        -2.42295
LJ            2.3649         2.20523    -0.000862952
LJ          -1.01668          1.9883         1.84918
LJ          -1.98511         1.51839        0.579127
LJ         -0.958056       -0.438191        0.181636
LJ          -1.41911         1.03003      -0.0582374
LJ          -1.91961        -1.95297        -2.12393
LJ         -0.847978        -2.19191        -2.26076
LJ         -0.736042         1.02527         1.74138
LJ           0.57656         -1.2377       0.0407252
LJ           2.06104       -0.461807         1.18804
LJ          -2.28961        -1.21236         1.45422
LJ           1.02008       -0.257139        -2.16284
LJ          -2.00646       -0.895395        -1.88363
LJ          0.207901         1.34649       -0.188881
LJ           1.34427        0.238843         1.62866
LJ           -2.1209       0.0118735        -1.53136
LJ         -0.292429       -0.458671       -0.665702
LJ        -0.0548104        0.574677       -0.886546
LJ         0.0269004         2.45929       -0.144684
LJ           2.49133         1.54498         2.46152
LJ           2.25006        0.933031         1.64272
LJ           1.82777         0.58247        -2.14478
LJ         -0.421486        -1.51156        0.426178
LJ          -1.21598       -0.172947         -1.9691
LJ           1.51024         2.50944         0.86077
LJ          -0.67339        0.208389         2.43756
LJ          -2.08464       -0.572658        0.591778
LJ           1.95313        0.461791        0.666331
LJ          -0.28114         1.49648        -1.38353
LJ         -0.392225        -2.36643         -1.1328
LJ           1.66769       -0.775206        -1.41204
LJ         0.0721458        -1.63987        -1.60697
LJ           1.56826        0.479051       -0.516095
LJ          -1.94457         1.34169         1.70222
LJ          -2.18202         1.74094        -1.52608
LJ          -2.02126        -2.33726        0.515313
LJ         0.0862048       -0.634074         2.31955
LJ           2.27582         2.41258        -2.06051
LJ         -0.421323       -0.220492         1.40568
LJ          -2.19135        0.511719        0.884632
LJ           1.00295        -1.46065          -2.199
LJ           2.15245        -0.35123         2.42156
