108
#Comment!
LJ          0.467835        -1.60657        0.632879
LJ           1.77633       -0.752929         1.96145
LJ        -0.0288662         1.11915        -1.82828
LJ           -2.0159        -1.70057        -1.15448
LJ         -0.769343       -0.278068         1.65469
LJ          0.609193         2.54943         0.54891
LJ           1.12771        0.177336       -0.975393
LJ           1.38138       -0.980602        0.982968
LJ           0.84858       0.0556972         1.65395
LJ           2.43625         1.22767       -0.481123
LJ            1.6968        -2.17459       -0.173112
LJ           0.18666       -0.507839         2.23669
LJ          -1.78942        -2.24783        0.750854
LJ        -0.0223356         0.63473         1.96577
LJ          -2.40869        0.103089         1.24439
LJ          -2.22705       -0.740172       -0.774781
LJ          -1.08307        -2.29671           1.764
LJ           1.64794         1.77146      -0.0391982
LJ           0.43374        -2.33772         2.45099
LJ           1.98962       -0.433088       -0.440451
LJ          0.668513        -2.52626         -1.6652
LJ         -0.303219         2.11521        -1.68643
LJ          0.135335        0.505673        -0.56957
LJ          -2.21396         1.26575         1.83525
LJ          0.063855       -0.420455       -0.801739
LJ           2.42644         2.44136        0.350111
LJ           2.18729         -1.9514         2.10433
LJ         -0.387018       -0.883821        -2.06922
LJ         -0.029702         1.35228         1.07331
LJ          -1.52034       -0.655399        -2.06582
LJ            1.3144         2.17388       -0.868331
LJ          0.103264        -1.46116        -1.02759
LJ           2.05545        -1.34073        -1.84565
LJ          -1.14232        -2.48603        -1.39928
LJ           -2.2905        -1.76767      -0.0603215
LJ           -1.7007         2.12851       -0.281556
LJ           1.07832         1.52751        0.820367
LJ          -1.61465       -0.770859         1.99647
LJ           1.13572       -0.902044       -0.857869
LJ            1.2625        0.782819      -0.0639445
LJ          0.460485        -2.34498       -0.526073
LJ           2.16835         -1.1153         0.32011
LJ         -0.923389       -0.162302       -0.586987
LJ          -1.68214         -2.3119        -2.41678
LJ            1.8341        -2.10478        0.913993
LJ            2.2809         1.86283        -1.60725
LJ         -0.667625        0.408589         -1.4271
LJ           1.29346        0.320921        0.881835
LJ        -0.0472493         2.46372         1.52291
LJ         -0.164536        -1.62116         1.92622
LJ          -2.18661         1.23364        0.716715
LJ          -0.65568         2.24585         2.47414
LJ          0.935129         1.04017          1.6088
LJ         -0.423613         1.13771        0.160292
LJ           1.99798        0.980792         1.36143
LJ          -1.11967         1.36882        -1.83755
LJ          -1.18569         1.60264         1.74186
LJ          -1.19199        -2.09194       -0.144043
LJ          0.345246       -0.557555        0.976866
LJ          0.978166        0.576813        -2.24805
LJ          -2.02642        -1.02031        0.839139
LJ          -1.08944        -1.52674         2.49759
LJ            2.4718         2.45897       -0.699597
LJ           1.85541        0.244086         2.03224
LJ          -1.70807        0.318803        0.639952
LJ           1.56979         1.20205        -1.23696
LJ          -1.81741        0.523661       -0.830429
LJ           1.41611        -0.58289        -2.00885
LJ         -0.865254         2.04196        0.707578
LJ           2.23252       -0.304418        -1.50848
LJ           1.40241        -2.25794        -2.34594
LJ          -0.94054        0.662901         1.28227
LJ          0.401684         1.67036        -1.10166
LJ           1.91823         2.03902         1.34498
LJ           1.08183         2.02519         1.98525
LJ         -0.983601        -1.19509         1.13681
LJ          0.763099        -1.38384        -1.77747
LJ          -1.92506        0.549958        -1.83331
LJ         -0.213773        -1.93707        -1.92259
LJ          -1.21741       -0.992982      -0.0913339
LJ           2.07668        -1.38431       -0.692276
LJ          0.343051         0.44055        0.560654
LJ           2.19751         2.15622         2.38127
LJ         -0.743087        0.233731        -2.41905
LJ           1.96982        0.536798        -1.86612
LJ           1.00513        -2.16008          1.5257
LJ          -2.46335       -0.238923         2.50818
LJ          0.257682      0.00310675        -1.83459
LJ          -1.03417        -1.20675        -1.17507
LJ         -0.280624       -0.895955        0.253957
LJ          -2.19896        -1.45686        -2.34144
LJ         -0.458634        -2.07514        0.685658
LJ           1.96639         1.21353         2.46209
LJ          -1.92525         -1.7806         1.70092
LJ           2.43947        -2.29081        -1.70264
LJ           2.11918        0.319637        0.249128
LJ           1.32618         1.93177        -2.01641
LJ          -1.98597         1.59446        -1.15343
LJ          0.909846        -1.33729         2.14858
LJ          -1.56949        0.300326         2.14576
LJ          0.378215         1.80187       -0.039661
LJ         -0.352818         2.32814       -0.600044
LJ           1.42787        -2.03878        -1.25357
LJ          0.930551       -0.300679         0.19144
LJ           0.19342         1.69853         2.52065
LJ          -2.24862         2.34672         1.50496
LJ          -1.80083         1.81936         2.56401
LJ         -0.842144         1.29031       -0.893533
