108
#Comment!
LJ           2.54037        -2.54132         2.54791
LJ          -1.70712        -1.87446        -2.55863
LJ          -2.47415        -1.68644        -1.69473
LJ           -1.8282        -2.54624        -1.70821
LJ         -0.890437         2.39911         2.47755
LJ         -0.219236        -1.80231        -2.49933
LJ         -0.859099        -1.65228        -1.54707
LJ         0.0051613          -2.557        -1.70319
LJ          0.885814         2.49542         2.52782
LJ           1.63279        -1.82403        -2.54181
LJ          0.911255        -1.53903        -1.66892
LJ           1.89264        -2.49719        -1.72733
LJ           2.41852        -0.87467         -2.5333
LJ          -1.57725       0.0695965         2.54251
LJ           2.53647       0.0658788         -1.8015
LJ           -1.7997       -0.898453         -1.7253
LJ          -1.10809       -0.882844         2.53863
LJ         0.0416056       -0.128302         2.49352
LJ         -0.920179        0.124362        -1.72374
LJ         0.0154904       -0.864546         -1.6867
LJ          0.891005       -0.998412         -2.5052
LJ           1.85102        0.144219        -2.52756
LJ          0.754834        0.205048        -1.69334
LJ           1.66704       -0.860652        -1.68468
LJ           2.54917        0.834721         2.56264
LJ          -1.76873         1.75963         2.54809
LJ          -2.49685         1.55937        -1.76561
LJ          -1.78061        0.922288        -1.65223
LJ         -0.726684        0.931747         2.28939
LJ           0.18459         1.72552         2.41447
LJ         -0.848709          1.6656        -1.65042
LJ         -0.051936        0.873961         -1.8767
LJ          0.821543        0.906307        -2.37234
LJ           1.79289         1.72655        -2.45956
LJ            1.0213         1.82783        -1.62297
LJ           1.74423         0.87966        -1.67143
LJ          -2.50015        -2.48455       -0.837558
LJ          -1.48659        -1.67572       -0.726147
LJ           2.49319        -1.75395      -0.0249262
LJ           -1.6167         2.56065       0.0233816
LJ         -0.738834         2.55577       -0.850824
LJ         -0.033906        -1.71095        -0.89736
LJ         -0.909208        -1.71104       0.0992893
LJ        -0.0854318         2.42419       -0.018325
LJ          0.823321         2.56018       -0.839359
LJ           1.60263        -1.80316       -0.783046
LJ          0.735275         -1.7993        0.157741
LJ           1.66506        -2.54232      -0.0674763
LJ          -2.52116       -0.869556       -0.813184
LJ          -1.94263        0.187112       -0.798726
LJ           2.43972      -0.0203334      -0.0500162
LJ          -1.71142       -0.902933      -0.0692602
LJ         -0.877703       -0.752039       -0.818031
LJ        -0.0670563     -0.00178031       -0.855585
LJ         -0.887562     -0.00589724      -0.0401159
LJ        -0.0514246       -0.700947      0.00923756
LJ          0.864818       -0.896935       -0.719369
LJ           1.67433       -0.199716       -0.818205
LJ           0.95739      -0.0704053       -0.149609
LJ            1.7069       -0.988785      -0.0820663
LJ          -2.49418         1.03521       -0.815089
LJ           -1.7226         1.77216       -0.972258
LJ          -2.50531         1.78374       0.0825403
LJ          -1.68355        0.944457        0.100859
LJ         -0.876961         0.78328       -0.684588
LJ         -0.131386         1.71794       -0.990942
LJ         -0.862913         1.76932        -0.19052
LJ        -0.0904727        0.956438        0.021236
LJ          0.698514        0.875045       -0.836545
LJ           1.72616         1.88019       -0.873839
LJ           0.68436         1.74564       -0.148608
LJ           1.69239        0.757935       0.0530536
LJ           2.52157         2.54703        0.982186
LJ          -1.62709        -1.73859        0.920264
LJ           2.31362         -1.6888          1.6864
LJ          -1.88975         2.53884         1.66417
LJ         -0.831585         2.44734        0.760382
LJ         0.0563779        -1.72759        0.914695
LJ         -0.855307        -1.68913         1.72513
LJ         0.0677926        -2.51224         1.88666
LJ           1.05084         2.42598        0.983062
LJ           1.65978        -1.78264        0.841892
LJ          0.926216        -1.60815         1.64625
LJ           1.65783        -2.51726         1.73722
LJ           2.42878       -0.579776        0.893217
LJ           -1.7569      -0.0211007        0.834749
LJ          -2.50614      -0.0340833         1.99075
LJ          -1.77509       -0.894941          1.7377
LJ         -0.722428       -0.864909        0.817984
LJ         0.0761107      -0.0275582        0.830012
LJ         -0.675655       0.0571424         1.73477
LJ        -0.0293272       -0.903482         1.61986
LJ          0.748626       -0.948061        0.736834
LJ           1.64299      -0.0654612        0.733398
LJ          0.864484       -0.153918         1.73025
LJ           1.70305        -0.84978         1.73969
LJ           2.45377        0.921673        0.810294
LJ          -1.77931         1.74573        0.816459
LJ          -2.54639         1.71354         1.76616
LJ          -1.70993        0.779754         1.71015
LJ          -0.89986        0.656871        0.837373
LJ        0.00202273         1.57264        0.960919
LJ          -0.82424          1.7223         1.65614
LJ       -0.00851143        0.795524          1.5347
LJ          0.887073        0.781392        0.807551
LJ           1.75251         1.72949        0.756667
LJ          0.810658         1.58042         1.68489
LJ           1.64879         1.01574         1.62126
