108
#Comment!
LJ           2.07033         1.88378       -0.202767
LJ          0.554351         1.08697         0.38183
LJ          -2.12431        -0.25496         1.35847
LJ          0.587102        -1.88805         2.36539
LJ          0.602756        -1.89941        0.171967
LJ           2.39048        -1.45704        -1.42445
LJ           1.38896        -1.74621         0.94448
LJ          -1.16193        0.189439         1.33688
LJ           1.26063        -1.76174        -1.46247
LJ          -2.55121        -1.41301       -0.191092
LJ           -2.4869        -2.37014       -0.832948
LJ           1.15617         2.54236         1.77202
LJ          -1.95015        0.295014         2.22392
LJ          0.381912        -2.19016        -1.67141
LJ         -0.826741       -0.242711       -0.576732
LJ         -0.458396         1.52112        -1.82325
LJ           1.41537       -0.632139         1.20755
LJ        -0.0399952         1.44932       -0.550776
LJ           1.64399       -0.185385         2.08562
LJ          0.163871        0.713597         1.41711
LJ          -2.10825         1.70579         1.78378
LJ           1.20169        0.723794         2.20475
LJ           1.59563       -0.247593       -0.808191
LJ           1.74263         2.12651        -1.17349
LJ           1.11342        0.142582        -1.82825
LJ          -0.69138        -2.17395        -1.04424
LJ          -0.86578         2.11459        0.215451
LJ           1.14949        0.101568        0.121259
LJ           2.29499           0.284       0.0200328
LJ           1.10257         0.39738         1.21208
LJ          -1.46709        0.548929        -1.96543
LJ           1.35932        -2.45489        -2.24097
LJ         -0.829242        -1.78976        0.959454
LJ          -1.88703        0.637718        0.702498
LJ            1.6412          1.7896         1.46066
LJ          0.160055       -0.361842       -0.339885
LJ          -2.46784         1.54367        0.863209
LJ          -1.58903        -1.45075        -1.25346
LJ           2.12251         2.04205         2.34203
LJ          -1.88415        -1.48572        0.602105
LJ           2.35934         0.70288         1.77073
LJ         -0.432178        -1.86952      -0.0629116
LJ            1.6511          1.2234        0.477657
LJ           2.00411       -0.801696        0.235916
LJ         -0.632924         1.02506        0.318032
LJ           1.23388        -2.29148       -0.586942
LJ           1.48967        -1.38521       -0.470622
LJ           0.93004        -1.02829        0.357914
LJ          0.636388        -1.02576        -1.99063
LJ          0.353898        -1.47259        -0.73287
LJ             -2.05       -0.546271        0.310173
LJ         -0.732269       -0.751756         1.51143
LJ         -0.843937         0.73026           2.401
LJ          -1.89669       -0.440288       -0.763021
LJ          0.156873        -1.76698         1.37199
LJ         -0.208082        0.129403        0.467445
LJ          -2.42313        -2.50918        0.220527
LJ          0.431907        0.770044        -1.80734
LJ           2.34379         1.03684        -2.38887
LJ           1.61464        -1.22502         2.15978
LJ          0.251468       -0.200195        -1.37025
LJ          -1.23147        -2.27026        -1.92508
LJ         -0.251086        -1.13715         2.52776
LJ         -0.310078         2.21337         1.47419
LJ         -0.629817        0.818765        -1.01139
LJ          -1.22942        -0.41439         2.49318
LJ          -1.78055        -1.44179        -2.44204
LJ          -1.44442          2.1185        -1.11913
LJ          0.165511        -2.48964       -0.613516
LJ          0.590782         1.65862         1.54917
LJ          -1.53615        -2.47962         1.14031
LJ           1.44934           2.453        0.553681
LJ           1.44675         1.14202        -1.66175
LJ         -0.676226        -1.95392         1.95064
LJ           1.76317       -0.877413        -1.95543
LJ          -1.41222        0.510991       -0.323197
LJ         -0.816987       -0.377778        -1.66768
LJ           2.31009        -2.20346         1.10095
LJ           1.01418         1.55668       -0.570728
LJ          0.297462      -0.0198685         2.36948
LJ          -2.03652       -0.551548        -1.96196
LJ             1.751         0.82314       -0.711578
LJ           -2.0064         1.66356       -0.156674
LJ          -2.38022         0.37664        -1.19472
LJ          -1.55745         1.69385        -2.12048
LJ         -0.970149          1.2758         1.30423
LJ           2.17381      -0.0257983         1.00432
LJ       -0.00255745         1.28043         2.48123
LJ         -0.375059       -0.942276        0.549322
LJ          -0.49035        -1.41528        -1.69972
LJ          -2.54197         1.44073         -1.1492
LJ           1.20467         1.66367        -2.52174
LJ          0.349885         2.06023        0.512279
LJ          -1.64082        -1.26161         1.65885
LJ         -0.264592         2.50269        -2.31559
LJ           2.36364        -1.14317         1.18241
LJ           2.25434        0.129744        -2.09255
LJ          -1.59766         1.14736         -1.1841
LJ          -1.43084        -2.09379       -0.398059
LJ         -0.980618         2.00677         2.20275
LJ          -2.34668         2.33625        -2.05694
LJ           -1.7885        -2.43554         2.17172
LJ          0.467114         1.85462        -1.46137
LJ           2.16147        -2.07376         2.32307
LJ          0.658028        0.588437       -0.640593
LJ          -1.22037        -1.13555       -0.196104
LJ          0.342645       -0.744199          1.3858
LJ           -2.5034       -0.846136         2.30419
