108
#Comment!
LJ          -2.39136        -2.31826         2.42963
LJ          -1.68358        -1.62795          2.4925
LJ          -2.23165        -1.52782        -1.74184
LJ          -1.51309        -2.45403        -1.85864
LJ         -0.780697         2.44265        -2.55413
LJ         -0.106604        -1.54017           2.514
LJ          -1.00807        -1.54201        -1.75249
LJ         0.0812042         2.39579        -1.85938
LJ          0.966542        -2.49701         2.54602
LJ           1.71745        -1.56834         2.45495
LJ            1.0251        -1.82501        -1.64977
LJ           1.93154         2.31116        -1.71005
LJ          -2.53781       -0.740629        -2.54496
LJ          -1.84855        -0.04669          2.3383
LJ          -2.47475       0.0244296        -1.83926
LJ          -1.69645       -0.652258        -1.65199
LJ          -1.07794       -0.785768        -2.53354
LJ        -0.0272092       -0.140836        -2.29021
LJ         -0.940472       0.0537761         -1.8047
LJ         0.0159682        -1.04737        -1.71471
LJ          0.819153       -0.942419         2.50738
LJ           1.70236       0.0111747        -2.47969
LJ          0.793693        0.130412        -1.77336
LJ            1.5677       -0.682661        -1.68964
LJ          -2.45823        0.970355        -2.48637
LJ          -1.75331         1.99418         2.35949
LJ          -2.46364         1.61988        -1.56774
LJ          -1.59796        0.749197        -1.88254
LJ         -0.524225        0.713738         2.49933
LJ          0.131257         1.65111         2.31272
LJ          -1.20653         1.61733        -1.64647
LJ        -0.0382039         1.13753        -1.77447
LJ           1.07536         1.00493         2.50068
LJ           1.83016         1.72323         2.56414
LJ          0.947637         1.81661        -1.90323
LJ           1.66597        0.827827        -1.69726
LJ          -2.53889         2.32797       -0.770376
LJ          -1.47998        -1.63257       -0.873705
LJ          -2.26594         -1.7369      -0.0200432
LJ          -1.62177         2.56229        0.152175
LJ         -0.592151        -2.45665        -1.10428
LJ        0.00174038        -1.66048       -0.827026
LJ         -0.816182        -1.85646     -0.00889415
LJ         -0.028659         2.23831       0.0750776
LJ          0.748843        -2.54245       -0.965809
LJ           1.98499        -1.75842       -0.902278
LJ          0.818037        -1.81149         0.25991
LJ           1.67387        -2.54335      0.00176645
LJ          -2.39202       -0.900452       -0.825582
LJ          -1.95185        0.145753       -0.928903
LJ          -2.44558       0.0995528       0.0536214
LJ          -1.67087       -0.778928       0.0741986
LJ         -0.757262       -0.906068       -0.843246
LJ         -0.191312      -0.0347789        -1.00408
LJ         -0.730994     -0.00198463       0.0260324
LJ        -0.0574709       -0.766701       0.0568718
LJ           1.01538         -1.2729       -0.822134
LJ           1.82775        -0.18703       -0.650336
LJ          0.886308        0.107108       0.0596247
LJ           1.94198         -1.0464      -0.0054017
LJ           2.46701        0.833966       -0.827222
LJ          -1.66258         1.60761       -0.765726
LJ           2.37786         1.56228        0.108053
LJ          -1.76531         1.07978        0.250907
LJ          -1.10216        0.686754       -0.949907
LJ          0.126768         1.69548       -0.799793
LJ         -0.868833         1.58388       -0.132147
LJ         0.0604955        0.878185       -0.156917
LJ           1.00763        0.875241        -0.83579
LJ           1.70352         1.73874       -0.773511
LJ          0.880437         1.65332       -0.175957
LJ           1.65032        0.747594        0.051074
LJ          -2.55835         2.39282        0.670501
LJ          -1.38547        -1.80091        0.834999
LJ          -2.51772        -1.50671         1.55288
LJ          -1.91817        -2.28783         1.50784
LJ         -0.765576          2.3866        0.912131
LJ        -0.0736127        -1.52589        0.992372
LJ         -0.889119        -1.65567         1.86821
LJ         0.0531972        -2.32354         1.64286
LJ          0.782195         2.45292        0.967301
LJ           1.70619        -1.53757        0.962201
LJ          0.927343        -1.57078          1.7503
LJ           1.83931         -2.5582         1.61326
LJ          -2.50437       -0.944907        0.775272
LJ          -1.52508      -0.0712985        0.754775
LJ           2.40615       -0.066927         1.61415
LJ          -1.69328       -0.750159         1.64162
LJ         -0.861587       -0.948906         1.16747
LJ          0.196877       -0.124768        0.931469
LJ         -0.950062     -0.00635329         1.74667
LJ          0.167639        -0.78983         1.72057
LJ          0.888189       -0.931128        0.625259
LJ           1.68271       -0.272641        0.785413
LJ          0.776652      -0.0217776          1.7735
LJ           1.58451       -0.771954         1.70502
LJ           2.26123        0.906697         1.00847
LJ            -1.675         1.76391         1.08147
LJ           2.49352         1.80751         1.74925
LJ          -1.91996        0.859451         1.38945
LJ         -0.889639        0.830283         0.54796
LJ          0.434768         1.49907         0.79738
LJ         -0.892833         1.39258         1.62499
LJ         0.0485471         0.92997         1.49812
LJ           1.17291        0.698549         1.06583
LJ           1.52063          1.6962        0.635691
LJ           1.16569         1.72696         1.71418
LJ           1.81647         1.02668         1.87845
