108
#Comment!
LJ           2.15229         1.71862         1.86577
LJ          -1.98948        -1.69628        0.383899
LJ         -0.372861        -1.98799        0.989933
LJ           -1.6742         1.83047        0.341167
LJ          -1.35688        0.452685         2.09779
LJ           2.05555       -0.663555         1.52513
LJ           1.51389        -1.39848         2.20493
LJ           1.05163        0.861827          1.0828
LJ          -2.03222         2.12987          1.8501
LJ        -0.0096092        0.371538          2.4314
LJ            2.2497         1.55382        -1.83511
LJ           1.34491         1.86739         2.36302
LJ          0.166572         1.70993         2.19347
LJ          0.599838         1.09699        -0.18423
LJ           1.01719        0.790974         2.24275
LJ         -0.454288        -1.75336       -0.912921
LJ         -0.250257         -1.3825         2.03145
LJ         -0.371047        0.127136         1.40618
LJ          0.336895        -1.83408       0.0866008
LJ           1.92418       -0.377721        -1.06436
LJ          -1.15355        0.194927        0.752867
LJ          -1.28836         2.13192       -0.588196
LJ           1.33806         -2.4028       -0.164156
LJ          -1.87966        0.134167      -0.0178309
LJ           1.34443        -2.29218         1.82227
LJ          -1.24997        -2.16099        -1.51054
LJ           1.77794        -1.06959      -0.0770831
LJ           1.59351         -2.2827        -2.25182
LJ          -2.44193         2.00638        0.888438
LJ         -0.301248       -0.866713         1.10109
LJ          -1.81551        -2.19663        -2.35204
LJ          0.722061       -0.827694        0.608154
LJ          -2.47758       -0.698585        0.438764
LJ           1.36713       -0.268561         2.32223
LJ          0.813112        -1.12754       -0.469539
LJ          -1.04693        -1.23072        -2.03466
LJ          -0.54754         2.06305        0.516831
LJ        -0.0771595        -1.25629        -1.93525
LJ           0.65413        -1.62301         1.50055
LJ          -1.22249        0.750625       -0.729557
LJ          -2.05383         2.24064        -1.46166
LJ           1.86635        0.691527       -0.797351
LJ            2.4737         2.33923         -2.5139
LJ          -1.22918       -0.513312          1.5671
LJ          -2.32816       -0.903429       -0.596919
LJ          0.660593        -1.86973        -1.37618
LJ          0.610669       -0.299496         1.50583
LJ         -0.873718       -0.113642        -0.37203
LJ           1.61556        -1.49881         1.07698
LJ          -1.41286         -2.2764         1.15053
LJ          -1.87399         1.50944         -2.3133
LJ          -1.81219         1.15319          1.5188
LJ          -1.32513        -1.63519         2.10076
LJ           2.19853       -0.616731         -2.2711
LJ           2.22463        0.307659        0.183483
LJ           -1.6533        0.294521        -1.99582
LJ        0.00155862         2.36367         -1.8654
LJ           2.38139        -2.28421       0.0335469
LJ           0.82046        0.131673        -2.00524
LJ          -1.08031         2.17982        -2.15722
LJ          0.727111         1.78716        0.775049
LJ         0.0419628         2.42777       -0.286102
LJ           2.09583          2.4564        -1.20524
LJ          -1.27015        -1.12851       -0.951261
LJ          0.849311        0.634225        -1.09251
LJ           2.11228        0.408711        -1.86789
LJ         -0.844214         2.20923         1.92806
LJ          0.129932         1.05644         1.22561
LJ           1.34307       0.0426544       -0.219242
LJ          -2.31831       0.0906208        -1.24164
LJ           1.13034       -0.872333        -1.60094
LJ           1.37668         1.15874        -1.72639
LJ          -2.55115        -2.08641         1.16717
LJ          -2.05057       -0.971585        -1.73252
LJ          -1.94776         1.22721        -1.37816
LJ          0.550603         -2.1093        -2.36987
LJ         -0.606695        -2.14816        -2.49732
LJ         -0.270194       -0.286325        -1.41385
LJ          -2.29176       0.0963553        0.985118
LJ           1.93531        0.568691         1.51052
LJ          0.339639        -0.56375         -2.5543
LJ         -0.194929        0.663774        -1.15263
LJ          -0.96139        -2.00889       -0.114478
LJ         -0.807072         1.21942         2.41066
LJ          -2.41731         1.05086         0.71078
LJ         -0.126071        0.330622        0.399819
LJ          -2.54559        0.816086          2.4377
LJ          -2.28878       -0.163391         2.24258
LJ           1.22201         1.65188       -0.690991
LJ          -1.86494        -2.01179       -0.756333
LJ         -0.399669        -1.06193      -0.0732754
LJ         -0.856578         1.27857          1.2362
LJ          0.146487        -2.42835         1.92658
LJ           1.72254         2.34502        0.712902
LJ          0.358236      -0.0974685       -0.528323
LJ          -2.53337          1.7824       -0.454275
LJ         -0.850219         1.44742        -1.38113
LJ           1.01049         2.27116         -1.5628
LJ          -2.01117         -1.1165         1.31866
LJ         -0.832719       -0.186576        -2.39751
LJ         0.0823307         1.22486        -2.03107
LJ           1.80725         1.41002        0.133099
LJ           2.28799        -1.61216        -1.24449
LJ          0.249548         1.73563        -1.01136
LJ           2.49023        -1.54813          2.2357
LJ           1.46898       -0.150976         0.83003
LJ          -1.15623        -1.10677         0.59561
LJ         -0.634271         1.31955        -0.22409
