108
#Comment!
LJ          0.119587         -1.5345        -1.03582
LJ           2.41369         -1.9503          1.0427
LJ          0.410738         1.71037       0.0540395
LJ          -1.24089        -1.74295        -2.49611
LJ          -2.41203       -0.729985         1.94488
LJ          0.114474        -1.99215         1.14345
LJ         0.0823943       0.0399139        0.179688
LJ         -0.204422        -1.71604        -2.43259
LJ         -0.111176        0.110058        -1.77348
LJ          0.936312         2.16342        -2.40881
LJ          -0.10257         -2.3533       -0.267438
LJ         -0.538023         -1.3317         1.74269
LJ         -0.764076         2.12067        0.197311
LJ          -1.89139        0.169575         1.47851
LJ           1.20576       -0.137146         2.52198
LJ          0.869486        -1.89415       -0.237685
LJ           2.48361         1.78115       -0.282195
LJ           2.15654        0.932093       -0.825537
LJ          -0.85439         1.54532         1.95791
LJ           1.37495        0.786039         1.89942
LJ          0.940975        -1.82346         2.38717
LJ          0.396615         1.66874        -1.58594
LJ         -0.407579       -0.980979         -1.7522
LJ           1.83796      -0.0674843         1.56466
LJ          0.728251        -2.03572        -1.71459
LJ           1.89847         2.39279        0.802554
LJ           1.42557        -1.56231          1.0771
LJ         -0.947953        0.195129          2.2196
LJ          0.229625         1.59913         1.85512
LJ           2.51771        -1.42701       -0.646841
LJ          -1.17971         1.42549         0.94911
LJ         -0.897034        -2.30403        0.946158
LJ           1.86827        -2.14292       -0.988976
LJ          -1.44177         1.46165        -1.92124
LJ          -1.90622         -1.6803        0.519347
LJ          -2.35708         1.58983         1.16026
LJ         -0.442166         -2.4542         1.89116
LJ            2.1004       -0.599371         -2.2492
LJ          0.795428          2.2835       -0.754574
LJ          0.941115        0.894504        0.237756
LJ         -0.860738       -0.496947       -0.645479
LJ         -0.987855        0.263463        0.413316
LJ         -0.816121        -1.74398        -1.30009
LJ          -2.34927        -1.69095         -2.4569
LJ          0.781829         2.45624        0.663438
LJ          -2.11781        -2.35394       -0.465978
LJ          -1.96483       -0.851691        -2.05767
LJ           1.21792         2.48015         1.56933
LJ         -0.953743        -1.40162        0.203205
LJ         -0.139492       -0.345387         1.48546
LJ          -2.04644         1.09392        0.394952
LJ           2.39118        -2.45996         2.05866
LJ           0.25901        0.359831         2.16697
LJ          -1.86369         2.40025         1.73523
LJ           1.51103         1.81834       0.0468594
LJ         -0.343209         1.01016         -2.3983
LJ          -2.12783         2.26214         -2.1748
LJ        -0.0434138        -2.56408         -1.2506
LJ          -1.25601       -0.195747        -1.76469
LJ         -0.456509        0.439675       -0.646443
LJ           1.47696        -1.06408         2.19204
LJ          -1.50515         -1.5197         1.56233
LJ           0.88768         1.63058         1.16797
LJ           1.43372       -0.936673        -0.95685
LJ         -0.310561        0.996212        0.314142
LJ          0.624548         1.00024       -0.898934
LJ           0.57654       -0.780567        0.651778
LJ           1.72908        0.395897        -1.79898
LJ          -1.29789       -0.578801        0.970667
LJ          -2.45816        0.945406        -1.80728
LJ           2.41581        0.743299          1.8871
LJ          0.545592        -1.16463         1.78265
LJ          -1.65625        0.173799       -0.854418
LJ           2.15968        -2.14421       0.0780148
LJ          0.873736        0.866014        -2.17724
LJ          -2.23634         2.37188        0.638384
LJ           0.20609       -0.459484       -0.932269
LJ           2.37451       -0.147228       -0.312053
LJ         -0.799109        0.834343        -1.43553
LJ          -2.42308       -0.825872        0.852096
LJ          -1.75129       -0.668621      -0.0533366
LJ         -0.157127        0.781784          1.3522
LJ          -1.17659          2.5177        -0.95959
LJ          -2.54273       0.0212267          -1.389
LJ           1.37036        0.186908       -0.580444
LJ         -0.364124         2.23962        -2.21706
LJ           2.23668        -1.45408        -1.65053
LJ        -0.0958485       -0.531813         2.50269
LJ          -1.28705         2.24908         2.56444
LJ         -0.282599         1.63411       -0.891407
LJ           1.83504        -1.08102       0.0300036
LJ          -1.95483        -1.87081        -1.28426
LJ           1.80432        -2.34261        -2.04846
LJ          -2.50207        0.243831        0.629713
LJ          0.589632        -1.03467        -1.91702
LJ          0.958744        0.270598         1.16032
LJ           1.77159         1.35501        -2.44367
LJ           1.75629       -0.198189        0.506646
LJ        -0.0798679       -0.974941       -0.129799
LJ          -1.86197         1.35523         2.07176
LJ        -0.0526474         2.12668         1.05331
LJ          -1.79549         1.27546       -0.978565
LJ           1.49178         1.54652        -1.36464
LJ           1.94961          1.1091        0.668195
LJ           -1.9987        0.415551        -2.49753
LJ           1.99296         1.83613         1.75506
LJ           2.54939         2.20163        -1.22386
LJ          -1.65624       -0.968166        -1.03156
