108
#Comment!
LJ          -2.51084        -2.29102          2.5592
LJ          -1.70666        -1.45814         2.55148
LJ          -2.39122        -1.49084        -1.75916
LJ           -1.7517        -2.48627        -1.75438
LJ         -0.812977         2.37282        -2.42615
LJ         -0.158621        -1.47455          2.4088
LJ         -0.901802        -1.41321        -1.92647
LJ         0.0861452        -2.46008         -1.9589
LJ           1.01204        -2.46821          -2.469
LJ           1.64788        -1.55468         2.45509
LJ           1.06412        -1.74817         -1.7553
LJ           1.98459         2.56025        -1.62592
LJ           2.54798       -0.759335        -2.45168
LJ          -1.88565      -0.0488442          2.2759
LJ           2.55652       0.0560427        -1.58789
LJ          -1.60283       -0.507649        -1.58725
LJ         -0.789418       -0.629325         2.54551
LJ          0.227114       -0.032245        -2.35211
LJ          -0.72737       0.0964135        -1.74745
LJ          0.125023       -0.882863        -1.53638
LJ          0.715208       -0.966696        -2.47483
LJ           1.68361       0.0668436        -2.42012
LJ          0.835217        0.298401        -1.61119
LJ           1.51014       -0.680908        -1.58788
LJ          -2.56491        0.924746        -2.37934
LJ          -1.82608         1.95271         2.42497
LJ          -2.52175         1.70256           -1.59
LJ          -1.59936        0.611785        -2.12575
LJ         -0.540677        0.836836         2.49827
LJ         0.0554453         1.78412         2.45048
LJ          -1.27326         1.67397        -1.63089
LJ        -0.0909314        0.977184        -1.58235
LJ          0.989799        0.972181        -2.52567
LJ           1.72323         1.97412        -2.52008
LJ          0.966501         1.83703        -1.88999
LJ            1.6951         1.07319        -1.81259
LJ           2.55648        -2.53069       -0.707195
LJ          -1.37197         -1.6202       -0.767754
LJ          -2.23291        -1.60629     -0.00226614
LJ          -1.70099         2.46753        0.250093
LJ         -0.735625        -2.52438          -1.077
LJ          0.115787          -1.882       -0.679978
LJ         -0.711379        -1.82789     -0.00173648
LJ         0.0316076         2.37419        0.163767
LJ          0.982368        -2.43061       -0.914708
LJ           1.84716        -1.57112       -0.944959
LJ          0.761392        -1.96246        0.224805
LJ           1.74866         -2.5325       0.0318652
LJ          -2.31498       -0.781439       -0.814171
LJ            -1.907        0.214256       -0.957828
LJ          -2.38657      -0.0244372      -0.0386672
LJ          -1.57497       -0.636126       -0.126407
LJ          -0.72847       -0.715814       -0.849925
LJ         0.0338553      -0.0853978        -0.92233
LJ         -0.671359       -0.118231     -0.00654049
LJ         0.0115527        -1.06462       0.0938371
LJ           1.04672        -1.09914       -0.606981
LJ           1.86742       -0.245193       -0.634506
LJ          0.762794       0.0704014       0.0268455
LJ           1.90928        -1.01149        0.120887
LJ           2.36124        0.826406       -0.728256
LJ            -1.767         1.68212       -0.738405
LJ           2.45439         1.64655      -0.0702756
LJ          -1.72068        0.947833         0.13264
LJ         -0.943509        0.793512        -1.00497
LJ         0.0637539         1.75959       -0.866019
LJ         -0.771451         1.66826       -0.117354
LJ          0.124876        0.915738       -0.182356
LJ          0.831384           1.023       -0.987166
LJ            1.6576          1.7381       -0.793249
LJ          0.833525         1.81707       -0.159609
LJ           1.69841        0.797445       0.0575172
LJ           2.45239         2.42945        0.725584
LJ          -1.41445        -1.83356        0.857389
LJ           2.45964        -1.50211         1.62892
LJ           -1.9243        -2.38793         1.67458
LJ         -0.804348         2.45004        0.958739
LJ        -0.0690727        -1.51037         1.10591
LJ         -0.903578        -1.64133          1.7661
LJ         0.0034258        -2.32428         1.78228
LJ          0.717688         2.45191        0.880353
LJ           1.62724        -1.63143        0.965705
LJ            0.7297        -1.52924         1.69985
LJ           1.68955        -2.55331         1.49226
LJ          -2.39552       -0.812981         0.85497
LJ          -1.78007        0.186502        0.805584
LJ           2.33216         0.05144         1.71573
LJ           -1.6407       -0.816399         1.67524
LJ         -0.898804       -0.897381        0.910631
LJ          0.118252      -0.0569206        0.887112
LJ         -0.965911      -0.0601734          1.6604
LJ         0.0318139       -0.728012         1.79473
LJ          0.986141       -0.878453        0.451213
LJ           1.71987       -0.200729        0.834883
LJ          0.882388      -0.0329191         1.76423
LJ           1.54965       -0.805261         1.72734
LJ           2.31205        0.932282         1.05636
LJ          -1.87874         1.59906        0.989442
LJ           2.44342          1.9227         1.61239
LJ          -1.71274        0.832457          1.5938
LJ         -0.924161        0.891603        0.831979
LJ          0.290938          1.4523        0.733681
LJ         -0.688034         1.45233           1.674
LJ          0.081788        0.637871         1.65429
LJ           1.12243        0.696107         1.06874
LJ           1.58326         1.75419        0.760136
LJ          0.874802         1.80528         1.62355
LJ           1.81467        0.986271          1.9306
