108
#Comment!
LJ           2.56048        -2.44129        -2.55232
LJ          -1.72837        -1.67435         2.48469
LJ            2.4908        -1.70835        -1.70657
LJ          -1.72148        -2.37458        -1.74238
LJ         -0.813813         2.53928         2.53655
LJ         0.0430659        -2.02842        -2.51299
LJ          -1.08811        -1.43032        -1.58199
LJ         0.0425737         2.24463         -1.6733
LJ          0.948094         2.34103        -2.48217
LJ           1.78986        -1.74449         2.51729
LJ           1.01921        -1.72169        -1.67789
LJ           1.91694         2.48713        -1.58582
LJ           2.42067       -0.803882         2.53133
LJ          -1.82432        0.121934          2.5089
LJ           2.54958         0.16977        -1.89505
LJ          -1.64061       -0.544688        -1.58549
LJ          -1.12857       -0.852148        -2.43949
LJ       -0.00634282       -0.221165        -2.46653
LJ         -0.843153      -0.0489201        -1.65766
LJ        -0.0894262        -1.03906        -1.88239
LJ           1.03358        -1.06944        -2.45315
LJ           1.68327        0.022314        -2.47024
LJ          0.786346       0.0198524        -1.78025
LJ           1.63805       -0.725724        -1.76094
LJ          -2.43753         1.09067         2.47768
LJ          -1.76362         1.89772        -2.55912
LJ          -2.49302         1.62732        -1.62804
LJ          -1.51946        0.891871         -1.8002
LJ         -0.649453         1.09887         2.55733
LJ          0.105672         1.75874         2.47349
LJ         -0.809743         1.71187        -1.66646
LJ         0.0347327         1.07386        -1.73809
LJ           1.01929         0.86383        -2.53596
LJ           1.82628         1.83068         2.49743
LJ            0.9143         1.75166        -1.64618
LJ           1.76291        0.888655         -1.8296
LJ           2.44035         2.39069       -0.677722
LJ          -1.48411        -1.92842       -0.755525
LJ          -2.49348        -1.80578       -0.108441
LJ          -1.78955         2.40722      -0.0510573
LJ         -0.635739         -2.4846        -1.02227
LJ          0.118423        -1.66766       -0.873229
LJ         -0.452319        -1.73984      -0.0178247
LJ         -0.278715         2.39753        0.119845
LJ          0.836423        -2.52866       -0.975538
LJ           1.75028         -1.7096       -0.973695
LJ          0.600465        -2.10974       0.0151359
LJ           1.75313        -2.33915      -0.0535642
LJ          -2.41368       -0.919822       -0.645036
LJ          -1.81894       0.0748123       -0.670175
LJ           2.45832       0.0730869      0.00335621
LJ           -1.5113       -0.942835      -0.0109163
LJ          -0.60582       -0.895854        -0.76085
LJ        -0.0640684         0.27325       -0.982929
LJ         -0.937236      -0.0976335       -0.120333
LJ        0.00419118       -0.749083         0.21666
LJ          0.880114        -1.07636       -0.741865
LJ           1.94135       -0.177067       -0.889149
LJ          0.758784     -0.00244905      -0.0649199
LJ           1.64266       -0.905166       -0.114081
LJ          -2.41624        0.899923       -0.987976
LJ          -1.58309         1.70665       -0.802379
LJ           2.42985         1.71246        0.133481
LJ          -1.95201         1.00039         0.01554
LJ          -1.07993        0.672725       -0.866373
LJ          0.015199          1.6731       -0.793392
LJ         -0.780394         1.55578       -0.184447
LJ        -0.0692406        0.875133       0.0481482
LJ          0.754215         1.00724       -0.612564
LJ           1.57337         1.63971       -0.988329
LJ          0.864746          2.0485      -0.0268761
LJ           1.71232        0.810454       -0.232058
LJ           2.44247         2.50218         0.85864
LJ          -1.41567        -1.75592        0.637694
LJ           2.47277        -1.56083         1.81224
LJ          -2.02533         2.53994         1.69872
LJ          -0.70846        -2.46631         1.10154
LJ           0.12893        -1.67396        0.923409
LJ         -0.896438        -1.70402         1.68902
LJ          0.077478        -2.35796          1.7682
LJ          0.906633         2.44253        0.892783
LJ           1.92942        -1.49192        0.685475
LJ          0.982268        -1.85274         1.67079
LJ           1.71744         2.53174         1.72508
LJ           2.52546       -0.623089         1.03115
LJ          -1.70372      -0.0860536        0.885547
LJ           2.54482      0.00543388         1.87995
LJ          -1.69005       -0.919263         1.61775
LJ         -0.713486       -0.806772        0.960808
LJ         0.0787126      -0.0350138        0.990721
LJ         -0.878917        0.183578         1.97985
LJ          0.126047       -0.881588         1.88376
LJ           1.02907       -0.980853        0.700062
LJ           1.68619       -0.174977        0.753866
LJ          0.814986      -0.0175853         1.92137
LJ           1.69767       -0.851368         1.67206
LJ           2.50406        0.876567        0.920975
LJ          -1.49049         1.87627        0.772986
LJ           2.40005         1.71078         1.57571
LJ          -1.72156        0.990225         1.53775
LJ         -0.885558        0.650503        0.838885
LJ          0.248603         1.45365        0.851473
LJ         -0.885362         1.59665         1.55311
LJ         0.0142536        0.856117         1.62757
LJ           1.01933        0.693992        0.821631
LJ           1.63402         1.69677        0.652723
LJ          0.883678         1.54391         1.81999
LJ           1.74687        0.807109         1.77982
