108
#Comment!
LJ           2.51656         -2.5641        -2.56245
LJ          -1.69965        -1.84967        -2.53394
LJ          -2.55837         -1.7629        -1.64451
LJ          -1.74661         2.53679        -1.71207
LJ         -0.898228         2.54891         2.50619
LJ        -0.0545429        -1.71253        -2.53292
LJ         -0.784652        -1.75026        -1.70984
LJ        -0.0317771         2.55636        -1.60533
LJ          0.812154          2.5178         2.48598
LJ           1.72775        -1.80203        -2.50756
LJ          0.850912        -1.71589         -1.7027
LJ           1.72064        -2.53597        -1.71161
LJ          -2.54667       -0.827523        -2.52675
LJ          -1.65334      -0.0266021        -2.50642
LJ          -2.53867      -0.0671289        -1.66961
LJ          -1.68489       -0.845987        -1.67067
LJ         -0.842112       -0.717118        -2.54516
LJ         0.0442152      -0.0340589         2.55972
LJ          -0.88334       0.0815199        -1.65081
LJ        -0.0653243       -0.908283         -1.7335
LJ          0.851879       -0.949591        -2.49687
LJ           1.65802        0.145714         2.53351
LJ          0.729616      -0.0113122        -1.74773
LJ           1.67901        -0.86033        -1.69004
LJ          -2.55693         0.84036        -2.53254
LJ          -1.67746         1.69468        -2.56129
LJ          -2.56035         1.57301        -1.76489
LJ          -1.71619        0.823188        -1.65731
LJ         -0.767424        0.876445         2.45678
LJ         0.0172942         1.67612         2.45861
LJ         -0.829661         1.64682        -1.79249
LJ         0.0238996         0.85462        -1.86644
LJ          0.890346        0.917312          2.5247
LJ           1.67692         1.67556         2.54676
LJ          0.950848         1.70801        -1.81162
LJ           1.68691        0.894363        -1.72322
LJ          -2.53792         2.55369       -0.808087
LJ          -1.58461        -1.70401       -0.877053
LJ          -2.52977           -1.77     -0.00412631
LJ          -1.73473        -2.53002       -0.039646
LJ         -0.773033         2.51711       -0.841382
LJ       0.000409099        -1.67167       -0.903204
LJ         -0.814028        -1.72658      0.00837765
LJ         -0.111847         2.49904      -0.0847929
LJ          0.958417          2.5385       -0.754117
LJ           1.61993        -1.72281       -0.863101
LJ          0.811528        -1.77198       0.0300595
LJ           1.70373        -2.50822      -0.0216908
LJ           2.49869       -0.858102       -0.818381
LJ          -1.75693       0.0137882        -1.00816
LJ          -2.55331     -0.00162393       -0.113021
LJ          -1.70799       -0.872911       0.0278093
LJ         -0.820494       -0.773097       -0.799965
LJ         0.0836198      -0.0892885       -0.849376
LJ         -0.928256      -0.0180633       0.0402433
LJ       -0.00239197       -0.801101       0.0549279
LJ          0.895361       -0.753505       -0.855507
LJ           1.70456      0.00559919        -0.86758
LJ          0.859716       0.0223881      -0.0700123
LJ           1.66689       -0.878685       -0.121326
LJ          -2.53644        0.886181       -0.844422
LJ          -1.73521         1.71887       -0.864845
LJ           2.50447         1.64346     -0.00769469
LJ          -1.74761        0.939821        0.042625
LJ          -0.78756        0.817571       -0.745223
LJ         -0.138649         1.68933       -0.861659
LJ         -0.855636         1.69648      0.00784275
LJ        -0.0383726        0.845603       0.0969827
LJ          0.870613        0.877407       -0.795165
LJ           1.75206         1.70979       -0.840005
LJ          0.846842           1.805       -0.075729
LJ           1.72824        0.841843       0.0758373
LJ          -2.50841        -2.49847        0.859126
LJ          -1.69006         -1.7284        0.794502
LJ          -2.54727        -1.70784         1.71995
LJ          -1.78753        -2.55611         1.69086
LJ         -0.784106        -2.46278        0.780609
LJ         0.0605109        -1.71108        0.853964
LJ         -0.859853        -1.71406           1.743
LJ         0.0728576        -2.56464         1.76368
LJ          0.926366         2.39874         0.86977
LJ           1.69448        -1.81213        0.873154
LJ          0.878854        -1.78492         1.56011
LJ           1.80353        -2.54728         1.76379
LJ            2.5219       -0.787654         0.86172
LJ          -1.71892       0.0242926        0.923827
LJ           2.55404       0.0376999         1.72955
LJ          -1.65986       -0.820447         1.80951
LJ         -0.903759       -0.872877         0.78627
LJ          0.118909      -0.0276975         0.92591
LJ         -0.785474      -0.0676032         1.62019
LJ        -0.0500211       -0.817896         1.67256
LJ          0.878519       -0.891843        0.830089
LJ           1.60225      -0.0551019        0.809776
LJ          0.774768      -0.0346009         1.69479
LJ           1.78084       -0.760518           1.679
LJ           -2.4924        0.856604        0.870431
LJ          -1.65752         1.66166        0.916416
LJ           2.56049         1.71214         1.78107
LJ            -1.669        0.843033         1.72032
LJ         -0.837057        0.840753         0.84604
LJ        0.00625037         1.64967         0.87817
LJ         -0.859757         1.72643         1.67127
LJ        -0.0947022        0.778998         1.66334
LJ          0.835801        0.747623        0.788056
LJ           1.67297         1.62406        0.889815
LJ          0.853919         1.63711         1.76091
LJ           1.80639        0.791918         1.69881
