108
#Comment!
LJ          -2.45975        -2.46035         2.47491
LJ          -1.84615         -1.5203         2.51062
LJ          -2.35056        -1.55067        -1.80906
LJ          -1.52093        -2.47983         -1.7907
LJ         -0.855299         2.37968        -2.54913
LJ         -0.154365        -1.59816         2.45838
LJ          -1.03151        -1.60084        -1.79286
LJ         0.0726077         2.48129        -1.89161
LJ          0.924929        -2.41895        -2.55916
LJ           1.72289        -1.65757         2.44573
LJ           1.14756        -1.80173        -1.69993
LJ           1.91652         2.37173        -1.60097
LJ           2.50099       -0.634158         2.50382
LJ           -1.8632       -0.039222         2.32946
LJ           -2.4594      -0.0356096        -1.80466
LJ          -1.53644       -0.581529        -1.60176
LJ          -1.12341        -0.71153        -2.50572
LJ        -0.0274587       -0.222269        -2.46096
LJ         -0.822945       0.0623951        -1.83752
LJ          0.078011        -1.00516        -1.72584
LJ          0.757373       -0.947704         2.50976
LJ           1.75069       -0.114281        -2.38996
LJ          0.754027        0.148845        -1.67402
LJ           1.53163       -0.769252        -1.54796
LJ          -2.55378        0.950356        -2.43775
LJ          -1.74348         1.99733         2.38568
LJ          -2.42519         1.68906        -1.46452
LJ          -1.60085        0.722237        -2.05958
LJ          -0.51169        0.772586          2.5594
LJ          0.147236         1.68375         2.39594
LJ           -1.1939          1.6945        -1.62189
LJ       -0.00566522         1.06348        -1.70623
LJ           1.11822        0.985422         2.56448
LJ           1.80224          1.7775           2.555
LJ          0.961209         1.81654        -1.87015
LJ           1.69105        0.801891         -1.6747
LJ           2.53034         2.42232        -0.73474
LJ          -1.47187        -1.69584       -0.822897
LJ          -2.40993        -1.64533       -0.100367
LJ          -1.59176         2.51924        0.120029
LJ         -0.622407        -2.45277        -1.10188
LJ         0.0642617        -1.76638       -0.768729
LJ         -0.715653        -1.74968       -0.056012
LJ         -0.041505         2.39736        0.145333
LJ          0.707208         2.56214       -0.841156
LJ           1.92084        -1.65558       -0.951996
LJ          0.744796        -1.88239         0.17369
LJ           1.64043        -2.47219       0.0303931
LJ          -2.44746       -0.848934       -0.839094
LJ          -1.91491        0.128511       -0.988942
LJ          -2.40196        0.111848       0.0237319
LJ          -1.65844       -0.765714       0.0119898
LJ         -0.821184       -0.783223       -0.841572
LJ          -0.17868       0.0310018        -0.99811
LJ         -0.681352      -0.0829793        0.144378
LJ        -0.0278679       -0.830279        0.137403
LJ          0.929139        -1.19199        -0.72992
LJ           1.83686       -0.201381       -0.651885
LJ          0.803874        0.020619       0.0671191
LJ           1.95157        -1.07815      -0.0319128
LJ           2.50488        0.845737       -0.810927
LJ          -1.78038         1.71358       -0.724119
LJ           2.45191         1.59894       0.0555215
LJ          -1.86676          1.0742        0.195127
LJ          -1.03955        0.715174       -0.933425
LJ          0.196296         1.69373       -0.897705
LJ         -0.833607         1.70343       -0.145356
LJ         0.0556808        0.861905       -0.133872
LJ           0.87372        0.911748       -0.916504
LJ           1.75437         1.69902       -0.849568
LJ           0.96923         1.65645       -0.111765
LJ           1.58017        0.878659       0.0849476
LJ          -2.50959         2.45937        0.606901
LJ          -1.49288        -1.85984        0.834841
LJ          -2.48988        -1.49903         1.63635
LJ          -1.97268        -2.30518         1.64632
LJ         -0.835484         2.38109         1.04604
LJ        -0.0288321        -1.51555         1.06433
LJ          -1.03148        -1.68329         1.85254
LJ          0.162809        -2.33949         1.74128
LJ          0.841022         2.40726        0.960102
LJ           1.69552        -1.48287         1.04222
LJ          0.888726        -1.65016         1.74683
LJ           1.82797        -2.46304         1.61306
LJ          -2.42841       -0.842067        0.754706
LJ          -1.59071       0.0812658        0.797529
LJ           2.43428     -0.00303344         1.59468
LJ          -1.67486       -0.880281         1.59177
LJ         -0.876051       -0.860485        0.974539
LJ           0.16081       -0.108595        0.894853
LJ         -0.973613       -0.031443         1.77119
LJ          0.205238       -0.765637         1.72166
LJ          0.870614       -0.874986        0.630697
LJ            1.7943       -0.319807        0.758556
LJ          0.850561      -0.0207107         1.78621
LJ           1.51101       -0.723143         1.83123
LJ           2.33809        0.948606        0.992885
LJ          -1.77914         1.82101         1.12999
LJ           2.53635         1.95308         1.64053
LJ          -1.86056         0.80406         1.62895
LJ         -0.970622        0.875001        0.626282
LJ           0.40136         1.48984        0.761451
LJ         -0.772461         1.40057          1.6904
LJ          0.125927        0.821758         1.52229
LJ           1.19796        0.714265         1.00386
LJ           1.51082         1.69927        0.761989
LJ           1.03618         1.71034         1.71018
LJ           1.88301         1.11593         1.82661
