108
#Comment!
LJ         -0.988573        -2.03738        -1.83599
LJ          -1.30741       -0.312573         -2.0908
LJ           2.31559         2.16235        -2.44942
LJ           1.17742         2.30498        -2.24176
LJ         -0.714242         1.49733       -0.720222
LJ           2.41319        0.944948         2.25356
LJ          -0.42301        -1.27679        -1.99004
LJ           1.47469       -0.460299        -1.08039
LJ           1.33549        0.579178         1.60178
LJ           1.78631        -1.52709       -0.388645
LJ         -0.508869         2.00119        0.348739
LJ          0.421889       -0.859136        -1.49979
LJ         -0.797381         2.14756        -2.44653
LJ           -1.0527        -1.01447         1.04105
LJ          0.413069         1.86341       -0.135453
LJ          -2.36906         2.14383         1.07921
LJ           2.37758       -0.783164        -1.76025
LJ          0.569619       -0.206805         1.71406
LJ        -0.0508007        -1.79608        -1.26538
LJ          0.086909         2.37983         1.15417
LJ          -1.22424        -1.27691         2.24066
LJ          0.966668         0.48709        0.445438
LJ          0.963387        0.632632        -1.41929
LJ         -0.107208          1.0631        0.574898
LJ          -1.67109       -0.368448         2.03775
LJ          0.942406        -1.72901        0.568766
LJ            1.5989          2.0092         0.65839
LJ           -1.8893        -2.44476         2.38856
LJ           1.43439         2.53668         1.94747
LJ           2.54546          1.6885       -0.851723
LJ            -1.497         2.07683       -0.151175
LJ          -1.86308        0.387638        0.532994
LJ           1.85344         1.57536         1.56148
LJ           0.65447        -1.79984        -2.25101
LJ         -0.269332         -0.1077        -2.18545
LJ           2.45041        0.777603       -0.330876
LJ         0.0550142         2.52131        -2.04921
LJ           0.45722         1.91983         2.10039
LJ           1.54439        0.232747       -0.448224
LJ          -1.60277         2.04096        -1.27454
LJ         -0.438608        0.395876        -1.07767
LJ           0.83406         1.64253        -1.41416
LJ           1.90847         2.39122        -1.21092
LJ          -1.04415        0.996912        -1.70225
LJ           2.50028         0.13499         1.57335
LJ          0.164045         1.02044        -2.09427
LJ          -2.34216        -1.44227        -2.55011
LJ           -1.7973         1.68093         -2.2954
LJ           2.00003        0.458762        -1.92389
LJ        -0.0844085        -1.07718         2.03934
LJ         -0.223556       -0.971414       -0.245168
LJ         -0.594255         1.59227         1.35505
LJ          0.774045        -1.33218       -0.488587
LJ          0.440431     -0.00134374       -0.427362
LJ           1.38626         1.25328       -0.570567
LJ          -2.30721         1.38176        0.349637
LJ          -1.96556        -2.18897       -0.706491
LJ           1.91008         -0.4367        0.168257
LJ          -2.35529       -0.718088        0.728721
LJ          -2.05126        0.521489        -1.84083
LJ          -2.53554        -0.87704         1.68578
LJ         -0.651504        0.886604         2.33062
LJ          0.647162        -2.45499       -0.886211
LJ         -0.994086        0.282714        0.842856
LJ          -1.27798         2.25697        0.830371
LJ          -1.73924        0.955222       -0.427829
LJ            1.2218         1.16656        -2.43964
LJ          -1.73845        -1.37893        -1.65942
LJ           1.44318        -1.52796        -1.43353
LJ           1.87374         1.31739        -1.53796
LJ          -1.28018         1.23488        0.411195
LJ          -1.12732        -1.85559        0.216241
LJ          -2.23897         -1.3424       -0.110354
LJ          0.280883        0.971171       -0.619849
LJ           2.15046        -1.55745        0.564967
LJ          0.855662      -0.0597412        -2.24167
LJ           0.69767          1.5416        0.893076
LJ          -1.82466         -1.7335         1.09209
LJ           2.03397         0.50003        0.717454
LJ           1.77501        -1.69697         2.44294
LJ          -1.69265        0.635067          2.3708
LJ          -1.88654           1.124         1.28398
LJ         -0.610261       -0.747777        -1.20408
LJ         -0.674169        0.368138       -0.125874
LJ          0.145099        -2.25104      -0.0345278
LJ          -2.14487        -2.26128        -1.78048
LJ          0.493623        -2.12093         1.89959
LJ           1.56216        -1.40898         1.36529
LJ         -0.964215        -1.63176       -0.811725
LJ           2.36183        -1.75958        -1.10149
LJ         -0.623421        -2.22943         1.94679
LJ          -1.30526       -0.510965        0.127962
LJ        -0.0676706       -0.314425        0.497041
LJ            -2.529       -0.506872       -0.686826
LJ         -0.671827         2.50704       -0.926385
LJ          0.756952       -0.707429        0.655521
LJ           1.34454         2.37073        -0.33257
LJ           1.79603       -0.488137         2.39025
LJ          0.289096        0.999903         1.72827
LJ          -0.46921       -0.147983          1.7532
LJ           1.60327       -0.430963         1.24834
LJ        -0.0345816        -1.42809          0.9289
LJ          -1.54076      0.00971565       -0.759555
LJ           2.35956        -2.05613         1.48268
LJ          -1.43135         1.90948         1.88617
LJ           2.24276        -2.56242       0.0388093
LJ         -0.320197         1.67016        -1.53188
LJ           0.90961        -1.06817         2.23437
