108
#Comment!
LJ          -1.97006        -1.35015        -2.10923
LJ          -1.71941       -0.366164        -1.72181
LJ           1.69968          2.0162         2.41308
LJ          0.284107         2.38095         1.91712
LJ         -0.725491        0.791111        0.145709
LJ            2.0874        0.779389        -1.89643
LJ         -0.858706        -1.02951        -2.35759
LJ           1.09578       -0.928549       -0.139464
LJ           1.88931         0.95864         2.02237
LJ           2.06405        -2.08478       -0.641975
LJ           -1.1087         2.24333        0.184171
LJ          0.370407       -0.701875        -1.96971
LJ          -1.72273        -2.54141        -2.16758
LJ          -0.77353        0.151538        0.986985
LJ          0.201633          2.1918       0.0230502
LJ          -2.53287         2.43635         2.07175
LJ           1.12887        -1.50894        -2.07895
LJ          0.842742       -0.650003         1.45077
LJ         -0.351127        -2.31969       -0.577114
LJ          -0.35493         2.17572          1.1176
LJ          -0.87229       -0.619681         1.59184
LJ            0.5788        0.407624         1.07115
LJ            1.1764         -0.1816         -1.2211
LJ          0.181622       -0.404669        0.398792
LJ          -1.48621      -0.0680953         2.17593
LJ          0.812405        -2.55867        0.849496
LJ           1.70606        -2.42135        0.372927
LJ           -1.4755        -1.95197         1.87512
LJ           1.63988          2.1577          1.4004
LJ           2.38931         1.37752        -1.04599
LJ          -1.80962         2.31651         1.09036
LJ          -1.68292        0.217648        0.244989
LJ          -2.54883          1.6743         1.40481
LJ          0.192341        -1.80486        -2.13992
LJ          0.267903        0.208634        -1.26567
LJ           2.10975        0.740216       -0.208708
LJ         -0.684035         -2.4542            -1.5
LJ          0.339906         2.16376        -2.13716
LJ           1.37083        0.339109        0.186787
LJ          -1.98976         2.23837        -1.14303
LJ         -0.706349         0.64045        -1.04147
LJ          0.615462         1.60185       -0.941451
LJ           1.47938         1.98342       -0.403056
LJ          -1.94904        0.798933        -1.95389
LJ          -2.03409        -0.14312         1.06583
LJ          -0.19832         1.07264        -1.78872
LJ          -2.13339       -0.850001         2.17993
LJ          -2.48292         1.86887        -2.17689
LJ           1.07142        0.964683        -1.80212
LJ         0.0222205       -0.686508         2.15311
LJ         -0.317277        -1.50956         -1.3396
LJ        -0.0677633         1.54108         2.09304
LJ          0.579838        -2.02574        -0.14048
LJ          0.116591        -1.11075       -0.364858
LJ           1.26172        0.834856       -0.827777
LJ           1.81766          1.6181        0.585433
LJ          -2.49817         2.12018       -0.175963
LJ           2.17584       -0.300418       -0.232536
LJ          -1.80688        -1.04052        0.193575
LJ           2.49898      -0.0339631        -1.32338
LJ            1.8967      -0.0357565         1.87593
LJ          -1.07734        0.912317         2.30158
LJ          0.963524        -2.44726        -1.04035
LJ         -0.548361         1.11542         1.28352
LJ          -1.25695         2.01659         2.05237
LJ          -1.60567         1.42486        -0.67193
LJ          0.888349         1.19858          2.1938
LJ          -2.41869       -0.932148        -1.08296
LJ          0.671728        -1.41722        -1.10498
LJ           1.57144         2.06732        -1.58271
LJ          -1.84787         1.38636        0.322538
LJ          -1.16845        -1.92791       -0.250741
LJ          -1.99289         -1.8893       -0.861969
LJ          0.151763        0.556232       -0.241703
LJ           2.03838        -1.19236        0.331938
LJ           1.03401       0.0128727        -2.36093
LJ          0.678021         1.38749         1.06018
LJ          -2.02759        -1.28837         1.20099
LJ           2.29068        0.741002         0.91393
LJ          0.770842        -1.72137          2.0951
LJ          -2.46737      -0.0497631        -2.51644
LJ          -1.67183        0.874693         1.20984
LJ         -0.704603       -0.506912        -1.22385
LJ          -0.57945       -0.128019       -0.270973
LJ         -0.265796        -2.01721        0.455374
LJ           1.99314        -1.84337         2.15639
LJ         -0.134167        -1.73502         1.65026
LJ           1.47967        -1.66501         1.00252
LJ          -1.33308        -1.28774        -1.42275
LJ           2.12673        -2.07443        -1.73425
LJ         -0.548477        -2.38022         2.41209
LJ          -1.58206       -0.466496       -0.600855
LJ         -0.759674       -0.922718        0.509864
LJ           1.71574        -1.08195        -1.18024
LJ         -0.442749          1.7121        -0.74145
LJ          0.452568        -1.32121        0.746693
LJ          0.964515         1.24574       0.0679313
LJ           2.21964        -1.04483        -2.06441
LJ           0.24955        0.307073         2.10709
LJ         -0.734171       0.0720764        -2.25439
LJ           1.77414       -0.366551        0.854816
LJ          -1.28489        -1.90994        0.839274
LJ          -1.95391        0.475262       -0.832065
LJ           2.45947        -2.16703         1.19565
LJ          -2.04076         1.31573         2.15742
LJ          -2.30456        -1.95376        0.121918
LJ         -0.987891         1.73564        -2.09374
LJ           1.44342       -0.952649         2.25665
