108
#Comment!
LJ          -2.48569        -2.29731         2.55431
LJ          -1.67903        -1.43505           2.524
LJ          -2.35976        -1.49965        -1.79228
LJ          -1.73802        -2.50108        -1.75448
LJ         -0.836389         2.36125        -2.40226
LJ         -0.132145        -1.45053         2.41365
LJ         -0.886261        -1.39383        -1.94907
LJ         0.0733101        -2.48301        -1.96371
LJ          0.995228        -2.42694        -2.47863
LJ           1.63885        -1.56003         2.44475
LJ           1.06704        -1.74023        -1.76324
LJ           1.95736         2.55034        -1.65011
LJ           2.53211       -0.723447        -2.47885
LJ           -1.8818      -0.0571981         2.30099
LJ           2.54405       0.0333669        -1.60482
LJ          -1.62834        -0.49549        -1.59846
LJ         -0.811715       -0.628223         2.56465
LJ          0.205557      -0.0265173        -2.34194
LJ          -0.74291       0.0682027         -1.7476
LJ          0.124107       -0.890124        -1.52996
LJ          0.725925       -0.982204        -2.51893
LJ           1.72873       0.0656069        -2.40454
LJ          0.846287        0.258317        -1.60257
LJ           1.48491       -0.646769        -1.59194
LJ          -2.54806        0.930017        -2.39488
LJ          -1.80152         1.95466         2.43378
LJ          -2.53871         1.70462        -1.58559
LJ          -1.62459        0.603623        -2.14337
LJ         -0.528703        0.823572         2.49115
LJ         0.0724548         1.78831         2.42048
LJ          -1.30158         1.68939        -1.62954
LJ        -0.0963011        0.998486        -1.60281
LJ          0.991415        0.963577        -2.53076
LJ           1.66858         1.97795        -2.55284
LJ          0.946195         1.83613        -1.87155
LJ           1.71766         1.06932        -1.83463
LJ           2.53226        -2.56116       -0.730486
LJ          -1.42358         -1.6257       -0.771183
LJ          -2.23596        -1.61397     -0.00310943
LJ          -1.69703         2.45843        0.264818
LJ         -0.748541        -2.53478        -1.07396
LJ         0.0926642        -1.86574       -0.645144
LJ         -0.722009        -1.84724      0.00998021
LJ         0.0330014         2.39195        0.179972
LJ          0.959471        -2.45657       -0.944192
LJ           1.82186         -1.5857       -0.940234
LJ          0.766613        -1.96248        0.220745
LJ           1.74602        -2.51266       0.0251437
LJ          -2.32739       -0.753661       -0.805327
LJ          -1.90003        0.206096       -0.957714
LJ           -2.3864      -0.0321277      0.00673562
LJ          -1.57801       -0.662287       -0.115571
LJ         -0.755063       -0.715141       -0.865976
LJ       -0.00201668      -0.0888159       -0.951125
LJ         -0.687621       -0.126625      0.00365728
LJ         0.0301049        -1.03743       0.0957154
LJ           1.03397        -1.10203       -0.640318
LJ           1.89932       -0.246548       -0.642761
LJ           0.77385       0.0488243       0.0272275
LJ           1.89895        -1.00237       0.0999383
LJ           2.38108        0.843074        -0.72466
LJ          -1.77577         1.68427       -0.702959
LJ           2.45655         1.66829      -0.0498183
LJ          -1.75067        0.960374        0.131728
LJ          -0.95017        0.781666       -0.997899
LJ         0.0703624         1.78103       -0.866749
LJ         -0.743102         1.67878      -0.0932669
LJ         0.0957322        0.917403       -0.159364
LJ          0.842919         1.05322       -0.980841
LJ           1.64236         1.71705       -0.805299
LJ          0.857122         1.79106       -0.160083
LJ           1.69969        0.836802       0.0636275
LJ           2.45401         2.43766        0.716263
LJ          -1.39214        -1.81949        0.853256
LJ           2.49978        -1.52984          1.6214
LJ          -1.90594        -2.40288         1.67282
LJ          -0.80013          2.4359        0.929285
LJ         -0.117816        -1.54121         1.11752
LJ         -0.900837        -1.62506          1.7779
LJ         0.0249931        -2.31336         1.77889
LJ          0.717446         2.44273        0.905762
LJ           1.62098        -1.63731        0.956831
LJ          0.741842         -1.5394         1.66216
LJ           1.68983        -2.54098         1.52976
LJ          -2.40239       -0.811158        0.845087
LJ          -1.77391        0.195215        0.845829
LJ           2.33448       0.0157605         1.70611
LJ          -1.68214       -0.814084         1.64247
LJ          -0.87581       -0.903518        0.908685
LJ          0.113974      -0.0449505        0.879667
LJ         -0.943543      -0.0496908         1.68492
LJ        0.00356972       -0.742317         1.82202
LJ          0.979924        -0.88834        0.431177
LJ           1.72632       -0.218408        0.821175
LJ          0.923655      -0.0320425          1.7765
LJ           1.56594       -0.766256         1.74258
LJ            2.3002        0.927011         1.06048
LJ          -1.87468         1.59714        0.952123
LJ            2.4585         1.90325         1.59545
LJ          -1.72317        0.836929         1.58546
LJ         -0.928121        0.906103        0.826817
LJ          0.273087          1.4395        0.741645
LJ         -0.690037         1.46344         1.64885
LJ         0.0765852        0.637068         1.66027
LJ           1.08371        0.708005         1.04214
LJ            1.5896         1.75201        0.767776
LJ          0.875356         1.81012         1.61568
LJ           1.82787         1.01366         1.94917
