108
#Comment!
LJ          0.146915        -1.70357        -1.10234
LJ           2.37593       -0.710888        0.638225
LJ          0.128898         1.85987         0.26273
LJ          -1.56683        -1.99982         2.03655
LJ          -2.48636       -0.639734         1.66229
LJ          0.634554        -1.97986         1.60499
LJ         -0.675872       0.0438166      0.00514118
LJ          0.298534        -1.54201        -2.44317
LJ        -0.0887583        0.212489        -1.32609
LJ          0.527686         2.43506         2.44713
LJ         0.0191272        -2.17163        0.606371
LJ         -0.412682       -0.925266         1.85434
LJ         -0.993001        -2.50408      -0.0335901
LJ          -1.90076        0.734629         1.90868
LJ           1.42604       -0.237683          2.3363
LJ           1.50874        -1.44519        -1.13517
LJ           1.77228         1.68749       -0.291731
LJ          0.904226        0.691072        -1.05226
LJ          -1.10519         2.09398         1.93088
LJ            1.1341         1.57144        -2.56362
LJ           1.26355        -1.46559         2.29343
LJ           0.63277         2.27684        -1.47642
LJ          0.405668       -0.431384        -2.49919
LJ           1.93606      -0.0176184         1.41412
LJ           2.09078        -2.37128        -1.44279
LJ           1.64371         1.92476         1.20864
LJ           1.65041        -2.36046         2.10795
LJ         -0.900637         0.75197         2.50334
LJ         -0.141478         1.64498         2.32655
LJ           1.52366        -1.10849      -0.0111833
LJ         -0.942613        0.923743         1.14073
LJ          -1.14198        -2.19368         1.18153
LJ           1.16654        -2.32699       -0.711415
LJ          -1.86953         1.41528        -0.95057
LJ          -2.15616        -1.38338       -0.246883
LJ           2.52924         1.37698         1.65896
LJ         -0.438915        -2.03661         2.02291
LJ           2.39773       -0.172141          -2.524
LJ          0.103501         2.40193       -0.642898
LJ       -0.00558727        0.786657        0.559993
LJ          -0.57417        -1.66381       -0.408507
LJ          -1.29135       -0.423074         1.39817
LJ         -0.811802        -2.39704        -1.13114
LJ          -2.32776         2.51279         1.44127
LJ           1.00981        -1.57639        0.813404
LJ           2.16374        -2.03192       -0.472337
LJ           -1.8918        -1.20448        -2.17188
LJ          0.789405         2.41649         1.06184
LJ          -1.95528        -2.29861        0.410825
LJ         -0.493204       0.0999376         1.80608
LJ          -2.23967        0.753505        0.954648
LJ           2.22601        -2.13455        0.846933
LJ           0.76984        0.556129         2.06059
LJ           -1.5215         1.77953         1.02989
LJ           0.90346         1.32356        0.798461
LJ         -0.843303       -0.244775        -1.88907
LJ           -1.9948          1.7773         2.29087
LJ          -0.41417         1.77357         -1.6933
LJ         -0.776735        -1.36908        -2.30515
LJ          -1.66576       -0.311994        -0.50346
LJ          -2.43862        -1.63445         1.73534
LJ          -1.83956        -1.34099         0.97816
LJ          0.226297         1.29417         1.50636
LJ           1.04878       -0.247122       -0.649232
LJ          -1.52401        0.782279        0.129912
LJ         -0.635798        -1.10686        -1.36707
LJ         -0.102858        -1.12331        0.608457
LJ           1.29561        0.565764        -2.21973
LJ          -1.11649        -1.10667        0.223394
LJ           2.29504         1.15738         -1.0866
LJ           2.26793        0.839458         -2.4007
LJ           1.71958        -1.13259         1.44577
LJ          -2.51008        0.887364       -0.146957
LJ           1.52268          2.5304        0.249131
LJ          0.149889        0.984088        -2.02356
LJ           2.49592         2.10949        0.327921
LJ          0.428922       -0.751495        -1.53051
LJ           1.76051       0.0875404        0.206585
LJ          -2.03581       -0.227799        -1.65767
LJ          -1.84312       -0.154271        0.542362
LJ           2.23131       -0.447124       -0.521256
LJ        -0.0542974       -0.215074        0.966734
LJ          -2.20535         2.43212       -0.554884
LJ           2.05521     -0.00896244        -1.50904
LJ         -0.109696         0.98465       -0.617495
LJ         -0.318211        -2.26686        -2.07854
LJ           2.50918        -1.12211        -1.45078
LJ          0.701244        -0.77435          1.5159
LJ           -1.3101        -2.53287        -2.16319
LJ          -1.12153         0.65928       -0.964176
LJ          0.898191       -0.368521        0.495606
LJ          -2.05103        -2.13073        -1.38389
LJ           2.55768        -2.32648        -2.47382
LJ           1.87332        0.917073        0.790507
LJ           2.27705        -1.19004        -2.49854
LJ          0.877933        0.360499         1.07072
LJ           1.62522         1.82348         -1.4716
LJ          0.875716        0.637462       0.0090318
LJ          0.510071        -1.64973      -0.0997002
LJ          -1.93959          1.0818        -2.03413
LJ         -0.270781         2.26058         1.30708
LJ          -1.72661         1.88581       0.0607995
LJ          0.788829         1.64043       -0.595797
LJ           1.67821        0.867633         1.86122
LJ           -1.6046        -0.19031         2.40347
LJ           2.09611         1.85598         2.50295
LJ          -2.39418         1.91573        -1.65762
LJ          -1.61918        -1.25431        -1.07769
