108
#Comment!
LJ           2.55246        -2.48528         2.55302
LJ           -1.7595        -1.69191         2.41316
LJ           2.56148        -1.77292        -1.76212
LJ          -1.78033         2.54021        -1.58803
LJ         -0.842806         2.50475        -2.49863
LJ        0.00929447        -2.04648        -2.53992
LJ          -1.22456        -1.50997        -1.73575
LJ        0.00922714         2.19736         -1.7933
LJ          0.876507         2.54595          2.4833
LJ           1.78438        -1.69999        -2.48423
LJ          0.824158        -1.88435        -1.77224
LJ           1.84263         2.53043        -1.73399
LJ           2.50992       -0.925642          2.5517
LJ          -1.82676       0.0364981         2.54466
LJ           2.48096        0.139567        -1.98048
LJ           -1.7939       -0.555145        -1.65047
LJ          -1.20354       -0.749431        -2.42966
LJ         0.0151305       -0.242056        -2.46644
LJ         -0.727413       0.0185883        -1.81526
LJ         -0.133661        -1.15291        -1.86946
LJ          0.883872        -1.23717        -2.48859
LJ           1.73589       0.0262688         2.49337
LJ          0.920523       0.0768795         -1.7831
LJ           1.68004       -0.642796        -1.73987
LJ          -2.51482        0.954796         2.42558
LJ          -1.70642         1.93834         2.45436
LJ          -2.41719         1.64167        -1.60716
LJ          -1.61912          0.7809        -1.80759
LJ         -0.623374         1.00108         2.48481
LJ          0.173312         1.72957         2.45499
LJ          -1.00766         1.64416        -1.78703
LJ         0.0728654         1.04927        -1.80095
LJ          0.937386        0.834056           2.462
LJ           1.82121         1.87272          2.5159
LJ          0.883082         1.83743        -1.64101
LJ           1.59743        0.987014         -1.6985
LJ           2.45997         2.35064       -0.733609
LJ          -1.44671        -1.69198       -0.753128
LJ          -2.48862        -1.92271       -0.088448
LJ          -1.62891         2.48993      0.00828086
LJ         -0.819897         2.56115        -1.00846
LJ          0.153323        -1.68787       -0.948986
LJ          -0.65766        -1.85199      0.00323619
LJ         -0.215897         2.39412       0.0941397
LJ          0.838238        -2.43621       -0.927911
LJ           1.84645        -1.76226       -0.933764
LJ          0.781164        -2.01556        0.197401
LJ           1.69671        -2.42637      -0.0387434
LJ          -2.55274       -0.944147       -0.712261
LJ          -1.86404        0.180698        -0.82267
LJ           -2.4906       0.0917061       0.0258913
LJ          -1.77923        -0.93129       0.0637455
LJ         -0.582436        -0.85334       -0.714597
LJ         -0.114988        0.347635       -0.950494
LJ         -0.668481      -0.0376639     -0.00242071
LJ         0.0796484       -0.810797        0.308887
LJ          0.773603        -0.97466       -0.613688
LJ           2.00216        -0.16197       -0.723704
LJ          0.718865        0.017013      -0.0334551
LJ           1.71865        -1.11852       -0.116756
LJ           2.51861        0.984402        -0.88021
LJ           -1.5356         1.85641       -0.784852
LJ           2.42043         1.69749      -0.0315954
LJ          -1.90323         1.13463        0.183902
LJ          -1.04894        0.768229       -0.916283
LJ           0.17987         1.81793       -0.845784
LJ         -0.745021         1.59175       -0.113255
LJ         0.0837952        0.905124      -0.0771083
LJ          0.762039         1.00743       -0.783037
LJ           1.67495         1.72215       -0.871525
LJ           0.74886         2.05658      -0.0304457
LJ           1.76708        0.844573       -0.149465
LJ           2.36309         2.26668        0.792485
LJ          -1.38458        -1.87178        0.650776
LJ           2.51107        -1.54761         1.70951
LJ          -2.00287        -2.37344         1.48164
LJ         -0.592838         2.47121         1.13293
LJ         0.0888563        -1.59469        0.963345
LJ         -0.922128        -1.87856          1.7789
LJ         0.0853136        -2.30945         1.70912
LJ          0.830285         2.34926        0.954956
LJ            1.9826        -1.62019        0.720668
LJ          0.973835        -1.77941         1.75917
LJ           1.64207         2.56383         1.63928
LJ           2.48279        -0.68671        0.931382
LJ          -1.78955       0.0473956        0.829721
LJ           2.50213      -0.0116109         1.75744
LJ          -1.89577       -0.738709         1.72883
LJ         -0.747094       -0.887909         1.02399
LJ          0.014768       -0.151365         1.05563
LJ         -0.920383        0.201129         1.91984
LJ          0.225173        -1.00169         1.85084
LJ            1.1021        -1.00851        0.679829
LJ           1.58246       -0.128267        0.765084
LJ          0.847159      -0.0546365         1.92669
LJ           1.57052        -0.84443         1.87352
LJ           2.35172        0.863368        0.846068
LJ          -1.43882         1.92673        0.859988
LJ            2.4291         1.59537         1.57434
LJ          -1.83003        0.979571         1.60567
LJ         -0.905376        0.669158        0.943949
LJ           0.19615         1.49656        0.719376
LJ         -0.799308         1.58844         1.62612
LJ         0.0178991        0.794352          1.5628
LJ           1.07911        0.774729        0.945757
LJ           1.56078         1.67731         0.58189
LJ          0.848876         1.53666         1.64778
LJ           1.68434        0.785436         1.75287
