108
#Comment!
LJ          -2.56352         -2.4963        -2.54751
LJ          -1.78715        -1.71025         2.38652
LJ           2.56305        -1.75649        -1.78762
LJ          -1.79335         2.52304        -1.60728
LJ          -0.84144         2.50354        -2.47708
LJ         0.0152613        -2.02341        -2.50708
LJ          -1.21179        -1.48135        -1.76113
LJ       -0.00787706         2.21632        -1.81059
LJ          0.859015         2.55665         2.48619
LJ           1.76558        -1.69783        -2.49987
LJ          0.822493        -1.89953        -1.79786
LJ           1.87671         2.54392        -1.72979
LJ           2.50223       -0.940706         2.53224
LJ          -1.84732      0.00572887         2.55382
LJ           2.44757        0.161728        -1.97829
LJ           -1.7931       -0.531444        -1.68768
LJ          -1.19434       -0.767017        -2.43564
LJ        0.00457745       -0.274127          -2.475
LJ         -0.747845       0.0225876        -1.83419
LJ          -0.16382        -1.15335        -1.84013
LJ          0.858043        -1.21264        -2.48639
LJ           1.74442      0.00933605         2.50335
LJ          0.911574       0.0642663        -1.78633
LJ           1.68753       -0.641812        -1.74136
LJ          -2.54913        0.939246           2.412
LJ          -1.69786         1.93802         2.45089
LJ          -2.40265         1.64929        -1.62208
LJ          -1.61249        0.777682        -1.81346
LJ         -0.608062        0.966061         2.46845
LJ          0.184845         1.75032         2.46729
LJ          -1.02942         1.65618        -1.79993
LJ         0.0578624         1.07369        -1.80876
LJ          0.936295        0.816837         2.48069
LJ           1.81322         1.88573           2.491
LJ          0.888955         1.86094        -1.63823
LJ           1.57485         1.01363        -1.65805
LJ           2.49702         2.36675       -0.735134
LJ          -1.43533        -1.69808       -0.755238
LJ          -2.49485        -1.92077      -0.0830001
LJ          -1.64259          2.4686      -0.0215121
LJ         -0.808489         2.55697        -1.01822
LJ          0.144804        -1.69288       -0.904806
LJ         -0.646217        -1.89361     -0.00586607
LJ          -0.18137          2.3508       0.0954406
LJ          0.811675        -2.42823        -0.94426
LJ           1.86108        -1.78662       -0.953734
LJ          0.779374         -1.9987        0.172228
LJ           1.67267        -2.40753      -0.0468079
LJ          -2.53472       -0.964442       -0.703898
LJ          -1.85784        0.176432       -0.799549
LJ          -2.51898       0.0986822       0.0427258
LJ          -1.79852       -0.908969       0.0808541
LJ         -0.583062       -0.842623       -0.727157
LJ        -0.0944912         0.33291       -0.935982
LJ          -0.68983      -0.0315241       0.0121543
LJ         0.0321069         -0.8135         0.29768
LJ          0.779855       -0.964738       -0.628399
LJ           1.99312       -0.154199       -0.716008
LJ          0.702096      0.00228642      -0.0417108
LJ           1.70108        -1.13991       -0.119986
LJ           2.54257        0.977274       -0.871789
LJ          -1.51192         1.83054       -0.785457
LJ           2.41308          1.6986     -0.00502431
LJ          -1.91451         1.14499        0.166914
LJ           -1.0581        0.778929       -0.896868
LJ          0.164947         1.85528       -0.857715
LJ         -0.731096          1.5826        -0.11268
LJ          0.109511        0.879513      -0.0608693
LJ          0.762496          1.0027        -0.78267
LJ           1.66659         1.70781       -0.875539
LJ           0.71741         2.08842      -0.0600592
LJ           1.77321        0.828021       -0.149487
LJ           2.40354         2.28631        0.777029
LJ          -1.41157        -1.86448        0.649203
LJ           2.53371        -1.54662         1.70565
LJ          -2.02276        -2.37313         1.46519
LJ         -0.589733          2.4816         1.13491
LJ         0.0758533        -1.60248        0.972825
LJ         -0.922221        -1.85847         1.79539
LJ         0.0781244        -2.31648         1.70957
LJ          0.823089         2.34903        0.947129
LJ            2.0127        -1.65446        0.756563
LJ           0.94045        -1.75077         1.74943
LJ           1.62308         2.53739         1.61943
LJ           2.45602       -0.687819        0.973292
LJ          -1.78725       0.0649212        0.852471
LJ           2.51189      -0.0100717         1.75795
LJ          -1.87693       -0.752006         1.74698
LJ         -0.725532       -0.915853         1.02327
LJ         0.0379843       -0.154381         1.06104
LJ         -0.915457        0.204507         1.95831
LJ          0.239573        -1.01592         1.87075
LJ           1.08849        -1.00295        0.664156
LJ           1.56961       -0.133995        0.779415
LJ          0.844235      -0.0523547         1.92057
LJ           1.58202       -0.827273         1.89761
LJ            2.3706        0.835718        0.833071
LJ          -1.45074         1.91546        0.847221
LJ           2.43786         1.57471         1.57602
LJ          -1.80652        0.983425         1.59643
LJ         -0.898646        0.675089        0.942179
LJ          0.192249         1.46752        0.718244
LJ         -0.794768         1.59134         1.60919
LJ         0.0436748        0.829664          1.5724
LJ           1.07646        0.758548        0.938763
LJ           1.56041         1.67423        0.594068
LJ          0.836406         1.52949         1.64579
LJ           1.68057        0.808654         1.72242
