108
#Comment!
LJ          -1.53594         2.23467       -0.466131
LJ           1.09348         1.14869        0.556346
LJ         -0.367242      -0.0467457         1.94049
LJ          -2.35593        -0.79977         1.23768
LJ           1.60587         2.50465       -0.311999
LJ           2.26143        -1.25842       -0.617534
LJ           1.88807        -1.52385         1.70426
LJ          -1.86569         1.30818        0.496064
LJ           2.18326        -1.74322        -2.36974
LJ            1.6548        -2.22377        -1.38928
LJ           2.39528         2.22594        -1.04441
LJ           1.50976       -0.592395         1.25687
LJ          -1.92106          1.1623        -1.37697
LJ          0.824743         1.40723         1.88765
LJ           0.25931        -0.98863       -0.784234
LJ         -0.216752         2.24697       -0.863833
LJ           2.50057       -0.632928        0.249421
LJ        -0.0913631        0.833252        -1.85627
LJ           2.24383         1.19869         2.53179
LJ         -0.965262        0.866103         0.51397
LJ          -1.74905         1.39712        -2.43423
LJ           1.24888        0.581351        -2.33668
LJ           2.15898       0.0863084       -0.568991
LJ          0.998698         1.88862        -2.30344
LJ           1.69156        -0.45281         2.44198
LJ         -0.630302         2.54117      -0.0212894
LJ         -0.730929         1.00616         2.00556
LJ           1.61627       -0.084447        0.448814
LJ          -1.50252        0.447874       -0.508809
LJ           1.79638         1.20249         1.65177
LJ          0.286702       0.0624543        -1.02863
LJ           1.01089       -0.844129        -1.64489
LJ         -0.866575       -0.905167         0.88104
LJ           2.49338         1.96974       0.0393347
LJ           2.42824        -2.23567        0.873709
LJ          0.437934       -0.205542        -2.29858
LJ          -2.31708        -2.06136       -0.306635
LJ           2.11129       -0.546689        -1.55961
LJ           -1.7624        -2.30866         2.55669
LJ          -1.85028         -1.5587         0.71968
LJ          -2.24769         1.12932         1.45784
LJ         -0.960684        -2.24451         1.06865
LJ          -2.43679         1.05357       -0.462181
LJ          -1.88313        0.096933        0.445545
LJ         -0.787022         1.77724         1.01249
LJ          0.251723        -2.02706       -0.162291
LJ           1.20511        -1.51291       -0.724039
LJ        -0.0401384        -1.17693        -1.84958
LJ           1.23754         0.16482        -1.43273
LJ         0.0328022        -2.50424        0.766974
LJ         -0.738489       -0.430171       -0.612556
LJ          0.461704       -0.215482        0.335953
LJ         -0.955901        0.603257        -2.20933
LJ          -1.97251        -1.04346          -1.739
LJ            1.1018        -2.17201        0.851613
LJ          0.792216         -1.2329        0.589824
LJ           1.90663        -1.36259        0.620542
LJ          0.402497         1.67048         1.01128
LJ          -2.50787         2.14377         2.06923
LJ          -2.31415        0.263309         2.19773
LJ         -0.588892       -0.396956         -1.7811
LJ          0.330173        -1.96279        -1.37043
LJ          0.262914       -0.921694         1.44149
LJ           1.51195         2.11016         1.27092
LJ        -0.0238378        0.771218       -0.156749
LJ         -0.339066        -1.00455         2.31788
LJ          -1.09728         -1.4152        -1.97709
LJ         -0.964089         1.70448        -1.45787
LJ            1.0246         2.13234        -1.19195
LJ          0.221717        0.521541         1.09665
LJ         -0.307983         2.04362         2.12374
LJ           1.69182         1.41676       -0.368164
LJ           2.24419          2.2579        -2.05534
LJ         -0.111948        -1.93816         1.63759
LJ            2.5225        0.414384        -1.57476
LJ           -1.7017        -2.01882        -1.11133
LJ         -0.683541        -1.86039       -0.935032
LJ          -2.17991        -1.99331          1.6968
LJ           1.13155        0.552757       -0.471529
LJ          0.786696      -0.0419435         1.83828
LJ          -1.50202       -0.396605        -2.49263
LJ           1.67352         1.41499        -1.75332
LJ          0.436901         1.19882        -0.93533
LJ         -0.753428         1.37376       -0.308677
LJ          -1.88809         2.17784        -1.55082
LJ          -1.51072         2.22992         1.69705
LJ           2.32799        0.759976        0.554951
LJ          0.655306         2.42064         1.89915
LJ         -0.553895        -1.44813       0.0703328
LJ          0.742328        -1.13059         2.38294
LJ          -2.09679        -0.43902       -0.870991
LJ           1.72923        -2.55319          2.0899
LJ          0.207021         1.78049       0.0468777
LJ          -1.24857        -1.47464         2.13767
LJ       0.000218393        -2.08093        -2.50232
LJ          -1.37865        0.263619         1.56948
LJ          -1.54776        0.147879        -1.46742
LJ          -0.63915         0.74263        -1.08109
LJ          -1.75445         2.37842        0.588717
LJ           0.16232         1.87048         -1.7165
LJ           2.52496        -1.91675        -1.41792
LJ         -0.713068        -2.41072        -2.01188
LJ          0.194629        0.686684         2.25028
LJ           1.08497        -2.07566        -2.40528
LJ           1.21469       -0.418349        -0.38838
LJ          -1.79646        -1.08901       -0.193792
LJ           2.05668        0.228609         1.52775
LJ          -2.38382        -1.02683         2.29922
