108
#Comment!
LJ           -2.5574        -2.35485         2.35597
LJ          -1.78681        -1.59914         2.42203
LJ          -2.32486        -1.55492        -1.61437
LJ          -1.74582        -2.49586        -1.54047
LJ         -0.740935           2.339         2.52067
LJ           0.07204        -1.84581        -2.42205
LJ          -1.16684        -1.59065        -1.78276
LJ       -0.00556042          2.1763        -1.87925
LJ          0.791901        -2.53361         2.48746
LJ           1.74206        -1.63813         2.48177
LJ          0.806315         -1.9178        -1.66182
LJ           1.87791         2.38139        -1.85309
LJ          -2.55948       -0.888739        -2.56243
LJ          -1.72408        0.097418        -2.55828
LJ           2.46534        0.141351        -1.81632
LJ          -1.83038       -0.524505        -1.62585
LJ          -1.04951        -0.76275        -2.37084
LJ        -0.0418221       -0.187979        -2.46389
LJ          -1.02796       0.0736297        -1.78634
LJ         -0.108616        -1.12287        -1.80524
LJ          0.837048        -1.04193         2.54915
LJ           1.74719       0.0707394          2.4379
LJ          0.934988       0.0855673        -1.81718
LJ           1.66303       -0.686471        -1.70709
LJ          -2.54329         0.88425        -2.48489
LJ          -1.68873         1.81318         2.37228
LJ          -2.42955         1.56052        -1.60375
LJ          -1.72146        0.916171        -1.76605
LJ         -0.488404        0.952971         2.55885
LJ          0.133502         1.72994         2.39604
LJ          -1.11896         1.69282        -1.83227
LJ          0.173091         1.06355        -1.80124
LJ          0.854317        0.911299         2.56043
LJ           1.71223         1.70716         2.42094
LJ          0.971602         1.94848        -1.90473
LJ           1.67477         1.11085        -1.67457
LJ           2.47958          2.3557       -0.764846
LJ          -1.51372        -1.66495       -0.772436
LJ          -2.43359         -1.8688      -0.0982386
LJ          -1.78167         2.38946      0.00821125
LJ         -0.674842         2.53991        -1.04167
LJ          0.172652        -1.69915       -0.778031
LJ          -0.77883        -2.01305       -0.223632
LJ         -0.189216         2.32706        0.117803
LJ          0.901068        -2.46796       -0.933642
LJ           1.87048        -1.72472        -1.05565
LJ          0.774943        -1.89761        0.262546
LJ           1.71742        -2.51527       -0.124573
LJ          -2.43911       -0.962567       -0.782077
LJ           -1.9088      -0.0634097       -0.721054
LJ          -2.51859        0.170479       0.0731541
LJ          -1.64694       -0.676334        0.141639
LJ         -0.752014       -0.848685       -0.761713
LJ         -0.118625        0.174114         -1.0267
LJ         -0.657244       0.0667397      -0.0650925
LJ        -0.0440295       -0.697642       0.0820633
LJ          0.977641        -1.06724       -0.823107
LJ           1.86633       -0.215613       -0.554089
LJ          0.792286     -0.00224783       0.0833228
LJ           1.92144        -1.09419       -0.104379
LJ           2.50184        0.873042       -0.825529
LJ          -1.55883         1.79981       -0.890072
LJ           2.40031         1.64075      -0.0386307
LJ          -1.86439         1.05415        0.338071
LJ          -1.03457        0.726968       -0.973205
LJ          0.123739         1.62388       -0.911946
LJ         -0.805476         1.58648       -0.204353
LJ        -0.0242296        0.853144        -0.12097
LJ          0.944978        0.870474       -0.745506
LJ           1.64897         1.73667       -0.703857
LJ          0.834882         1.90386      -0.0634215
LJ            1.7498        0.805624       -0.110637
LJ           2.43074         2.40577        0.592972
LJ          -1.37276        -1.78964        0.664693
LJ           2.51365        -1.41545          1.5848
LJ          -1.96242        -2.36623         1.48169
LJ         -0.741992        -2.56321        0.937729
LJ          0.104533        -1.43066         1.01328
LJ         -0.833356        -1.85955         1.87851
LJ         0.0486211          -2.438         1.72459
LJ          0.698079         2.40167          1.0875
LJ           1.79153        -1.65387          0.9404
LJ          0.925935        -1.74812         1.72219
LJ           1.79052        -2.46925         1.65317
LJ          -2.56076       -0.657058        0.748692
LJ          -1.51446       0.0660748        0.879529
LJ           2.49381       0.0628954         1.69755
LJ          -1.76448       -0.748486         1.74758
LJ         -0.817355        -1.01104         1.02589
LJ           0.21443       -0.254066         1.06411
LJ         -0.938295        0.212917         1.98772
LJ          0.179501       -0.884485         1.84636
LJ          0.961662       -0.932162          0.8315
LJ           1.73328       -0.163591        0.622432
LJ          0.607283       0.0293922          1.9524
LJ           1.51645       -0.812786         1.79595
LJ           2.31711        0.788172        0.882327
LJ          -1.59609         1.91328         1.05092
LJ           2.38054         1.66247          1.5028
LJ          -1.85426        0.814689         1.53721
LJ         -0.795157        0.766596        0.711883
LJ          0.280367         1.39396        0.833872
LJ         -0.863442         1.46686         1.59665
LJ         0.0812605        0.886438         1.70603
LJ           1.20943        0.720946          0.9733
LJ           1.52957         1.74309         0.62936
LJ          0.959811         1.56969         1.61094
LJ           1.72103        0.822518         1.82803
