108
#Comment!
LJ          -2.51444        -2.40467        -2.54964
LJ          -1.71395          -1.699         2.49245
LJ           2.49284        -1.63934        -1.73142
LJ           -1.7104        -2.37512        -1.77227
LJ         -0.774545        -2.54324         2.53406
LJ         0.0377833        -2.04052        -2.49809
LJ          -1.07843        -1.41621        -1.58185
LJ         0.0525778         2.21793        -1.70137
LJ          0.965247         2.32455        -2.51071
LJ            1.7222        -1.75174         2.50768
LJ           1.04073        -1.74468          -1.727
LJ           1.88724         2.43653        -1.59776
LJ           2.46493       -0.772925          2.5557
LJ          -1.85947       0.0988827          2.5104
LJ           2.51238        0.177416        -1.95414
LJ            -1.702       -0.506261        -1.57616
LJ          -1.08338       -0.861298        -2.39555
LJ        0.00446424       -0.255132        -2.42752
LJ         -0.822773       0.0107626        -1.64257
LJ         -0.111523        -1.03213        -1.90742
LJ          0.997412        -1.08667         -2.4233
LJ           1.68305       0.0388486        -2.47157
LJ          0.783454     -0.00757724        -1.80385
LJ           1.58837       -0.754752        -1.75537
LJ          -2.49506         1.06333         2.50788
LJ          -1.78139         1.91032         2.55574
LJ          -2.51072         1.67812        -1.64924
LJ          -1.52203        0.892854        -1.80075
LJ         -0.684381         1.13278         2.53615
LJ         0.0639521         1.79843          2.4889
LJ         -0.822282         1.70504        -1.63934
LJ        0.00431578         1.06866        -1.75675
LJ          0.997811        0.865147        -2.55101
LJ           1.81317         1.82056         2.52598
LJ           0.92144         1.78413        -1.67964
LJ           1.78846        0.907032        -1.87135
LJ           2.44237         2.35113       -0.696272
LJ          -1.52432        -1.91276       -0.733714
LJ          -2.47043        -1.81874       -0.114671
LJ          -1.76406         2.45958       -0.043651
LJ         -0.687024        -2.51416        -1.03964
LJ          0.121104        -1.65459       -0.885916
LJ         -0.403996        -1.78765      -0.0102849
LJ         -0.295246         2.37295        0.094612
LJ          0.828847        -2.52485       -0.927972
LJ           1.69893        -1.72585       -0.959246
LJ           0.62434        -2.10468       0.0814988
LJ           1.70816        -2.42821      -0.0100066
LJ          -2.44518       -0.892333       -0.645945
LJ          -1.84799       0.0654672       -0.711865
LJ           2.45641       0.0986308      0.00584135
LJ          -1.55117       -0.955524       0.0112368
LJ          -0.58889       -0.860572       -0.756231
LJ        -0.0348132         0.28435        -0.99691
LJ         -0.971713      -0.0928599      -0.0934318
LJ         0.0129845       -0.709927        0.226222
LJ          0.881871        -1.04171       -0.735335
LJ           1.95993       -0.151914       -0.924466
LJ          0.722636       0.0111028      -0.0421085
LJ           1.61375       -0.907104       -0.111608
LJ          -2.42274        0.945687       -0.995279
LJ          -1.59748         1.68756       -0.826075
LJ           2.46489         1.77333        0.140573
LJ          -1.95237         1.01464       0.0403428
LJ          -1.05243         0.68102       -0.866105
LJ        0.00855144         1.68864       -0.802397
LJ         -0.790382         1.52042       -0.174963
LJ        -0.0951501        0.877762       0.0803159
LJ          0.728937        0.964564       -0.653253
LJ           1.54434         1.60449       -0.922863
LJ          0.918989         2.00463      -0.0557838
LJ           1.68289        0.809181       -0.206812
LJ           2.45247         2.50057        0.872503
LJ            -1.435        -1.76978        0.660205
LJ            2.4794        -1.59453         1.84359
LJ          -2.02978         2.55508         1.66135
LJ         -0.671448        -2.50118         1.12844
LJ           0.17288        -1.67285        0.954436
LJ         -0.893306        -1.71688         1.68205
LJ         0.0941228        -2.34176         1.71421
LJ          0.912981         2.37111        0.909914
LJ           1.90652        -1.49442         0.71189
LJ           1.00098        -1.82632         1.68428
LJ           1.73992        -2.56241         1.72406
LJ            2.5505       -0.636842         0.99839
LJ          -1.67199       -0.127305        0.876187
LJ          -2.55267      -0.0265347         1.86971
LJ          -1.70848       -0.870778         1.67542
LJ         -0.724564       -0.822439         1.00608
LJ         0.0360935      -0.0155614        0.999743
LJ         -0.876489        0.187527         1.94549
LJ          0.161589       -0.935157         1.90472
LJ           1.00203        -1.00938        0.731986
LJ           1.68378       -0.169149        0.707016
LJ          0.869445     -0.00437479         1.88591
LJ           1.68648       -0.847897         1.65325
LJ           2.47245        0.878748        0.935983
LJ          -1.50822         1.93576           0.801
LJ           2.41139         1.72165         1.63238
LJ          -1.72441        0.987918         1.51174
LJ         -0.895039        0.676489        0.839753
LJ          0.268718         1.46069        0.834535
LJ         -0.901958         1.60597         1.52814
LJ        -0.0547496        0.855822         1.68468
LJ           1.02569        0.730674        0.834506
LJ           1.61935         1.70219        0.637481
LJ          0.882856         1.56591         1.77291
LJ           1.77746        0.805014         1.80015
