108
#Comment!
LJ          -2.52258        -2.44487          2.3847
LJ          -1.74846         -1.6962         2.52221
LJ          -2.40052        -1.50107        -1.72867
LJ          -1.74364         2.51856        -1.63986
LJ         -0.818982         2.48944        -2.45625
LJ         -0.103114        -1.94957        -2.48395
LJ          -1.07274        -1.53799         -1.8087
LJ        -0.0448718          2.2147        -1.77472
LJ          0.795888          2.5075         2.44458
LJ           1.78279        -1.70346        -2.56453
LJ          0.739128        -1.85605         -1.7709
LJ           2.03156         2.46766        -1.70694
LJ           2.48424       -0.767358         2.52034
LJ          -1.76519       0.0672956        -2.53252
LJ           2.48415         0.05621        -1.86476
LJ          -1.72716        -0.51232        -1.63964
LJ          -1.08324       -0.752927        -2.47145
LJ         -0.123351       -0.170252        -2.46225
LJ         -0.906014        0.029879        -1.79396
LJ         -0.127003        -1.07504        -1.81934
LJ          0.823739        -1.14247        -2.54557
LJ           1.71731      0.00693961          2.4851
LJ           0.87172       0.0808716        -1.84173
LJ           1.67753       -0.651796         -1.7492
LJ           2.55342        0.968606         2.56119
LJ          -1.70427         1.88815         2.43312
LJ          -2.35011         1.58906        -1.58921
LJ          -1.61846        0.748693        -1.77822
LJ         -0.597777        0.906421        -2.55821
LJ         0.0856134         1.70565         2.31384
LJ           -1.0488         1.69451        -1.72193
LJ         0.0321565         1.11946        -1.84362
LJ           0.82785        0.893969         2.55184
LJ           1.73771         1.79906         2.42198
LJ          0.918218          1.9495        -1.82878
LJ           1.59613         1.05314        -1.66364
LJ           2.48767         2.44521       -0.758986
LJ          -1.48086        -1.75564        -0.83596
LJ          -2.34446        -1.85007        -0.20579
LJ          -1.74645         2.44546      -0.0466014
LJ         -0.756866         2.55496        -1.01098
LJ          0.173874        -1.69422       -0.791733
LJ         -0.707139        -1.93714        -0.15909
LJ         -0.187396         2.31127       0.0331484
LJ          0.821509        -2.49318       -0.926264
LJ           1.90025        -1.81681        -1.06375
LJ          0.743335        -1.88954        0.329149
LJ           1.66687        -2.48581       -0.100027
LJ          -2.42889       -0.897784        -0.70382
LJ          -1.95009       0.0239325       -0.784193
LJ          -2.53194         0.22391     -0.00264307
LJ          -1.81798       -0.774708        0.122228
LJ         -0.611838        -0.90837       -0.699784
LJ         -0.112785        0.326753        -1.00906
LJ         -0.684202        0.109611      -0.0995423
LJ         -0.115814       -0.662747        0.149626
LJ          0.963121       -0.973012       -0.704732
LJ           1.89268      -0.0455776        -0.59665
LJ          0.697073       0.0318279       0.0869931
LJ           1.82963        -1.12645      -0.0993894
LJ           -2.4901        0.957533       -0.798698
LJ          -1.65884         1.84499       -0.800018
LJ           2.46976         1.66237      -0.0720146
LJ          -1.87103         1.14418        0.362536
LJ          -1.12055        0.772047       -0.815153
LJ         0.0795106         1.63159        -1.00958
LJ         -0.851318         1.45356      -0.0852154
LJ         -0.028958        0.906245       -0.241067
LJ           0.97958        0.938445       -0.803011
LJ           1.65173         1.77304       -0.762776
LJ          0.757221         2.01242      -0.0422344
LJ           1.70848        0.867661       -0.052941
LJ           2.46521         2.31734        0.741805
LJ          -1.34206        -1.79759        0.757461
LJ           2.51122        -1.50478         1.74998
LJ          -2.07015        -2.38738         1.43572
LJ         -0.843923         2.51494         1.01155
LJ          0.113229        -1.48927        0.979332
LJ         -0.973239        -1.84454         1.88035
LJ         0.0502408        -2.36924         1.71073
LJ            0.8096         2.40873         0.97561
LJ            1.8987        -1.65624        0.823536
LJ          0.985767        -1.79787         1.77998
LJ           1.76381        -2.39667         1.63332
LJ           2.47432       -0.653446        0.832875
LJ          -1.59646       0.0373839         0.83576
LJ           2.43292        0.026759         1.76371
LJ            -1.769       -0.783884         1.73311
LJ         -0.718027        -1.02032        0.992969
LJ          0.145142       -0.148193         1.10873
LJ          -0.97114        0.113678         1.98196
LJ          0.153832       -0.911124         1.89779
LJ           1.01808        -1.02609         0.79038
LJ           1.60865       -0.177976        0.627374
LJ          0.663485       0.0139447         2.04266
LJ           1.53339       -0.779662         1.76468
LJ           2.28151        0.814546         0.83041
LJ          -1.63169         1.86853        0.976847
LJ           2.45063         1.61459         1.48107
LJ          -1.79858        0.896708         1.58111
LJ         -0.831794        0.716755        0.787245
LJ          0.263893         1.42505        0.778946
LJ         -0.905843         1.42823         1.57568
LJ          0.176866        0.882439          1.6174
LJ           1.15443        0.745213         1.00671
LJ           1.51664         1.65907        0.627897
LJ          0.925825         1.51669         1.66191
LJ           1.64834        0.809223         1.88223
