108
#Comment!
LJ           2.50988        -2.40478         2.48284
LJ          -1.66458        -1.85831         2.45572
LJ          -2.52392        -1.66851        -1.56476
LJ          -1.86026        -2.44966        -1.80893
LJ           -1.0351         2.47128         2.45308
LJ          -0.16614        -1.82002         2.56004
LJ         -0.943365        -1.50369        -1.71109
LJ          0.100103         2.40785         -1.7187
LJ          0.920779         2.45297        -2.41506
LJ           1.80092        -1.71036          2.4851
LJ          0.833542        -1.63832        -1.60883
LJ           1.98086        -2.52134        -1.60514
LJ           2.46075       -0.840122        -2.54047
LJ          -1.82559       0.0937823         2.50683
LJ           -2.5065        0.108082        -1.80391
LJ          -1.67998       -0.654075        -1.42097
LJ          -1.19178       -0.893395          2.5174
LJ        -0.0423941       -0.203569          2.5195
LJ         -0.804421        0.148407        -1.81362
LJ         0.0547577       -0.892666        -1.72231
LJ           1.00104       -0.975413         -2.5315
LJ           1.71186       0.0837172          2.5134
LJ          0.801758      -0.0151348        -1.52416
LJ           1.77003       -0.875783        -1.74585
LJ           2.56021         1.02838         2.44475
LJ          -1.77596         1.82786         2.50351
LJ          -2.53729         1.66775        -1.76194
LJ          -1.57163         0.94866        -1.89388
LJ         -0.731625         1.07394         2.41987
LJ         0.0237152         1.68272         2.37618
LJ         -0.767624          1.5643        -1.79122
LJ        -0.0492541        0.824658        -1.74724
LJ          0.840972        0.864682        -2.42161
LJ           1.79832         1.87892          2.4364
LJ          0.983633         1.75338        -1.55593
LJ           1.78776        0.840602         -1.7804
LJ          -2.44285          2.5298       -0.766137
LJ          -1.58985        -1.84798       -0.562167
LJ            2.5089        -1.73229       -0.081823
LJ          -1.62163         2.42719       0.0478244
LJ         -0.805732          2.4345       -0.986488
LJ         0.0513205        -1.72272       -0.936037
LJ          -0.79532        -1.82106       0.0653461
LJ         -0.259916         2.26658       0.0480636
LJ           0.88476        -2.50307        -0.92967
LJ           1.73348        -1.63015       -0.837525
LJ          0.715676        -1.95467       0.0336343
LJ            1.5956        -2.42068       -0.178844
LJ           2.48671       -0.863933       -0.750987
LJ           -1.8771        0.131763        -0.73566
LJ           2.55101      -0.0257242      -0.0421041
LJ          -1.73233       -0.729384      -0.0292159
LJ         -0.806318       -0.755247       -0.838787
LJ        -0.0734912        0.151805       -0.933379
LJ         -0.811429      -0.0303923      -0.0657724
LJ         0.0340539       -0.723931       0.0229519
LJ          0.744929       -0.895489       -0.721557
LJ           1.67672      -0.0908508       -0.821664
LJ          0.884031      -0.0082785       -0.141001
LJ           1.63398       -0.903153      -0.0694683
LJ           2.56445         1.04755       -0.849584
LJ          -1.59187         1.71038        -1.08529
LJ          -2.52132         1.74229       0.0877207
LJ          -1.84407        0.788327       0.0557682
LJ          -1.01072        0.747157       -0.845557
LJ        -0.0639534         1.54864       -0.942918
LJ          -0.87488         1.49425      -0.0650948
LJ         0.0763547         1.02515        0.110425
LJ           0.87463         1.09484       -0.768826
LJ           1.82008         1.67594       -0.984402
LJ          0.814339         1.96869      -0.0106389
LJ           1.76151        0.853404       -0.114273
LJ           2.38089        -2.50737        0.966503
LJ          -1.50408        -1.67808        0.878009
LJ          -2.54328        -1.50953         1.77421
LJ           -1.9768         2.49163          1.6527
LJ         -0.633341        -2.54248        0.965487
LJ           0.24535        -1.77505        0.943416
LJ          -0.89072        -1.63912         1.71826
LJ         0.0316478        -2.50143         1.81055
LJ           1.13983         -2.5196        0.909315
LJ            1.7621        -1.45362        0.893863
LJ          0.933889        -1.72127          1.7162
LJ            1.5858        -2.44912         1.84794
LJ           2.52069       -0.573532        0.960371
LJ          -1.83962       0.0734163        0.851925
LJ           2.52187       0.0319795         1.83991
LJ          -1.64469        -0.87662         1.61347
LJ         -0.685434       -0.858678        0.966446
LJ         0.0927227       -0.135879        0.922685
LJ          -0.86069        0.129105         1.98887
LJ          0.160061       -0.915906         1.66016
LJ          0.950203       -0.818346        0.913432
LJ           1.68514      -0.0542241        0.568027
LJ          0.766986       -0.119035         1.84505
LJ           1.75397       -0.831452         1.74986
LJ           2.43594        0.775357        0.706205
LJ          -1.55233         1.87879        0.864496
LJ          -2.52598         1.57712          1.4963
LJ          -1.53191         0.84789         1.68636
LJ         -0.991847        0.717684        0.759919
LJ          0.111477         1.64738        0.875493
LJ         -0.745244         1.72599         1.41115
LJ        -0.0344943        0.880335         1.67423
LJ          0.823304        0.750351        0.976871
LJ           1.80204         1.72801        0.823837
LJ           1.00163         1.63728         1.83069
LJ           1.75064         0.83708          1.6466
