108
#Comment!
LJ          -2.53131        -2.37171         2.41904
LJ          -1.72046        -1.68456         2.48223
LJ          -2.37213        -1.52901        -1.68126
LJ          -1.73278         2.53325        -1.69661
LJ         -0.799286         2.41986        -2.45704
LJ        -0.0572294        -1.89848        -2.46702
LJ           -1.0546        -1.54097        -1.76602
LJ        -0.0255812         2.24111        -1.79781
LJ          0.835106         2.52922         2.47395
LJ           1.75552        -1.66736        -2.56271
LJ          0.757388        -1.86461        -1.75564
LJ           2.02911         2.43614        -1.76555
LJ            2.5174       -0.841065         2.51242
LJ          -1.75674       0.0670591        -2.54179
LJ           2.48666       0.0839842        -1.79311
LJ          -1.77444        -0.53202        -1.67986
LJ          -1.03327        -0.76407        -2.42088
LJ         -0.103844       -0.169128        -2.49007
LJ         -0.949234       0.0857054        -1.82087
LJ         -0.128434        -1.08815        -1.85878
LJ          0.866156        -1.12502        -2.55666
LJ           1.70318      0.00644175         2.50373
LJ          0.988081       0.0331133        -1.87882
LJ           1.62703        -0.65457        -1.78325
LJ          -2.56413        0.923767         2.52757
LJ            -1.651         1.91488         2.39799
LJ          -2.39646         1.60682        -1.62897
LJ          -1.63902        0.738113        -1.79122
LJ         -0.497709        0.909695         2.54987
LJ         0.0840498         1.72242         2.29227
LJ          -1.14509         1.73541        -1.74979
LJ         0.0967893         1.09378        -1.79807
LJ          0.822427        0.865613         2.50788
LJ           1.71913         1.71443         2.38568
LJ          0.944883         1.89193         -1.8928
LJ           1.67443         1.05589        -1.65665
LJ          -2.56129         2.47231       -0.697149
LJ          -1.48849        -1.68716        -0.85238
LJ            -2.379        -1.79814       -0.155101
LJ          -1.75053         2.44297      -0.0501091
LJ           -0.6971           2.551       -0.991057
LJ          0.182695        -1.68623       -0.795425
LJ         -0.713472        -1.94585       -0.186412
LJ         -0.200689         2.26745       0.0459148
LJ          0.806069         2.54568       -0.966384
LJ           1.83237        -1.83926        -1.03558
LJ          0.771893        -1.92701        0.282886
LJ           1.69659         -2.5175       -0.113524
LJ          -2.44395       -0.942687       -0.701593
LJ          -1.94711     -0.00971317       -0.735893
LJ          -2.55445        0.221902       0.0382886
LJ           -1.8226       -0.710954        0.110095
LJ         -0.647724       -0.843376       -0.727501
LJ         -0.132195        0.273371        -1.02516
LJ         -0.612326        0.120256       -0.111889
LJ        -0.0711337       -0.678547        0.151068
LJ          0.942943        -1.04724       -0.781643
LJ           1.85658       -0.142109       -0.579586
LJ          0.746528        0.037538        0.131506
LJ           1.88666        -1.13991      -0.0771021
LJ          -2.55516        0.988598       -0.795801
LJ          -1.66303         1.82304       -0.838278
LJ           2.45694         1.69157      -0.0467079
LJ          -1.92312         1.16646        0.351634
LJ          -1.10935        0.721812       -0.887407
LJ          0.102888         1.63401       -0.969271
LJ         -0.804204         1.43115       -0.126007
LJ        -0.0114967        0.924419       -0.195653
LJ          0.983586        0.889991       -0.756284
LJ           1.63368         1.76695       -0.723681
LJ          0.817601         2.02123      -0.0156114
LJ           1.72378        0.850527      -0.0800057
LJ           2.43278         2.37848        0.737739
LJ          -1.34561        -1.74365        0.714012
LJ           2.48462        -1.48381         1.70479
LJ          -2.02559        -2.36163          1.4011
LJ         -0.797003         2.51642        0.976643
LJ          0.117367        -1.46394        0.960144
LJ         -0.952701        -1.84554         1.85611
LJ         0.0339522        -2.35131         1.70735
LJ          0.766227         2.39849        0.983234
LJ           1.80749        -1.68104        0.850055
LJ          0.962931        -1.79218         1.79219
LJ           1.74075        -2.45289         1.68478
LJ           2.47772       -0.638889        0.866838
LJ          -1.58968       0.0398912        0.842097
LJ           2.48988       0.0410863         1.75907
LJ          -1.73642       -0.780575         1.76918
LJ         -0.779889         -1.0451         1.06053
LJ          0.214739      -0.0933025         1.07767
LJ         -0.974883        0.145887         1.97716
LJ           0.12212       -0.919742         1.87559
LJ           1.02629        -1.03471        0.803963
LJ           1.61538       -0.168288         0.59527
LJ          0.695507     1.10159e-05         1.96659
LJ           1.56485       -0.775002         1.78116
LJ           2.25544         0.83581        0.865317
LJ          -1.58437         1.94556         1.03051
LJ           2.48566         1.65576         1.51808
LJ          -1.85785        0.893906         1.52104
LJ         -0.792588        0.740516        0.782184
LJ          0.240234         1.42841        0.781019
LJ          -0.85579         1.43534         1.55106
LJ          0.155933         0.87653         1.68526
LJ           1.15726        0.752887        0.999799
LJ           1.46564         1.73237        0.661058
LJ          0.916636         1.52384         1.61087
LJ           1.65617        0.758491         1.87977
