108
#Comment!
LJ           1.07897        -1.71614         1.19227
LJ           -1.6478         -1.3419        -1.16462
LJ          0.174465       -0.866789        -2.19911
LJ           1.96805         1.98688         -1.2878
LJ          0.322573      -0.0444794         1.87012
LJ           2.52401         0.74739       0.0437906
LJ             1.494        0.715124        -1.67888
LJ          -2.25214        -2.40752       -0.815318
LJ          -2.39858        -2.08381         2.05725
LJ          0.754006         2.41705       -0.182616
LJ           2.39024         1.23039         1.68027
LJ          -1.88081         2.03635         1.09928
LJ           1.49025        0.307214        0.259775
LJ         -0.963597        0.423622         1.99203
LJ          -1.30543         1.80407        -1.25331
LJ         -0.449054       -0.092368       -0.546987
LJ          0.324831       -0.294519        -1.30747
LJ          -1.58913       -0.136206        -1.30701
LJ           2.36161        -1.76932         1.09455
LJ           1.28099         2.44533         2.41371
LJ           2.11937      -0.0691078         2.19447
LJ         -0.562259         1.76632         1.55317
LJ           2.39081         2.04638         2.36652
LJ           2.44658       -0.482955        0.196996
LJ           2.31144         2.27168         1.28507
LJ           1.32221       -0.202848        -2.02246
LJ          -2.20862        -1.54771        -2.04914
LJ         -0.465628        -1.86191        -1.49326
LJ          -1.13561        0.720397       -0.803642
LJ          0.206055        -2.36807       -0.976981
LJ         -0.169515         1.15188        -1.53439
LJ         -0.343619        0.579117         1.17478
LJ          -1.69955        0.972917         1.44992
LJ          -1.80996          2.4082       0.0153744
LJ          -1.22211        -1.83369       0.0715789
LJ          0.194494         1.82834        0.541971
LJ           2.56261        -1.66163     -0.00691237
LJ          -1.82788          -2.121        0.884635
LJ         -0.666658         1.45026        -2.45555
LJ          0.415336       0.0616498      -0.0327789
LJ          0.653634        0.806729        0.880312
LJ          -2.29563         1.36927       -0.870726
LJ         -0.659173       -0.544789        0.490102
LJ          -2.53441         1.80863        0.235031
LJ            2.5313       -0.653614        -1.47332
LJ           1.61249         1.43195        -2.55586
LJ           1.75974         1.15091        -0.47759
LJ          -1.61526        -1.43053         1.82807
LJ          -1.84644       0.0714087       -0.367083
LJ           1.33209       -0.610901       -0.283514
LJ         -0.170886        -2.30734        0.105239
LJ          0.161562        0.967951       -0.675012
LJ           1.10457        -1.03567        -1.36737
LJ          -2.36197       -0.814106         2.41251
LJ          0.975248         1.81319        -1.11074
LJ          0.229409        -2.40663         1.10738
LJ           1.54429       -0.655757         1.28222
LJ          -1.58139       -0.179609         1.44015
LJ            2.3086       0.0721046       -0.920596
LJ          -2.41494        0.793832        -1.78585
LJ         -0.672078       -0.645692          1.8079
LJ           2.39347        -2.37812         -1.9944
LJ           -1.1627        -2.43369        -0.77283
LJ           1.30072         0.62773          1.8309
LJ           1.54609         -1.2868        0.416772
LJ            0.2519         2.52589          2.1094
LJ           -1.6793       -0.906021        0.650246
LJ          0.908085         1.68662         1.54562
LJ         -0.490198         1.14233        0.240204
LJ           1.17104        -1.85439        -0.69048
LJ          -1.60805        -2.27527        -2.13441
LJ          0.317298        -1.51606         1.99439
LJ         -0.697045        -2.34103         2.56276
LJ          -0.80652         2.29909        0.720936
LJ           1.72501         2.24147       -0.244189
LJ          -1.15233        0.406367        0.514588
LJ          -2.52498       -0.751715         1.29333
LJ          0.647056        0.527142        -2.17127
LJ         -0.477905       -0.811808        -1.32386
LJ         -0.525368          1.8811        -0.36349
LJ          0.290002         1.07408         1.94272
LJ          -2.08726        0.655286         2.33288
LJ          0.483437         1.68222        -2.19852
LJ          0.717633         1.28188      -0.0025812
LJ           1.25981        -2.34722        -1.58203
LJ          -1.61325         1.82795         2.19246
LJ           1.59471          1.4476        0.738911
LJ          -1.16359       -0.822175       -0.395785
LJ          -1.04753        -2.44878         1.61535
LJ          -2.12991         1.70815        -2.00003
LJ           1.64729        -2.36802        0.582854
LJ         -0.395234        0.131495        -2.04903
LJ          -0.22495        -1.55746       -0.554318
LJ           2.27143        0.325177          1.1985
LJ         -0.393821         2.24386        -1.66788
LJ           0.46191        -2.03175        -2.18037
LJ           2.19087        -1.59814        -1.16626
LJ           1.75757        -1.79372          2.0596
LJ           1.14485        0.255759       -0.783932
LJ          -1.43284        0.815745        -1.94298
LJ          -1.01168        -1.23352        -2.35932
LJ          -0.49229        -1.56099         1.21961
LJ          0.210489       -0.829158         1.10718
LJ           1.76323        -1.11339        -2.27789
LJ          0.522918        -1.47863        0.151356
LJ           -1.3891          1.4837       0.0437449
LJ          -1.36375       -0.257806        -2.44391
LJ           1.00254       -0.830926         2.17103
