108
#Comment!
LJ           2.23702         1.98471         1.34762
LJ          -1.78542        -1.69843      -0.0621485
LJ         -0.151319        -2.36308        0.471861
LJ          -0.75857        -2.46609       -0.306462
LJ          -1.73705        0.545044         1.58227
LJ           1.59615       -0.431436        0.396746
LJ           1.53766       -0.123925         1.59231
LJ          0.273159        0.848051          1.4946
LJ         -0.103719         1.50281         2.32302
LJ          -1.78069         2.16005        -1.73245
LJ           1.88863         -2.0727         1.86474
LJ           1.85079         1.89675        -2.36986
LJ          0.101319         1.72191        -1.85651
LJ          0.449112         1.63184        0.700997
LJ          0.998299         1.36715        -1.37182
LJ          0.749768         2.34812        0.185751
LJ           0.75798        -2.40176         2.34858
LJ        -0.0834496     -0.00888007         2.49286
LJ         0.0288193         2.34725         1.50232
LJ          -1.95203         1.32313       -0.921698
LJ          -1.97465       -0.927871        0.722019
LJ         -0.511186         -2.2098        -1.24419
LJ           2.42706        -2.05707       -0.789811
LJ          -1.47107       -0.679932        -1.29826
LJ           1.26653         2.48801         1.11256
LJ         -0.309628        -2.03726         2.14102
LJ           1.95749        -1.23255        -1.24581
LJ           1.97098       -0.936193          2.1303
LJ           -1.6469         2.43273        0.381963
LJ          0.446488       -0.175898         1.68927
LJ           -2.2507        -1.41479         2.21219
LJ           1.34639       -0.310438       -0.905945
LJ          -2.26871       -0.525231       -0.267281
LJ           1.65693        0.899802        -1.97858
LJ          0.883607        -1.09304       -0.510565
LJ          -1.28023        -1.57017         1.83637
LJ         -0.797418         1.91794        0.667037
LJ           1.35103        -1.25133        -2.29971
LJ          0.016021        -1.32914         1.03475
LJ          -1.36348         1.59981       -0.168976
LJ         -0.556591         1.84967       -0.981687
LJ          -1.59247         2.43983       -0.788041
LJ          -2.33075         2.39256         2.17977
LJ          0.273232        -1.03357        -2.53867
LJ         -0.759669        -1.53179        -2.13859
LJ          -2.41765       -0.480594        -1.28437
LJ           1.78865        -0.21583        -1.89517
LJ         -0.083509        -0.11241       -0.491743
LJ           1.27173        -1.90252        0.373802
LJ           -1.1679         2.43701         1.69706
LJ          -1.66852         1.51153        -2.49191
LJ          -1.74131        0.439431         0.54264
LJ         -0.975519        -1.70287         0.85416
LJ          -2.50076       0.0941799         -2.5034
LJ          -1.92335        0.456917       -0.600993
LJ         -0.630808       -0.509389        -1.96094
LJ          0.490492         2.30518        -1.07124
LJ           2.40089        -2.23291        0.382049
LJ          0.585619        0.772628        -2.44051
LJ         -0.837763         2.12569        -2.37504
LJ           1.45346         2.51626       -0.648183
LJ        -0.0904807         1.66123      -0.0989883
LJ           2.48006        -2.21275        -2.01728
LJ          -1.56272        -2.22306        -2.55052
LJ          0.605334       -0.624726        -1.72442
LJ          -2.55252         1.26593        -1.84124
LJ         -0.687077         1.31523         1.55431
LJ         -0.654368         0.16556         1.51005
LJ           1.83853          1.2626        -0.68015
LJ          -1.06842       -0.548482        -0.31615
LJ           2.22988        0.431398        -1.15152
LJ           2.27002          2.2047         -1.3245
LJ          -2.17536        -2.11067         1.37806
LJ         -0.475362       -0.846875          1.8477
LJ          -1.79468        0.550627        -1.65147
LJ          0.834002          1.8317        -2.47248
LJ          0.182626        -2.16142        -2.00956
LJ          0.320043        -2.00332       -0.386703
LJ           2.02146        -1.25187       -0.255475
LJ           2.56308         1.20271         2.20616
LJ          0.977096         -0.1557         2.52883
LJ           0.72016        0.400845       -0.336253
LJ          -1.06278        -1.47687       -0.806275
LJ         -0.807717         1.05797        -1.66339
LJ           2.51598          2.1742       -0.285062
LJ           1.37896        0.608692         0.78137
LJ          -2.50785        0.104564         1.13226
LJ          -1.00673        0.413853        -2.38271
LJ          0.867698         1.50586       -0.361551
LJ            2.4362        -1.00926        -2.12199
LJ            1.0094        -1.44307          1.3495
LJ          -1.77515         1.57195         1.37947
LJ           1.42556         1.31451         1.73076
LJ           2.18734        -1.26168         0.87045
LJ          0.596975       -0.195355        0.530526
LJ          -1.95864        -1.60132        -1.68816
LJ         -0.822908       0.0732206        -1.07197
LJ          0.964959         -1.6853        -1.32621
LJ         -0.513773       -0.531169        0.548369
LJ        -0.0510775        -1.06776        -1.06018
LJ        -0.0264757        0.914975       -0.987716
LJ           1.92565          1.5788        0.385593
LJ          -1.75066       -0.614604        -2.33275
LJ         -0.436717        0.773459        0.703311
LJ          -1.49385       -0.389464         1.58233
LJ           2.39232        0.443288        0.140031
LJ         -0.469504        -1.47914        0.085764
LJ         -0.936553        0.619907       -0.191092
