108
#Comment!
LJ          0.281082        -1.80624       0.0623574
LJ           2.26224       -0.852173          1.7884
LJ       -0.00248845        0.829375        -1.67263
LJ           -2.2052        -1.80905       -0.993632
LJ         -0.690482      -0.0660945         1.78832
LJ          0.942278        -2.23193        0.680217
LJ            1.2441       -0.685223       -0.784683
LJ          0.564483       -0.962025         1.11613
LJ          0.920635       -0.195988         1.92146
LJ            2.2365         1.04529       -0.348768
LJ           1.70094        -1.98677       -0.232134
LJ          0.201241         -0.9535          2.3104
LJ          -1.52993        -2.13126        0.800739
LJ         -0.360389        0.700873         2.40055
LJ          -2.56115         0.22052          1.2992
LJ           2.39406       -0.779438       -0.299781
LJ         -0.859761        -2.45531         1.48211
LJ           1.40911         2.11697       -0.211008
LJ         -0.207172         -2.0996         2.28083
LJ           2.17253      0.00367884        0.378895
LJ          0.468905        -1.94908        -2.09332
LJ          0.261508         1.80188        -2.09921
LJ          0.307747       -0.194962       -0.729483
LJ          -2.49838         1.58932         1.67818
LJ         -0.160266        -1.30218       -0.858768
LJ           2.51723         2.05288        0.109045
LJ           1.89599        -2.06132         1.91708
LJ         -0.368192        -1.44009        -1.88858
LJ         -0.472341         1.62672         0.99848
LJ           -1.9675       -0.857823        -1.10125
LJ           1.44342         1.97113         -1.1823
LJ         -0.269869         2.47194       -0.542426
LJ           2.06921        -1.23947        -1.09917
LJ          -1.85166         2.10692        -1.59218
LJ          -2.26738        -2.05767        0.135802
LJ          -1.31832        0.929779       -0.183827
LJ          0.727819         1.77073        0.756524
LJ          -1.89399       -0.452233         2.07545
LJ          0.840879        -1.60543        -1.04082
LJ           1.10413         1.09841       -0.205752
LJ          0.666502        -2.45418       -0.712676
LJ            1.5604       -0.417933         1.12386
LJ          -0.84117       -0.606969       -0.765597
LJ          -1.83687        -2.34759        -2.45933
LJ           1.48305        -1.51665         1.11376
LJ           2.35901         1.37718        -1.42759
LJ         -0.375884       -0.353972        -2.22039
LJ           1.35059        0.675915         1.05997
LJ          0.366609         2.44183          1.5621
LJ         -0.268256        -1.54898         1.46707
LJ           -1.5497         1.76419        0.903813
LJ         -0.868127         2.32475        -2.46528
LJ          0.429577        0.967829         1.59118
LJ         -0.788691        0.671904         0.77667
LJ           1.86992         1.56799        0.723213
LJ          -0.95265         1.36903        -2.05425
LJ          -1.16439         1.70359         1.89861
LJ          -1.51639         2.52435       -0.408039
LJ          0.192063       -0.111617         1.08348
LJ          0.735895          1.0181         2.50797
LJ          -2.40603       -0.933024        0.803035
LJ         -0.996339        -1.25813         2.17182
LJ           2.39135         2.25742        -0.88118
LJ           1.89715     -0.00939517         2.37659
LJ          -1.56719       -0.123268         1.11096
LJ           1.23136        0.657284        -1.23874
LJ          -1.88434        0.174952       -0.115807
LJ           1.55683        -0.38817        -1.71761
LJ         -0.051183        -2.53439        0.625601
LJ           1.88809       0.0693077       -0.686867
LJ           1.16154         2.50833        -2.43837
LJ          -1.73243        0.883223         1.43964
LJ          0.489422           1.717        -1.05871
LJ           2.05836        -2.37743        0.776255
LJ           1.40467         2.09611         1.55481
LJ           -1.0623        -1.03838        0.889819
LJ          0.771648       -0.975238        -1.87806
LJ          -1.89038        0.606891         -1.6672
LJ         -0.418845        -2.33703        -1.56844
LJ          -1.63963       -0.789929       0.0458932
LJ           1.37749        -1.17866        0.183776
LJ           0.16296        0.497026        0.151287
LJ           2.32146         2.12757         -2.4184
LJ           -1.4792        0.589937         2.42588
LJ           1.82607        0.645174        -2.05562
LJ          0.792476        -1.79267         1.68805
LJ           2.31495        -0.87163         -2.0772
LJ          0.752369       0.0791034        -2.13456
LJ          -1.15105        -1.64387         -1.1174
LJ         -0.458408       -0.507716        0.380037
LJ          -1.70916        -1.08234        -2.16217
LJ         -0.884829        -1.77187       0.0466034
LJ           1.67558         1.12182          2.1065
LJ          -1.97106        -1.45473         1.68888
LJ            2.2778        -2.01219        -2.34033
LJ          -2.37032         1.03646        0.606453
LJ           1.37055         1.64462        -2.17851
LJ          -2.09571         1.46682       -0.714512
LJ           1.43376        -1.01904         2.23362
LJ          -2.50148        0.750869         2.30443
LJ         0.0840506          1.4983      -0.0143647
LJ          -1.01451         1.81532         -1.0287
LJ           1.58858        -2.14217        -1.48687
LJ           1.05493      -0.0961214        0.180809
LJ         -0.134553         1.67379         2.07412
LJ          -2.31923        -2.48086         1.52721
LJ          -1.95582         1.56363        -2.49408
LJ         -0.392206        0.779629       -0.690006
