108
#Comment!
LJ            2.5648         2.50469         -2.5567
LJ          -1.70767        -1.77181         2.56307
LJ           2.52525        -1.79984        -1.77693
LJ          -1.80035          2.5456         -1.7044
LJ         -0.954334         2.41922         2.49931
LJ         -0.101164        -1.75179        -2.53552
LJ         -0.773878        -1.64643        -1.67984
LJ         -0.032316        -2.51347        -1.57066
LJ           0.90821        -2.54089         2.48395
LJ           1.70377        -1.84126        -2.49434
LJ          0.869404        -1.60305        -1.60183
LJ           1.78241        -2.55689        -1.70856
LJ           2.42618        -0.87241         2.49941
LJ          -1.59817       0.0319907         2.46381
LJ            2.4693     0.000383819        -1.73668
LJ          -1.64493       -0.914403        -1.66215
LJ         -0.904207       -0.846386        -2.56145
LJ          0.138508      -0.0736447        -2.55041
LJ         -0.865371        0.139519        -1.61362
LJ        -0.0334662       -0.952733        -1.70356
LJ          0.811344       -0.984761        -2.50808
LJ           1.78571       0.0909944         2.53965
LJ          0.758236       0.0463211        -1.71353
LJ           1.66619       -0.890212        -1.60761
LJ           2.55353        0.845314         2.52039
LJ          -1.76671         1.74736        -2.54578
LJ          -2.44104         1.56966         -1.7415
LJ          -1.79392        0.823014        -1.72823
LJ         -0.817623        0.931116         2.38656
LJ         0.0652914         1.62577         2.44118
LJ         -0.806275         1.75343        -1.71949
LJ          0.017096         0.85806        -1.80719
LJ          0.826081        0.937442        -2.52975
LJ           1.71599         1.74115        -2.55436
LJ           1.01213         1.72522        -1.76347
LJ           1.63009        0.802794        -1.62701
LJ          -2.53232        -2.54643       -0.892825
LJ          -1.61703        -1.71456       -0.810971
LJ          -2.54366        -1.76706       -0.056991
LJ          -1.67556         -2.5573      -0.0217683
LJ         -0.803931         2.52607       -0.829287
LJ         -0.033295        -1.58325       -0.886131
LJ         -0.855104         -1.6975      -0.0390732
LJ        -0.0972684         2.45348      -0.0809133
LJ          0.924854         2.54399       -0.797788
LJ           1.64344        -1.71158       -0.761199
LJ          0.746629         -1.8703       0.0675957
LJ           1.66155        -2.50176      0.00150997
LJ          -2.54836       -0.869896       -0.730848
LJ          -1.83342        0.142955       -0.989252
LJ            2.5296       0.0141282      -0.0405333
LJ          -1.77239       -0.908007      -0.0488211
LJ         -0.778351       -0.765692       -0.789666
LJ         0.0277219       -0.190753       -0.928568
LJ         -0.946287       -0.143722       0.0298123
LJ        0.00561627       -0.722571       0.0870295
LJ          0.935528       -0.795529       -0.861112
LJ           1.70028    -0.000797343       -0.894617
LJ          0.883905       0.0230604      -0.0692258
LJ           1.64125       -0.918982        -0.13908
LJ          -2.55942        0.913051       -0.851427
LJ          -1.74174         1.68459       -0.920007
LJ           2.50785         1.68715        0.032115
LJ          -1.68852        0.941019        0.114306
LJ         -0.808713        0.806011       -0.668104
LJ         -0.148424         1.72621       -0.974856
LJ         -0.967157          1.7031      -0.0697116
LJ        -0.0363891        0.877675        0.148768
LJ          0.773503        0.968506       -0.879931
LJ           1.77168         1.74502       -0.769189
LJ          0.723436         1.71763       -0.103073
LJ           1.66922        0.745387       0.0388613
LJ          -2.55037        -2.50811        0.859573
LJ          -1.62784         -1.7543        0.950591
LJ           2.47919        -1.60496         1.70781
LJ          -1.81329         2.55566          1.6878
LJ         -0.891719         2.51851        0.766707
LJ         0.0442862         -1.7572        0.912738
LJ         -0.878286        -1.71948         1.88043
LJ         0.0666366        -2.50336         1.70673
LJ          0.962292         2.43693        0.885943
LJ           1.73143        -1.87236        0.835306
LJ           0.90412        -1.75683          1.5627
LJ            1.7812         2.56095         1.72602
LJ           2.50895       -0.786401        0.910326
LJ          -1.72475       0.0489255        0.873222
LJ          -2.51166      -0.0604797         1.83693
LJ           -1.7394       -0.904577         1.83141
LJ         -0.858168       -0.814599         0.76813
LJ          0.152786      0.00466321        0.860568
LJ         -0.726028       0.0560013         1.71962
LJ         0.0205212       -0.932363         1.65359
LJ          0.811048       -0.866502        0.857948
LJ           1.66302       -0.149503        0.887216
LJ          0.815973     0.000394306         1.73736
LJ           1.78704       -0.806256         1.66461
LJ           2.51372        0.829874        0.794166
LJ          -1.67003         1.64781        0.784266
LJ          -2.55098         1.63109         1.82972
LJ          -1.60644        0.836442         1.76383
LJ         -0.872164        0.803749        0.799335
LJ         0.0260345         1.57641        0.881375
LJ         -0.792994         1.74223         1.65934
LJ       0.000602749        0.715867          1.5846
LJ          0.892172        0.757828        0.675942
LJ           1.58721         1.62197        0.778891
LJ           0.86544         1.56955         1.70802
LJ           1.71602        0.964764         1.63956
