108
#Comment!
LJ           2.50132        -2.50414         2.48297
LJ          -1.76076        -1.79077          2.4642
LJ          -2.47852        -1.69408        -1.54332
LJ          -1.78807        -2.49805         -1.8514
LJ          -1.00472         2.44699         2.46046
LJ         -0.105385        -1.94995        -2.54653
LJ         -0.904508         -1.5182        -1.64701
LJ          0.127028          2.3883        -1.66863
LJ          0.979544         2.46422        -2.37236
LJ           1.79897        -1.70297         2.51151
LJ          0.937428        -1.65408        -1.60947
LJ           2.04713        -2.47097        -1.56339
LJ           2.47647       -0.819581        -2.50535
LJ          -1.82064       0.0430067         2.43298
LJ           -2.4849        0.107046        -1.76196
LJ          -1.66599       -0.621583        -1.36063
LJ          -1.19139       -0.915645        -2.51271
LJ         -0.110994       -0.256795        -2.52965
LJ         -0.833388       0.0998097        -1.79456
LJ        -0.0402155       -0.918802        -1.75377
LJ           1.01557        -1.07927        -2.44349
LJ           1.66245        0.104057         2.51464
LJ          0.756085      -0.0421494        -1.58245
LJ           1.76006       -0.783585        -1.72622
LJ          -2.53989         1.05071         2.37237
LJ          -1.77478         1.85086         2.52986
LJ           2.56415         1.63432         -1.7804
LJ          -1.69366        0.948727         -1.8915
LJ         -0.760976        0.986477          2.5555
LJ         0.0432145         1.80388         2.45758
LJ         -0.808688         1.70343        -1.80728
LJ         0.0125423        0.842174        -1.87789
LJ          0.859888         0.82258        -2.52552
LJ            1.8444         1.81533         2.46066
LJ          0.984472         1.73149        -1.53604
LJ           1.82386        0.804408        -1.76182
LJ          -2.42689         2.40976       -0.680596
LJ          -1.55121        -1.85722       -0.622023
LJ           2.48941        -1.74494      -0.0322017
LJ          -1.64546         2.40422       -0.103266
LJ         -0.776998         2.43445       -0.949035
LJ         0.0426675        -1.70104       -0.890946
LJ         -0.700343        -1.80237       0.0392334
LJ         -0.232373         2.36555      -0.0514815
LJ          0.830448        -2.50868       -0.865558
LJ           1.81846        -1.67361       -0.875748
LJ          0.725925        -1.98731        0.104014
LJ           1.64303        -2.38495      -0.0882007
LJ            -2.542       -0.860912       -0.761796
LJ           -1.8277        0.209601       -0.737881
LJ           2.45863       -0.020944       0.0209384
LJ          -1.76747        -0.88247      0.00240754
LJ          -0.66715       -0.809662       -0.789141
LJ        -0.0213742        0.230783        -0.92786
LJ         -0.786146       -0.115016      -0.0633447
LJ         0.0470282       -0.790562        0.188666
LJ          0.808862       -0.855227       -0.755875
LJ            1.7335        -0.13004       -0.839673
LJ          0.800463       0.0141266       -0.130195
LJ           1.61546        -0.91136       -0.105162
LJ          -2.44078         1.00962       -0.927362
LJ          -1.64574         1.75357        -1.12445
LJ          -2.53425         1.64657       0.0951515
LJ          -1.90721        0.785103       0.0904033
LJ          -1.01332        0.726076       -0.823666
LJ         -0.121122         1.52485       -0.851933
LJ         -0.789666          1.5082       -0.073263
LJ         0.0857733        0.943339       0.0377087
LJ          0.836817          1.0514        -0.71224
LJ           1.80697         1.65404       -0.978929
LJ           0.84414         1.93508       0.0197151
LJ           1.75212         0.88699      -0.0930137
LJ            2.3872        -2.52292        0.870214
LJ          -1.52086        -1.67491        0.760906
LJ           2.53804        -1.43956         1.74501
LJ          -2.01115         2.53511         1.59347
LJ         -0.687618        -2.50979         1.01919
LJ          0.184048         -1.8092        0.931713
LJ          -0.95653        -1.61758         1.72526
LJ         0.0689306        -2.36069         1.71776
LJ           1.09872         2.55797        0.918955
LJ           1.75053        -1.44823        0.803076
LJ          0.871778        -1.68469         1.71557
LJ           1.51919        -2.44864         1.85048
LJ           2.54095       -0.600286         1.07664
LJ          -1.78194       0.0441388        0.867769
LJ           2.52963         0.10338         1.86699
LJ          -1.66779       -0.881532         1.53134
LJ         -0.751014       -0.899153        0.931654
LJ          0.137667       -0.079787         1.02283
LJ         -0.894214        0.168475         2.08174
LJ          0.142765       -0.929723          1.6243
LJ          0.983067       -0.819972        0.850184
LJ           1.62161       -0.119427        0.537746
LJ          0.732123       -0.145093         1.90753
LJ           1.73377       -0.801555          1.7451
LJ           2.50962         0.71497        0.723095
LJ          -1.49032         1.93225        0.826093
LJ          -2.54436         1.55851         1.44658
LJ          -1.53234        0.894345          1.6709
LJ         -0.902871        0.770079        0.719897
LJ          0.123833         1.66992        0.909658
LJ         -0.815083          1.6776         1.47513
LJ       -0.00209061        0.907132          1.6603
LJ          0.820957        0.646643        0.947664
LJ           1.80873         1.69097        0.788367
LJ           1.00445         1.63576         1.73072
LJ           1.73169        0.781087          1.5792
