108
#Comment!
LJ            1.8445       -0.387521       -0.753837
LJ          -2.39616       -0.496937        -1.23285
LJ          0.335956         2.08632         2.36759
LJ         -0.639234        -2.29217          2.4351
LJ         -0.621384         1.09987        -1.47789
LJ           2.22653        0.270964        -1.85781
LJ          -1.81545        -1.42533         2.31449
LJ           1.89498         0.65842        0.319725
LJ           1.75622         1.53431        -2.33455
LJ           1.67187         2.54961        0.169391
LJ          -1.34635        -2.50195        0.667919
LJ          -0.73256        -1.03414         2.43136
LJ           2.43425         -2.1878        -1.56724
LJ          0.120804       -0.110932        0.530597
LJ          0.788146         1.84687       -0.309931
LJ           2.45254         2.39401        -2.46817
LJ            1.4115        -1.39555        -1.44196
LJ         0.0528447        -1.20149        0.244863
LJ         -0.595642          2.2814       -0.942066
LJ          -1.34978         1.97812         1.54882
LJ          -1.27381        0.539785         1.13446
LJ           -0.3995         1.36624         1.54378
LJ           1.03211       -0.447317        -1.32114
LJ          0.978883        -2.12354         -0.8215
LJ           2.23991        -1.06577        -1.86465
LJ          0.490248         1.97387        0.963034
LJ          -2.50296         2.55639        0.577182
LJ           1.17666         -2.1228         2.18106
LJ           1.90249         -2.4526          1.2588
LJ           2.41883         1.70408       -0.307534
LJ          -2.25673        0.592393         1.34186
LJ            1.8807         1.04991         1.88073
LJ          -2.42308           1.864          1.3494
LJ          -1.08274        -2.06158        -1.75076
LJ          0.143268       -0.745068       -0.692068
LJ          0.591272        0.997762         1.89744
LJ          -1.73873         2.47629         2.48486
LJ         -0.322369         1.99924        -1.90146
LJ           1.00205       -0.251553      0.00628889
LJ           2.43937         1.57763        -1.61889
LJ          -1.51354        0.331826        -1.52658
LJ          0.276661        0.565167        -1.62022
LJ           1.77595        0.965157       -0.719522
LJ          -1.01796      0.00336951        -2.50204
LJ           2.48915       -0.236505         1.22231
LJ         -0.653732       -0.161358        -1.37136
LJ           2.23117        -1.69541         2.24608
LJ           1.48621        -2.56342        -1.89034
LJ          0.499348        0.328522       -0.720338
LJ         -0.348374       -0.822833         1.24097
LJ         -0.652042        -1.19804        -1.53883
LJ         -0.138159        0.782678        -2.49426
LJ           1.16758         -1.8397        0.736163
LJ          -0.80806        -0.48688       0.0213665
LJ           2.49191        0.316864       -0.528534
LJ           1.52308         2.01938         1.93587
LJ           1.63356         1.57392        0.860779
LJ          -2.29723        -1.19791       -0.359844
LJ          -1.36384       -0.950354       -0.682231
LJ           1.56053       -0.577326        -2.44066
LJ           1.13179        0.412832         2.48192
LJ          -1.45954        0.857824         2.21682
LJ           1.33518        0.691039        -1.62516
LJ          -0.89951         1.71199         2.41051
LJ          -2.14892        -2.18533         1.60118
LJ           -1.7887          1.0593       -0.899686
LJ        -0.0553235       -0.385961        -2.34485
LJ           1.95041        -1.54931       -0.688437
LJ          0.833105         1.85104        -1.32416
LJ           0.80319         1.27223        -2.24792
LJ            -1.026         1.32839        -0.23595
LJ          -1.62528       -0.587873        0.611725
LJ          -2.51076        -2.30818       -0.494257
LJ         0.0023346         1.32382        -0.64648
LJ           2.18559        -1.59088        0.729403
LJ          0.367257        -1.27839         -1.6164
LJ          0.291336        -1.69874         1.38056
LJ          -2.00967        -1.12861         1.33831
LJ          -2.03023        0.197546        -2.48444
LJ          0.515587        -2.23187       0.0648834
LJ           2.53221        -0.56952         2.25722
LJ          -2.00526        0.322134        0.203019
LJ          -1.89503        -1.68811        -1.19843
LJ         -0.285903         1.06441        0.338019
LJ          -0.18534        -1.99648        -1.09767
LJ          0.494863        -2.30324        -1.90506
LJ         -0.304723        -2.49741         1.39356
LJ          0.810574       -0.904295         1.01403
LJ            1.9546       -0.511114        0.342143
LJ           1.91843         2.27568       -0.985583
LJ          -1.43455       -0.449964         1.80892
LJ          -1.25466        0.240221       -0.448253
LJ          -1.03683        -1.68117         1.61552
LJ           1.15875        -1.35547       -0.124713
LJ          -1.89986         2.25098        -1.29702
LJ           1.23402        0.198415        0.947779
LJ         -0.286512         2.12273        0.142205
LJ          0.711797        -1.14954         2.23529
LJ         -0.171106        0.232158         1.73929
LJ          -1.62277        -0.87111        -1.86856
LJ          0.807815        0.905002        0.220029
LJ          -1.84413        -1.72953        0.523107
LJ          -1.74268         1.40618        0.595198
LJ          -1.43699        -2.31154       -0.393384
LJ          -2.30111         1.43812         2.35067
LJ         -0.930352        -1.56895        0.152525
LJ          -1.68194         1.46077        -1.97003
LJ           1.66205       -0.795965          1.6546
