108
#Comment!
LJ          -2.53661         -2.4197         2.54652
LJ          -1.69375        -1.66609         2.46358
LJ          -2.55544        -1.71046        -1.76701
LJ          -1.73012        -2.38769        -1.72227
LJ         -0.760475         2.50427          2.4871
LJ       0.000760936        -2.04225        -2.39285
LJ          -1.08034        -1.44215        -1.57708
LJ      -7.01276e-05         2.29268         -1.7014
LJ          0.997053         2.42978        -2.53293
LJ           1.69537        -1.81015         2.52325
LJ           1.01519        -1.84725        -1.74647
LJ            1.8789         2.53128         -1.6186
LJ            2.4676       -0.776084         2.55089
LJ          -1.89094        0.039929         2.51201
LJ           2.47236        0.142723         -1.9805
LJ          -1.76303       -0.532084        -1.55311
LJ           -1.1126       -0.818451        -2.43113
LJ       -0.00432108       -0.201286        -2.41305
LJ         -0.698333      -0.0116672        -1.74058
LJ         -0.145188        -1.11995        -1.89205
LJ          0.940981        -1.12403        -2.50358
LJ           1.62181       0.0238875        -2.49406
LJ          0.791614       0.0454422        -1.75843
LJ           1.60763       -0.701674        -1.76939
LJ          -2.43595         1.03242         2.46453
LJ          -1.76361          1.9635           2.538
LJ          -2.45029          1.6947        -1.66196
LJ          -1.51599          0.8032        -1.84058
LJ         -0.648686         1.08799         2.48757
LJ           0.13252         1.83495         2.47314
LJ         -0.814302         1.63414        -1.70594
LJ         0.0345982         1.03499        -1.79941
LJ            0.9467        0.896697        -2.55762
LJ           1.96784         1.83912         2.48866
LJ          0.940524         1.85111        -1.67723
LJ           1.71323        0.862904        -1.70776
LJ           2.41779         2.37393       -0.770751
LJ          -1.45455        -1.85187       -0.796581
LJ           -2.4937        -1.85309      -0.0842118
LJ          -1.65692         2.52084      -0.0898066
LJ         -0.787948        -2.52871        -1.13518
LJ          0.121084        -1.74587       -0.886716
LJ         -0.439613        -1.78245       -0.015676
LJ         -0.209266         2.41563       0.0273543
LJ          0.814729        -2.56328       -0.979968
LJ           1.73417        -1.75718       -0.965764
LJ          0.623982        -2.00805        0.119274
LJ           1.64305        -2.36281      -0.0475151
LJ          -2.49219       -0.871075       -0.699886
LJ          -1.91829       0.0436102       -0.691728
LJ           2.48736       0.0557956       0.0843507
LJ          -1.62509        -0.94101       0.0454449
LJ         -0.520283       -0.871353       -0.728281
LJ        -0.0408211        0.201532        -1.03772
LJ           -0.9094       -0.116124       -0.132172
LJ         0.0207567       -0.726972        0.321636
LJ           0.87602       -0.992993       -0.668357
LJ           2.03705      -0.0302232       -0.927836
LJ          0.735903       0.0727143     -0.00317826
LJ           1.59601       -0.910362      -0.0972812
LJ          -2.42939         0.95419       -0.931755
LJ           -1.5014         1.77092       -0.797648
LJ            2.4261         1.77157       0.0370547
LJ          -1.92799        0.991575       0.0478272
LJ           -1.0765        0.716383       -0.928337
LJ         0.0861857         1.86525       -0.815549
LJ         -0.803465         1.45717       -0.102154
LJ        -0.0747394        0.830898       0.0725669
LJ           0.74154         1.00755       -0.704216
LJ           1.64328         1.60391       -0.941155
LJ          0.880271         1.95279      -0.0583101
LJ           1.67913        0.898959       -0.190376
LJ           2.51681         2.41186        0.881551
LJ          -1.39762        -1.75067        0.670948
LJ            2.5048        -1.54914         1.77132
LJ          -2.05778        -2.48269         1.69293
LJ         -0.662341         2.55559         1.06023
LJ          0.159835        -1.60984        0.977466
LJ         -0.922063        -1.73673         1.68952
LJ         0.0908199        -2.33899         1.69882
LJ          0.950828         2.38019        0.957442
LJ           1.87782        -1.51784        0.697887
LJ          0.999451        -1.78011         1.71112
LJ           1.73096         2.52976         1.71207
LJ           -2.5612       -0.639535        0.994153
LJ          -1.69754      -0.0214854        0.817871
LJ           2.54297       0.0295204         1.82414
LJ          -1.81122       -0.845565          1.6092
LJ         -0.755489       -0.872062         1.06481
LJ         0.0345364     -0.00216661        0.925426
LJ         -0.848362        0.174106         1.96811
LJ           0.23725       -0.953449         1.89623
LJ           1.00058        -1.07353        0.745512
LJ           1.65796       -0.107923         0.74093
LJ           0.86526       0.0195488         1.85487
LJ             1.598       -0.815154         1.77784
LJ           2.41326        0.884656        0.864154
LJ           -1.5163          1.9401        0.805488
LJ           2.42844         1.64332         1.62039
LJ          -1.76957        0.933965         1.49933
LJ         -0.889394        0.613105        0.885556
LJ          0.261606          1.4611        0.789843
LJ         -0.865723         1.61172         1.56838
LJ        -0.0515934        0.854217         1.60767
LJ          0.978341        0.721519        0.853699
LJ           1.59316         1.70642        0.543764
LJ          0.866552         1.54078         1.71412
LJ           1.88443        0.805164         1.78727
