108
#Comment!
LJ           2.56246        -2.49973         2.45323
LJ          -1.76778        -1.68841         2.50981
LJ          -2.51811        -1.67405        -1.65307
LJ          -1.76487        -2.41669        -1.73584
LJ         -0.875564         2.48407         2.51639
LJ         0.0510065        -1.95785         -2.5309
LJ         -0.929967        -1.51774        -1.55469
LJ          0.107251         2.29216        -1.67606
LJ           1.00578          2.3363        -2.41483
LJ           1.77856        -1.67901        -2.56137
LJ           1.02548        -1.82428        -1.67031
LJ           1.94763        -2.51728        -1.52108
LJ           2.51115       -0.846555         2.56319
LJ          -1.78278       0.0854332        -2.52748
LJ          -2.46116        0.165669        -1.77762
LJ          -1.62582       -0.480131        -1.39594
LJ          -1.12796       -0.893296        -2.49119
LJ        -0.0840772       -0.188157        -2.41337
LJ         -0.813827       0.0914663        -1.74935
LJ          -0.10998       -0.996811        -1.80433
LJ          0.989968        -1.06213        -2.46244
LJ           1.68519       0.0742452        -2.55723
LJ          0.782181      -0.0740341        -1.59392
LJ           1.73323        -0.85409        -1.71455
LJ          -2.42188         1.06582         2.38893
LJ          -1.77739         1.83262         2.54116
LJ          -2.52573          1.7126        -1.61367
LJ          -1.52577        0.861162         -1.7024
LJ         -0.673928         1.08805        -2.52653
LJ          0.132889         1.87259         2.53729
LJ         -0.740076          1.7554        -1.76034
LJ         0.0726237        0.904831          -1.815
LJ          0.933605        0.805619        -2.51402
LJ           1.82088         1.80534         2.43148
LJ          0.936434         1.67512        -1.57742
LJ            1.8271        0.813892        -1.78255
LJ          -2.55586         2.38298       -0.754308
LJ          -1.50806        -1.88553       -0.739055
LJ          -2.47373        -1.76931       -0.129488
LJ          -1.71685         2.43562       -0.089616
LJ         -0.641227        -2.47241        -0.99008
LJ         0.0670709        -1.70965       -0.902233
LJ           -0.5742         -1.7953      -0.0126726
LJ         -0.212738         2.37051       0.0902575
LJ          0.821468        -2.54031       -0.920922
LJ           1.72852        -1.71676       -0.869187
LJ          0.643151        -2.00535        0.162866
LJ           1.63208        -2.38133       0.0412488
LJ          -2.45218       -0.939122        -0.74636
LJ          -1.91491       0.0880734       -0.622657
LJ           2.38244       0.0862485      -0.0243261
LJ          -1.64057       -0.841226       0.0421319
LJ         -0.612621       -0.775567       -0.816166
LJ         0.0189162        0.180561       -0.898974
LJ         -0.860007      -0.0226816      -0.0399048
LJ         0.0116929       -0.801968        0.242203
LJ          0.845538       -0.894043       -0.707537
LJ            1.8818       -0.173731       -0.863542
LJ          0.792601       0.0302658      -0.0953773
LJ           1.69804       -0.830694       -0.121644
LJ           -2.4736        0.966807       -0.952414
LJ          -1.57617         1.73912        -1.05355
LJ           2.55723         1.65036       0.0885241
LJ          -1.93323        0.887412       0.0870993
LJ         -0.891285        0.714192       -0.886065
LJ         -0.109189         1.54214       -0.817955
LJ         -0.898492         1.46491     -0.00590986
LJ         0.0443072        0.945129        0.147955
LJ          0.848964         1.00878       -0.635362
LJ           1.77834         1.64487       -0.899112
LJ          0.809258         2.00707       0.0358907
LJ           1.71268        0.871896       -0.137035
LJ           2.50051         -2.5291        0.806433
LJ           -1.4758        -1.73596        0.702033
LJ            2.4923        -1.46251         1.66745
LJ          -1.95104         2.48121         1.56266
LJ         -0.766141        -2.44883         1.13439
LJ          0.114794        -1.57535        0.918858
LJ         -0.829642        -1.63343         1.71213
LJ          0.136415        -2.40209         1.70227
LJ           1.01926         2.49353         0.85842
LJ           1.91986        -1.55484        0.673565
LJ          0.915078        -1.77357         1.71397
LJ           1.61422        -2.48891         1.71711
LJ           2.46765       -0.645609          1.0026
LJ          -1.77901     -0.00739015         0.78301
LJ           2.45761        0.048399         1.92113
LJ          -1.64782        -0.98668         1.51069
LJ         -0.726511       -0.877158        0.991961
LJ         0.0430393      -0.0631907        0.970492
LJ         -0.849235        0.165977         2.10311
LJ          0.175894       -0.989388         1.74956
LJ           1.00076       -0.851552         0.81837
LJ           1.62288       -0.114153        0.643169
LJ          0.702809      -0.0438614         1.86453
LJ            1.5247       -0.849842         1.67017
LJ           2.48716         0.66894        0.913472
LJ          -1.47677          1.9564        0.760345
LJ            2.4987         1.55974         1.56428
LJ          -1.57424        0.904485         1.57509
LJ         -0.970541        0.683491        0.816033
LJ          0.162273         1.56142        0.844444
LJ         -0.844386         1.60814         1.54214
LJ        -0.0727617        0.921302          1.5237
LJ          0.823431         0.64229        0.891355
LJ           1.73368         1.74098        0.739493
LJ          0.860654         1.59052         1.79269
LJ           1.75959         0.75046         1.69074
