108
#Comment!
LJ           -2.5347        -2.29566         2.54708
LJ          -1.69961        -1.48768         2.55839
LJ          -2.41518        -1.54305        -1.76512
LJ          -1.75169        -2.46977        -1.81611
LJ         -0.753902         2.33011        -2.43516
LJ         -0.137561        -1.47753         2.44944
LJ         -0.859221        -1.42591        -1.94559
LJ         0.0833094        -2.42035        -1.92679
LJ          0.981306        -2.46289         -2.5199
LJ           1.66838         -1.5231         2.43135
LJ           1.08283        -1.82607        -1.72861
LJ           1.94093        -2.54933        -1.59012
LJ           2.50325         -0.7852        -2.47066
LJ          -1.82994      -0.0159347         2.25058
LJ          -2.55971       0.0869067        -1.57547
LJ          -1.60983       -0.554656        -1.59794
LJ         -0.724383       -0.642304         2.51713
LJ         0.0945211      -0.0196409        -2.35613
LJ         -0.763672       0.0711806        -1.74519
LJ           0.11873       -0.921138        -1.54581
LJ          0.730418       -0.926527        -2.51152
LJ           1.70506       0.0623082        -2.44668
LJ          0.862676        0.247141        -1.61643
LJ           1.51509       -0.707981        -1.57369
LJ          -2.55625        0.883465        -2.38244
LJ          -1.81012         1.95363         2.45919
LJ          -2.49123         1.73955        -1.55033
LJ           -1.6192        0.649542        -2.09161
LJ          -0.54569        0.863794          2.5195
LJ         0.0337788         1.84335          2.4366
LJ           -1.2586         1.65933        -1.67665
LJ         -0.103692        0.969594        -1.60146
LJ          0.956682        0.995861        -2.50288
LJ           1.76896         1.95746         2.55403
LJ          0.977197         1.86389        -1.86508
LJ           1.71597         1.11837        -1.79295
LJ           2.55599        -2.50802       -0.676062
LJ          -1.36739        -1.60146       -0.827547
LJ          -2.20032        -1.62595     -0.00667688
LJ          -1.67453         2.51358        0.263532
LJ         -0.714611        -2.52957        -1.06422
LJ         0.0650376        -1.90673       -0.716219
LJ         -0.714224        -1.84059        0.014917
LJ         0.0114739         2.41695        0.155386
LJ           1.00707        -2.45868       -0.952229
LJ           1.87659        -1.57179       -0.917271
LJ          0.743139        -1.96039        0.145561
LJ           1.68194        -2.52035     -0.00927997
LJ          -2.28918       -0.812254       -0.784358
LJ          -1.83538        0.263851       -0.994215
LJ          -2.41495      -0.0591691     -0.00208323
LJ          -1.57544       -0.606201       -0.139278
LJ         -0.706644       -0.735205       -0.833265
LJ         0.0429926      -0.0739529       -0.905782
LJ         -0.650726      -0.0444631     -0.00997648
LJ         0.0164131        -1.07473        0.108817
LJ           1.00016        -1.13357       -0.569069
LJ           1.92237       -0.287368       -0.601126
LJ          0.756593       0.0749003       0.0219839
LJ           1.92221       -0.992494        0.129159
LJ             2.328        0.816721       -0.715904
LJ          -1.78558         1.64067       -0.712432
LJ           2.44088         1.63078      -0.0238002
LJ          -1.74712         0.94022        0.126448
LJ         -0.913893        0.822118       -0.998747
LJ        -0.0153616         1.74389       -0.874477
LJ         -0.816089         1.66907        -0.15026
LJ          0.159944        0.960124       -0.159449
LJ          0.832887        0.989709        -1.03696
LJ           1.68585         1.75176       -0.827191
LJ           0.82116         1.84181       -0.201504
LJ           1.71107        0.793651       0.0748166
LJ           2.47592         2.40225        0.736739
LJ          -1.40312         -1.7995        0.860421
LJ           2.44791        -1.47131         1.62918
LJ          -1.93661        -2.40947         1.61764
LJ         -0.767201         2.41286        0.956467
LJ         -0.065106        -1.53486         1.10059
LJ         -0.922758        -1.65301         1.77183
LJ        -0.0243432        -2.30528         1.80432
LJ           0.75615         2.46847        0.895703
LJ           1.63269        -1.63451        0.942023
LJ           0.74873        -1.52775         1.69021
LJ            1.6423        -2.55142         1.52756
LJ           -2.3471       -0.775235        0.891311
LJ           -1.8534         0.20362        0.792405
LJ           2.37316       0.0593815          1.6929
LJ          -1.62863       -0.803568         1.64757
LJ          -0.89477       -0.939755        0.892115
LJ         0.0837895      -0.0855143         0.93505
LJ          -1.01282      -0.0655962         1.61155
LJ         0.0738325       -0.653108         1.81236
LJ          0.984642        -0.89969        0.498985
LJ           1.69121       -0.171218        0.864366
LJ          0.872796      -0.0445571         1.74871
LJ           1.52649       -0.813354         1.73722
LJ           2.30448        0.921332          1.1038
LJ          -1.86302         1.61171         1.01098
LJ           2.42748         1.93207         1.61488
LJ          -1.68948        0.839279         1.58279
LJ         -0.935808        0.898019        0.862094
LJ          0.291257          1.4549        0.728564
LJ         -0.720146         1.44407         1.67017
LJ          0.130587        0.656561         1.62133
LJ           1.14704        0.695196         1.13212
LJ           1.59648         1.79091        0.776625
LJ          0.864375         1.82944         1.65573
LJ           1.80605        0.993914         1.93641
