108
#Comment!
LJ          0.047804       -0.038078         -1.3271
LJ          0.608617        -1.03452        -1.70183
LJ           2.19066         1.33571        0.532296
LJ           -1.8266         -2.3943         -1.8093
LJ          0.484405         2.22201       0.0422599
LJ           1.18439         1.86264        -1.91268
LJ           1.21153       -0.225657         1.25354
LJ           2.40564       -0.949206       -0.836486
LJ           0.84588        0.713714       -0.861714
LJ          0.453474         2.53616        0.972206
LJ           2.09946        -1.56305       0.0836084
LJ            1.4914         2.34247         1.16972
LJ          0.322707        -1.33251        -0.10357
LJ          -1.01523        -2.27094        -2.34191
LJ          -2.13543         2.45404         1.11845
LJ         -0.427475         2.04565       -0.578685
LJ         -0.317212        -2.28444       0.0445834
LJ           1.63087       -0.286219       -0.512416
LJ           -2.1273         1.72947      -0.0602574
LJ          -2.22923        0.385903        0.284407
LJ          -2.22684        0.745803        -1.91704
LJ          -0.58031         1.87006         0.55986
LJ            0.6262       -0.130452       -0.399917
LJ          -1.41725        -2.49127       -0.168613
LJ         -0.945644       0.0159462        0.424714
LJ          0.668005      -0.0959789         2.34182
LJ           1.22225        -1.85634        0.368363
LJ         -0.659358        -1.43692         2.05735
LJ            1.6326         1.01301       -0.370373
LJ           1.83427        -2.01408       -0.986614
LJ            1.8154        -1.14845         2.16529
LJ          0.746799        0.849283         -2.2055
LJ          0.177088         1.29506        -1.33844
LJ           2.45524        -1.71898        -2.37593
LJ          0.545683         2.53595        -1.34998
LJ          -1.11812         2.51954         1.55494
LJ           1.02721         2.41814         2.29808
LJ           -0.5085         2.09619        -1.74299
LJ          0.448379         1.61385         1.46363
LJ           1.16023         1.44843        0.503637
LJ           1.08367         1.73812       -0.880712
LJ          0.757168        0.512225        0.450487
LJ          0.339267        0.191513         1.35006
LJ          -2.49864        0.867511         2.15027
LJ           1.93413       -0.105046        0.421234
LJ           2.30139        0.107247         1.52313
LJ          -1.69301         -1.7753        0.771125
LJ          0.131666         1.69447        -2.54501
LJ           1.16512       -0.838617        0.314839
LJ          -2.11714         2.41682         2.25887
LJ         -0.529938        -0.52008       -0.349588
LJ          -2.13467         1.29759       -0.994062
LJ         0.0388347       -0.466261        0.517853
LJ         -0.299138        -1.82108         1.18909
LJ           2.16367          2.1137        -1.08009
LJ          -1.51177          1.8648        -2.25077
LJ          -1.80016        0.373308          1.4017
LJ         -0.962195        -2.04726        -1.28114
LJ           -1.6311       -0.409373         -0.3057
LJ          0.718952        -1.21438         2.27283
LJ            1.1786         -1.2355        -0.72192
LJ           2.49086       -0.427315        -2.07874
LJ         -0.975094         1.07121        -2.54607
LJ            2.1605        -1.96794          1.6514
LJ          0.287068         1.23054      -0.0356096
LJ          -2.10477       -0.735623        0.543457
LJ           1.78835        0.392277          2.4895
LJ          -1.37161       -0.497103        -1.32771
LJ       -0.00224106        0.835862         2.11253
LJ         -0.458758        -1.36339        -2.05571
LJ          -1.64204        -1.07328        -2.15536
LJ          -2.07624       -0.832708         1.62764
LJ           1.72514         -1.1277        -1.60528
LJ          -0.73994        0.203242         1.64817
LJ          -1.52537       0.0373031         2.42256
LJ        -0.0224281        -1.83283       -0.998746
LJ         0.0502535       -0.704139         1.74164
LJ           1.51998         1.37677         2.15193
LJ           1.98542        0.727824        -1.43057
LJ          -2.28246        -2.35899        -0.75295
LJ           1.85847       -0.998241         1.12178
LJ          -2.27387        0.225467        -0.80073
LJ           2.51202         1.76827        -1.95107
LJ         -0.155514        0.963548        0.967164
LJ          -1.34579        0.657422       -0.526926
LJ         -0.627746         1.68751         1.69549
LJ         -0.358738        0.735442       -0.602968
LJ          -1.66436        -1.71764         1.88376
LJ           1.64636        0.816844         1.31134
LJ          -1.47152          2.1448        -1.03367
LJ          -2.46255        -2.47261        0.290258
LJ         -0.762443        -1.40795       0.0802549
LJ           1.99609         2.45336         2.43224
LJ           1.08449     -0.00901661        -1.44367
LJ          0.510092        -1.22754         1.06644
LJ          -1.69444         1.53499         1.82194
LJ          -1.31302         1.02704        -1.45091
LJ        -0.0670059        -2.46408         1.92105
LJ          0.319706        -2.21487        -2.19282
LJ           1.32019        -2.02984        -2.04493
LJ           1.17369        -1.89751         1.65981
LJ          -1.88316         -1.4154       -0.243246
LJ          -1.37039         1.24981        0.666217
LJ          -2.03984        -1.49847        -1.30045
LJ           2.35422         1.65841         1.51563
LJ          -1.12839        -1.00221         1.03921
LJ           1.67284         2.24993      -0.0498077
LJ         -0.504346       -0.239073         2.55196
