108
#Comment!
LJ           2.56276        -2.22488         2.32601
LJ          -1.68311        -1.65928         2.50825
LJ          -2.27252        -1.57798        -1.72213
LJ          -1.72232        -2.50503        -1.74762
LJ          -0.73936         2.34872         2.52972
LJ        -0.0287577        -1.82963        -2.44074
LJ           -1.1796         -1.5102        -1.82691
LJ        -0.0190183         2.29958        -1.87353
LJ          0.867534        -2.47895        -2.56356
LJ           1.70994         -1.6643         2.50978
LJ          0.885771        -1.84846        -1.68538
LJ           1.95267         2.46811        -1.79534
LJ          -2.53433       -0.825819         2.34742
LJ          -1.84198       0.0282524        -2.54463
LJ           2.49593        0.048826        -1.81933
LJ          -1.78319       -0.629071        -1.67197
LJ          -1.10927        -0.73875        -2.44513
LJ        -0.0824698       -0.182066        -2.40101
LJ          -1.01262       -0.010325        -1.69879
LJ          0.024343        -1.05478        -1.76641
LJ          0.960141        -1.00732        -2.54469
LJ            1.6084     -0.00767406        -2.52233
LJ            1.0027        0.136774        -1.71043
LJ           1.60607       -0.622461        -1.68046
LJ          -2.45637         1.00622        -2.54139
LJ          -1.68296         1.99492         2.35586
LJ          -2.51921         1.57653        -1.61502
LJ          -1.70988        0.800478        -1.81167
LJ         -0.572739        0.918548         2.43262
LJ          0.171776          1.6566         2.43149
LJ           -1.1851         1.60589        -1.85295
LJ         0.0932509         1.19265        -1.88161
LJ          0.897286        0.925422         2.51879
LJ           1.81868         1.75586         2.52971
LJ          0.938611         1.73461        -1.87822
LJ           1.72332        0.956175        -1.65962
LJ          -2.55436         2.35939       -0.822377
LJ          -1.48864        -1.72413        -0.83292
LJ          -2.20381        -1.80791       -0.132768
LJ          -1.73056         2.46314        0.121776
LJ         -0.585161        -2.49769        -1.04338
LJ         0.0428596        -1.60646       -0.806117
LJ         -0.748357        -2.03522       -0.102529
LJ         -0.137346         2.30574       0.0390031
LJ           0.84669        -2.51099       -0.799544
LJ           2.05594        -1.69544       -0.985953
LJ          0.777264        -1.80336        0.306484
LJ           1.69406         2.53069      -0.0425877
LJ          -2.26763       -0.974743       -0.764166
LJ          -1.93705      -0.0361161       -0.795293
LJ          -2.41687       0.0884782        0.133703
LJ          -1.67254       -0.720933       0.0588298
LJ           -0.7421       -0.793195       -0.785128
LJ        -0.0881118       0.0660294        -1.08403
LJ         -0.719255     -0.00199854      -0.0873216
LJ           0.07389       -0.657531       0.0416806
LJ           1.01618        -1.19048       -0.857139
LJ           1.89831       -0.128798       -0.604924
LJ          0.904768       0.0933693        0.132166
LJ           2.00905        -1.01771      -0.0492961
LJ           2.44673        0.953065       -0.791093
LJ          -1.55575         1.74824       -0.842093
LJ           2.36908         1.67156      -0.0386051
LJ          -1.82321        0.998934        0.278297
LJ          -1.04852        0.717268       -0.867624
LJ         0.0936427         1.69168       -0.951678
LJ          -0.84325         1.52777       -0.295532
LJ        -0.0826413        0.829544       -0.171688
LJ           1.11177        0.794372        -0.89456
LJ           1.63284         1.71254        -0.68628
LJ          0.772367         1.81064       -0.165166
LJ           1.74753        0.843203      -0.0640611
LJ           2.35976         2.34597        0.730563
LJ          -1.30375        -1.82769        0.707208
LJ          -2.55702        -1.51103         1.51992
LJ          -1.90594         -2.3875         1.48671
LJ         -0.731568         2.48746        0.963763
LJ        -0.0425573        -1.50198        0.963886
LJ          -0.85027        -1.77174         1.91504
LJ         0.0693932        -2.33825         1.77983
LJ          0.706509         2.52447        0.999458
LJ           1.68917        -1.60625        0.906332
LJ           0.93735        -1.71162         1.68794
LJ            1.7938        -2.55419         1.59468
LJ          -2.45981       -0.816285        0.749997
LJ          -1.51685      -0.0576353        0.834883
LJ           2.42712     -0.00656718         1.72703
LJ          -1.76121       -0.729593         1.60886
LJ         -0.862841        -0.94977         1.07136
LJ          0.246608       -0.192995        0.997283
LJ         -0.952979          0.1089          1.8555
LJ          0.216229       -0.880859         1.78755
LJ          0.872149       -0.850987        0.774491
LJ           1.81606       -0.204382        0.621426
LJ          0.669827       0.0268955         1.95326
LJ           1.54615       -0.844443         1.63953
LJ           2.17656        0.863884        0.865449
LJ          -1.63445         1.94666         0.99887
LJ           2.42465         1.69972         1.60845
LJ          -1.87183        0.786732         1.44856
LJ         -0.767754        0.834992        0.617255
LJ          0.401016         1.52489        0.856287
LJ          -1.01206         1.42952          1.6129
LJ         0.0962657        0.827013         1.52917
LJ           1.13623        0.674576         1.03055
LJ           1.44987         1.75283        0.624124
LJ            1.0382         1.54954         1.72122
LJ           1.84549        0.915195         1.89549
