108
#Comment!
LJ          -2.55061        -2.28255         2.33086
LJ          -1.73874        -1.64745         2.49025
LJ          -2.25744        -1.53997        -1.68224
LJ          -1.75031        -2.51299        -1.60165
LJ         -0.723407         2.40738         2.49685
LJ          0.013855        -1.82614        -2.50556
LJ          -1.17662        -1.52656        -1.74029
LJ        -0.0802451         2.25851        -1.84474
LJ          0.836643        -2.54293         2.52334
LJ            1.7752        -1.62008         2.49027
LJ          0.886628        -1.88028        -1.66601
LJ           1.97865         2.39253        -1.87162
LJ           2.55335       -0.888486         2.32695
LJ          -1.79233        0.124226         2.54965
LJ            2.4261       0.0962436        -1.78378
LJ          -1.84668       -0.562627        -1.65142
LJ           -1.0614       -0.829368        -2.39367
LJ        -0.0262561        -0.30285         -2.4482
LJ          -1.03929       0.0517572        -1.72631
LJ        -0.0536915        -1.07719        -1.68592
LJ          0.861254       -0.973347        -2.55522
LJ           1.64216      0.00452601        -2.54016
LJ          0.922914        0.169682        -1.72609
LJ           1.61218       -0.746381        -1.65661
LJ          -2.48243        0.916088        -2.51757
LJ          -1.66959         1.95055         2.41296
LJ          -2.54072         1.63408        -1.61239
LJ          -1.71078        0.907389        -1.79945
LJ         -0.547421        0.910592        -2.54622
LJ          0.142025         1.57753         2.38857
LJ           -1.1579         1.62668        -1.81095
LJ          0.179315         1.13399        -1.77478
LJ          0.907834        0.923271         2.52723
LJ           1.78421         1.69844         2.46662
LJ          0.967277         1.83532        -1.88149
LJ           1.72649         1.10677        -1.68135
LJ           2.51973         2.34697       -0.682465
LJ          -1.46905        -1.77887       -0.750792
LJ          -2.34713        -1.74031        -0.06807
LJ          -1.73996         2.36544        0.107232
LJ         -0.640341        -2.49621        -1.04342
LJ         0.0397397        -1.59185       -0.778498
LJ          -0.82044        -2.03739       -0.136769
LJ         -0.171954          2.2691       0.0468372
LJ           0.88068        -2.51311       -0.804898
LJ           2.01615        -1.72478        -1.00684
LJ          0.798938        -1.81796        0.375827
LJ           1.74001         2.54508       -0.106316
LJ          -2.35282        -0.90341        -0.77112
LJ          -1.86107       0.0239704       -0.733937
LJ          -2.48376        0.168931        0.135313
LJ          -1.57341       -0.667463         0.10773
LJ         -0.738591       -0.860066       -0.789008
LJ         -0.122124       0.0442157        -1.03696
LJ         -0.732731      0.00582631      -0.0612872
LJ         0.0469022       -0.659547       0.0120712
LJ           1.02964        -1.25315       -0.834882
LJ            1.8843       -0.154501       -0.569428
LJ          0.876722       0.0467424        0.138529
LJ           2.03051        -1.07804       -0.039497
LJ           2.49363        0.944598       -0.793901
LJ          -1.62796         1.75895        -0.87842
LJ           2.35554         1.65475      -0.0657213
LJ          -1.85973        0.989802        0.215654
LJ          -1.05876        0.707286       -0.863729
LJ         0.0402813         1.69685       -0.901999
LJ         -0.879418         1.59394       -0.275702
LJ        -0.0772743        0.870826       -0.208773
LJ           1.03203        0.834104       -0.807311
LJ           1.66473         1.69463       -0.728534
LJ          0.754608         1.88978       -0.195128
LJ            1.7641        0.776294      -0.0742557
LJ           2.44585         2.40975        0.729361
LJ          -1.26023         -1.8136        0.764686
LJ           2.51666        -1.35781         1.49285
LJ          -1.91184        -2.34152         1.47778
LJ         -0.818149         2.46736        0.926847
LJ         0.0648466        -1.47727        0.979054
LJ         -0.851904        -1.80828         1.88588
LJ         0.0325751        -2.42604         1.78657
LJ          0.693277         2.37269         1.06965
LJ             1.694        -1.67896        0.896431
LJ          0.964253        -1.73353         1.68743
LJ           1.77264        -2.47006         1.62374
LJ          -2.48037       -0.702811        0.710213
LJ           -1.5539      0.00200288        0.812072
LJ           2.45993      -0.0242943         1.69505
LJ          -1.80185       -0.722629         1.72148
LJ         -0.855951       -0.982099         1.06131
LJ          0.201674       -0.265524        0.954045
LJ         -0.967716          0.1873          1.8769
LJ           0.21426       -0.927583         1.79144
LJ          0.959844       -0.845576         0.77822
LJ           1.74587       -0.122876         0.73586
LJ          0.601054       0.0445858         2.01805
LJ           1.48771       -0.798104         1.75688
LJ           2.25097        0.904163        0.830307
LJ          -1.61631         1.85404          1.0003
LJ            2.4182         1.71501         1.55414
LJ          -1.87281        0.851154          1.4449
LJ         -0.763232        0.776534        0.616617
LJ          0.330569         1.52549        0.802962
LJ         -0.913715         1.39521         1.59031
LJ         0.0228424        0.868688         1.53653
LJ           1.15439        0.650065        0.991501
LJ           1.49831         1.70188        0.619336
LJ          0.992998         1.54016          1.6914
LJ           1.73422        0.883792         1.92994
