108
#Comment!
LJ             2.385        -2.51392        -2.53016
LJ          -1.67738        -1.82262         2.48526
LJ          -2.50013        -1.73762        -1.66285
LJ          -1.86425         2.51202         -1.7482
LJ         -0.854746        -2.54218         2.48921
LJ         -0.134694        -1.86573        -2.52657
LJ         -0.900507        -1.54825        -1.65805
LJ         0.0734673         2.38729        -1.79711
LJ          0.903126          2.5121        -2.37505
LJ           1.72474        -1.69742        -2.50678
LJ          0.796459        -1.52096        -1.51788
LJ           1.92951        -2.47645        -1.60729
LJ           2.45651       -0.918484        -2.48728
LJ          -1.64462        0.110671         2.53882
LJ          -2.41927         0.12423        -1.81337
LJ           -1.8307       -0.906187        -1.58507
LJ          -1.02211       -0.916383         2.53235
LJ        0.00467465      -0.0515548         2.53596
LJ         -0.780399         0.12848        -1.76782
LJ         0.0981039       -0.825012        -1.76282
LJ           1.03423        -1.01265        -2.53211
LJ            1.7888        0.130539         2.47819
LJ          0.707223        0.143073        -1.61199
LJ           1.57402       -0.865982        -1.73377
LJ          -2.50032        0.925394         2.45603
LJ          -1.80367         1.88104          2.4965
LJ           2.55675         1.59804        -1.79688
LJ          -1.72054         0.87459        -1.77372
LJ         -0.628215         1.02158         2.29275
LJ          0.135456         1.66226         2.37721
LJ         -0.794731         1.63917        -1.71376
LJ        -0.0797675        0.859324        -1.74193
LJ          0.792933        0.842515        -2.44621
LJ           1.75392         1.80779        -2.52617
LJ          0.983951         1.72771        -1.53114
LJ           1.74582        0.844818        -1.74901
LJ            -2.452         2.55587       -0.851164
LJ          -1.54278         -1.7938       -0.653875
LJ          -2.55788        -1.78679      -0.0860302
LJ          -1.76437          2.4333      0.00439153
LJ          -0.74399         2.52402       -0.812214
LJ        -0.0452785        -1.73344       -0.882818
LJ         -0.747405        -1.78088       0.0690389
LJ         -0.131551         2.37601      -0.0399413
LJ           1.00481        -2.55528       -0.901139
LJ            1.6758        -1.71593       -0.796074
LJ           0.76477        -1.85885        0.115856
LJ           1.65924        -2.42407      -0.0888459
LJ          -2.52698       -0.977615       -0.786581
LJ          -1.90476        0.156479       -0.733605
LJ           -2.5573       0.0010786        0.024893
LJ          -1.73566       -0.736147      -0.0937508
LJ         -0.876358        -0.70966       -0.801341
LJ       -0.00189616       0.0760146       -0.733425
LJ         -0.847795     -0.00333332       0.0626752
LJ         -0.104816       -0.749334       -0.106297
LJ          0.787658       -0.752015       -0.828565
LJ           1.86218       -0.124188       -0.884082
LJ          0.926245       0.0379749       -0.134543
LJ           1.74865       -0.987068      -0.0339636
LJ          -2.50391         1.14444       -0.683665
LJ          -1.63842         1.70124       -0.962342
LJ           2.51063         1.72583        0.138179
LJ          -1.86739        0.944845       0.0711915
LJ          -0.87111        0.818516       -0.837726
LJ        -0.0153311          1.7097       -0.839301
LJ           -0.9661         1.63624       -0.218481
LJ         -0.100613          1.0012      -0.0660508
LJ          0.706514        0.914341       -0.842265
LJ           1.94433         1.81305       -0.965975
LJ          0.729602         1.89341       -0.137193
LJ           1.76122        0.826431      -0.0972127
LJ           2.45753         2.48516        0.985215
LJ          -1.52596        -1.81169        0.993161
LJ           2.53528        -1.64555         1.71465
LJ          -1.87719         2.46706         1.59705
LJ         -0.818783         2.55074        0.812834
LJ         0.0801658        -1.69347        0.832918
LJ         -0.893728        -1.64695         1.76554
LJ           0.10253        -2.48541         1.74209
LJ           1.06003         2.55814        0.990808
LJ           1.95245        -1.61557        0.814714
LJ          0.879531        -1.66548         1.64901
LJ           1.63072        -2.51333         1.89169
LJ           2.49093        -0.71545        0.872709
LJ           -1.8642       -0.010517        0.917341
LJ          -2.54014     0.000189177         1.87848
LJ          -1.85928       -0.847265         1.64935
LJ         -0.664857       -0.796483         0.75659
LJ        -0.0128929      -0.0660225        0.844255
LJ         -0.767126       0.0759774         1.82075
LJ         0.0419219       -0.942622         1.65276
LJ          0.864689       -0.935378        0.884086
LJ           1.59165     0.000839173        0.675901
LJ          0.781939      -0.0790635         1.82567
LJ           1.69117        -0.85548         1.64644
LJ           2.44806        0.763297        0.749943
LJ          -1.59727         1.79829        0.824862
LJ           2.50626         1.68294         1.70183
LJ          -1.68144        0.752502         1.63599
LJ         -0.892676        0.641623        0.832616
LJ         0.0243555         1.69454        0.816084
LJ         -0.797792         1.73748          1.4689
LJ         0.0302783        0.915562         1.54052
LJ            0.8753        0.854686         1.06772
LJ           1.74643         1.80303        0.810821
LJ          0.976432         1.73588         1.88149
LJ           1.72225        0.959064         1.64884
