108
#Comment!
LJ           2.27415       -0.847944         1.77017
LJ         -0.566697       -0.657717       -0.678885
LJ           1.33614        -1.59052        -1.33421
LJ          -1.13479         1.21789       -0.939612
LJ          0.573636       -0.230601        -2.33438
LJ           2.13049        0.100242         0.53863
LJ         -0.204932        0.476948         -2.0725
LJ          -1.19926        -2.40801         -2.0672
LJ          -2.04723        -1.70501        -2.02644
LJ           2.12391         2.07924       -0.610668
LJ           2.28073          1.3719         1.79731
LJ          -1.72107         2.34464        0.588942
LJ           1.54921       -0.692529         1.03542
LJ        -0.0413067       -0.419626         1.97683
LJ         -0.924006         -1.8464         2.22166
LJ         -0.528951         2.39131         0.59362
LJ         -0.826413        0.108806       0.0763931
LJ          -1.86283        0.515509        -1.73579
LJ          -1.04579       -0.394087         2.39654
LJ          -2.42674         2.35963         1.47169
LJ           1.38298        0.603536        -1.66754
LJ          -1.16696         1.47759        0.394459
LJ          -2.39607         -2.2953       0.0072433
LJ           -2.5503       -0.913802        0.702255
LJ           2.41034         1.76872        0.682721
LJ           0.28241        -1.18291        -1.82768
LJ           2.20843        -1.02409        -1.19814
LJ          0.507609         2.52104        -1.51569
LJ        -0.0225315        0.937838        -1.03856
LJ          0.493107         1.27366        -2.18658
LJ         -0.408361         1.88648        -1.73943
LJ         0.0993594         1.07092         0.14905
LJ         -0.773659        0.609693         2.19081
LJ          -1.18675        -2.20006       -0.234487
LJ          -1.02417         2.48076         1.56132
LJ           1.87852         1.29098      -0.0516324
LJ          -2.37066        -1.32839       -0.438715
LJ          -1.76314       -0.578268         1.46989
LJ          -0.77556         2.00688         2.47559
LJ           1.03203      -0.0224157       0.0965861
LJ           0.10299         1.90373         1.96761
LJ          -1.57911         1.32561        -2.32688
LJ           1.41578        -1.77634         1.00027
LJ          -1.11765        0.336837         1.00686
LJ           1.55433       -0.704012        -1.83633
LJ           1.29319        0.969371         2.12298
LJ          -2.01627         2.50476        -1.44295
LJ          -0.46814        -1.51295        0.413139
LJ          -1.82116        0.633983       -0.452908
LJ          0.840693       -0.583043       -0.756623
LJ          0.295655        -1.42601       -0.853188
LJ          0.981427        0.564064       -0.724694
LJ           1.52604         2.54493        -1.58614
LJ         -0.738799       -0.718371         1.30276
LJ          -2.40555          1.5488        -1.52896
LJ           1.27007        -2.55467       -0.649444
LJ           1.52696       0.0240657         2.38205
LJ        -0.0732481        0.278824        0.970868
LJ           1.92092      -0.0345277       -0.579374
LJ           2.47729        0.748626        -1.01267
LJ            1.0106        -1.85197        -2.35549
LJ          -1.94301        -2.50548         2.37028
LJ          0.436867       -0.751418         1.13089
LJ           1.76486        0.920787        0.909404
LJ          -2.23427        -1.85423         1.06367
LJ         -0.457074         1.19729         1.30165
LJ          -2.02658         0.12253         0.48824
LJ          0.724706         2.04295        0.506533
LJ         -0.569635         2.06663       -0.362044
LJ           2.30746         -2.1659        -1.02802
LJ            0.3617        -2.33095         1.27435
LJ          0.978551       -0.920453         2.06938
LJ           1.74657         -2.2078         1.88224
LJ         -0.612627        -2.23037        -1.17784
LJ          -1.24525        -1.34282       -0.772626
LJ          -1.98607         1.09062        0.834599
LJ           2.29644        0.323658         1.56152
LJ          0.184734       -0.113157         -1.2891
LJ          -2.18642       -0.368579       -0.893748
LJ          0.516492         1.77466       -0.775712
LJ          0.292355        0.644018         2.03146
LJ          -1.79197        0.576191         1.90212
LJ           1.10746         2.38731         2.34144
LJ           1.54246         1.46217        -1.12332
LJ           1.95036        -1.46585         2.55347
LJ          -1.62565          1.6781         1.73657
LJ            0.6012         1.10318         1.04863
LJ          -1.56985       -0.845171        0.397431
LJ          -1.26094        -1.76539         1.03982
LJ           2.32678        -2.56101        -2.31745
LJ           1.72038          2.4247         0.35979
LJ         -0.424572       -0.485989        -2.01772
LJ          0.108048       -0.529436        0.153982
LJ           2.48838        0.364009        -2.48385
LJ         0.0590592        -2.37751        -2.39766
LJ           1.41825         2.00074          1.4437
LJ          -1.01835        -1.36857        -1.90274
LJ           2.55532       -0.589447        -2.06267
LJ           1.69858         1.47118        -2.16491
LJ         -0.851178        0.115304         -1.2397
LJ         0.0411626        -1.41973         2.27195
LJ         0.0894764        -2.26707       -0.242143
LJ           1.19524        0.246119         1.45787
LJ          -1.93833        -1.42099         2.06321
LJ          0.631513        -1.37426        0.307342
LJ          -2.10031         1.58687       -0.381459
LJ           -1.5909       -0.651827        -1.73322
LJ           1.72738        -1.20641        0.176986
