108
#Comment!
LJ         -0.940303        -1.74245        -2.36132
LJ         -0.190954         1.20797         2.27495
LJ           1.98452        0.978885         2.14132
LJ          -2.40555         2.24403        -2.54948
LJ          -0.48291       0.0206679      -0.0525175
LJ          -2.22842         1.11747        -2.40305
LJ         -0.140398      -0.0702015         2.52199
LJ           1.94037        -0.57311       -0.526714
LJ           2.35007        0.184672        0.267586
LJ           1.54825         1.11804        0.256632
LJ           0.29642        -1.89648       -0.145384
LJ           1.25016       -0.490851        -1.43349
LJ         -0.396142        -2.46082        -1.71106
LJ         -0.821944       -0.417238        0.795181
LJ          0.450303        -2.25978        -1.27498
LJ          -2.03116         2.47188        0.749566
LJ          -1.70227       -0.543186         2.26661
LJ           1.11477        0.444364         1.76568
LJ          0.289195       -0.642331        -1.74991
LJ          0.910574         2.28003         1.43054
LJ          -2.30146        -1.62716        -2.34098
LJ         -0.188769        0.326561         1.47708
LJ          -2.27904         1.15284       -0.245311
LJ         0.0419675         2.07026       -0.231518
LJ          -1.82346       -0.479667         1.15771
LJ           1.94852        -1.36612        0.402466
LJ           2.47572         2.39223        -0.24939
LJ          -1.54678         2.54467         1.79045
LJ           1.64322        -2.33151        0.855324
LJ          -1.49892        -2.36391         -1.7465
LJ           -1.0089        -2.29645        0.227815
LJ          -2.30887       -0.302862       -0.952292
LJ           2.19816          1.8643         1.61373
LJ          0.901907         -1.7859        -2.25851
LJ           1.72864       -0.107894         2.40334
LJ          -1.45754          1.9283       -0.116892
LJ         0.0199624        -1.24309         2.50221
LJ          0.855477         1.35745         2.22927
LJ          -2.25647       -0.711434       0.0593178
LJ            -1.544        0.464817       -0.786488
LJ           1.10638        0.352797        -2.09338
LJ          -1.73354         1.32391        -1.38053
LJ          -2.40378         2.09011        -1.22168
LJ          -1.34741        0.590454         2.31059
LJ          -1.87593        0.483317         1.26448
LJ         -0.527401         2.13453         1.95228
LJ          -1.26529         1.87886        -2.44351
LJ          -2.01307         1.63594         1.85643
LJ           2.21362       -0.293609        -1.78378
LJ           1.47607         -2.1785         2.10901
LJ         -0.554638        -1.10842      0.00121275
LJ         -0.102164         2.45654        0.984047
LJ          0.443013        0.099949       -0.320408
LJ           1.43298        0.457539       -0.708498
LJ           1.14498          2.0935        -0.26132
LJ          -1.84006         -2.2853       -0.714494
LJ          -1.39152        -1.39684       -0.597033
LJ             1.896       -0.120962          1.3596
LJ          -1.72455        -1.59892          1.9187
LJ          -1.26496       -0.452769        -1.08756
LJ           1.64668        -1.38177         1.37359
LJ          0.219293         1.45943        0.825398
LJ           1.89578         1.48879        -1.97152
LJ          -0.85467         1.78693        0.800476
LJ           2.53718        -1.51666       -0.634914
LJ         -0.835101         1.88291         -1.2271
LJ          0.146904         1.81146        -1.94894
LJ         -0.504169        0.236637        -1.32874
LJ           1.23313         2.12722        -1.29206
LJ         -0.950887        0.931107        -1.93058
LJ         -0.760392         1.23108       -0.446704
LJ          -2.04382        -1.70086        0.272108
LJ           1.00224        -1.11337        0.113598
LJ          0.569502          1.2105       -0.145273
LJ          -2.48764        -1.20384         1.15323
LJ          -2.55471        0.673424        -1.16557
LJ           2.04148         1.48539       -0.782921
LJ          -1.19366        -1.49017        0.985227
LJ          -1.69701        0.206282        0.271345
LJ          0.751989       -0.459365          2.4443
LJ          -2.38024        0.167563         2.31042
LJ          -1.95067          1.4978        0.753838
LJ          0.149863        0.800132        -2.01236
LJ          0.172288        -1.63523         1.01914
LJ           1.13269        -1.58023       -0.994492
LJ         -0.735077        -1.29333        -1.50797
LJ           1.00252         1.17196        -1.46684
LJ            1.0435         2.25867        -2.40271
LJ          0.227614       -0.894375       -0.787379
LJ          -2.08039       -0.833111        -1.79202
LJ         -0.440977        -1.96672         1.74789
LJ         -0.840533        0.623417         0.64601
LJ          0.770534       -0.785811         1.61694
LJ          -1.69121        0.173193        -1.93319
LJ         -0.454025        -2.30576       -0.692181
LJ           1.31607       -0.131187        0.180765
LJ           1.62897        -2.10426       -0.198484
LJ           2.10642        -1.40214        -1.51583
LJ          0.633272        0.472238        0.835302
LJ         -0.822365        -1.00581         1.95008
LJ           2.30248       -0.836379         2.03899
LJ          0.266221        -2.47481         2.38072
LJ          0.303448        -0.58474        0.678473
LJ           2.55167        -2.06983         1.66694
LJ         -0.957116         1.12045         1.53412
LJ           1.96013        -2.29687        -2.09049
LJ         0.0411754         1.24112        -1.05487
LJ           2.32202        0.905582         1.14129
