108
#Comment!
LJ            2.5019        -2.51929         2.50232
LJ          -1.66953        -1.85498         2.55786
LJ           2.50353        -1.70515        -1.59912
LJ           -1.8877         2.52949        -1.82836
LJ         -0.905958        -2.54161         2.32465
LJ         -0.213331         -1.8506         2.55976
LJ         -0.964162        -1.56866        -1.71375
LJ          0.105901         2.39576        -1.75117
LJ          0.874181         2.52717        -2.42549
LJ           1.71272        -1.68546        -2.56326
LJ          0.829952          -1.561        -1.56456
LJ           1.90803        -2.49418        -1.57797
LJ            2.5051       -0.881722          -2.547
LJ          -1.62724        0.172602         2.47043
LJ          -2.49349         0.19821        -1.85279
LJ          -1.84867       -0.787399         -1.4916
LJ          -1.14194       -0.938215         2.55692
LJ         0.0389557      -0.0922989         2.50701
LJ         -0.855616        0.132005        -1.73398
LJ         0.0595668       -0.841743        -1.73879
LJ          0.942779        -1.07716        -2.52868
LJ           1.68504        0.136972         2.50996
LJ          0.705089        0.133684        -1.62336
LJ           1.61227       -0.916841        -1.76301
LJ           2.53989        0.947126         2.50322
LJ          -1.71727         1.91337         2.47104
LJ           -2.5549         1.59553        -1.83138
LJ          -1.66877        0.874415        -1.75658
LJ         -0.717077         1.01692         2.32009
LJ         0.0836196         1.70748         2.40415
LJ         -0.806341         1.60776        -1.66851
LJ        -0.0708906        0.819078        -1.79901
LJ          0.761465         0.86398        -2.43833
LJ           1.80137         1.90285         -2.5572
LJ           0.99037         1.74561        -1.52112
LJ           1.77438         0.83094         -1.7099
LJ          -2.42241         2.55782       -0.807342
LJ          -1.50834        -1.72826       -0.639519
LJ          -2.55648        -1.73394      -0.0580511
LJ           -1.7068         2.46069     0.000694948
LJ         -0.778571          2.5115       -0.872517
LJ         0.0668586        -1.69206       -0.874371
LJ         -0.762128        -1.70713        0.173786
LJ         -0.236854         2.35794      -0.0137889
LJ           1.01163        -2.47918       -0.936657
LJ           1.62409        -1.68955       -0.753232
LJ          0.635785        -1.94522       0.0400038
LJ           1.69167        -2.40396      -0.0596456
LJ           2.53234       -0.951363        -0.75522
LJ           -1.8734        0.155056       -0.766493
LJ           -2.5538       0.0106149      -0.0108943
LJ          -1.71916        -0.70672       -0.121231
LJ         -0.829329        -0.75806       -0.886193
LJ         0.0175888       0.0996389       -0.809421
LJ          -0.87808       0.0193274       0.0403442
LJ         -0.113155        -0.71259       -0.084326
LJ          0.696606       -0.866855       -0.807988
LJ           1.86105      -0.0916778       -0.825409
LJ          0.852366       0.0947175       -0.129724
LJ           1.77728        -1.01393        -0.05442
LJ          -2.45386         1.07317       -0.762049
LJ          -1.59397         1.74029        -1.02781
LJ           2.54399         1.68943         0.05081
LJ          -1.87984         0.90391        0.116166
LJ         -0.922535        0.800623       -0.897665
LJ         0.0100829         1.71792         -0.8594
LJ         -0.905966         1.52741       -0.213872
LJ        -0.0291335          1.0503      0.00169355
LJ          0.741748         0.96212       -0.746158
LJ           1.89955         1.74432       -0.897631
LJ          0.821922         1.88616       -0.115995
LJ           1.75187        0.868723      -0.0951776
LJ           2.46952         2.51516         1.00091
LJ          -1.50272        -1.81367         1.00055
LJ           2.52131        -1.57669         1.75971
LJ          -1.92391         2.45423         1.64134
LJ         -0.753283         2.51723        0.827996
LJ          0.112648        -1.69789        0.877431
LJ         -0.973078        -1.69236         1.82057
LJ         0.0643269        -2.54533         1.76478
LJ           1.12981        -2.55165         1.02621
LJ            1.8921        -1.54106        0.893017
LJ          0.859155        -1.67247         1.68351
LJ           1.57558        -2.44875         1.84851
LJ           2.50518       -0.668177        0.897506
LJ          -1.83145       0.0271178        0.868998
LJ            -2.552      -0.0100493         1.92855
LJ          -1.70845       -0.848268         1.65574
LJ         -0.677641       -0.851667         0.82886
LJ       -0.00768571       -0.116768        0.850668
LJ         -0.794587       0.0645359         1.84415
LJ         0.0942217       -0.929576         1.60067
LJ          0.904902       -0.892141        0.893602
LJ           1.56687     -0.00885204        0.634269
LJ           0.78246      -0.0496318          1.8387
LJ            1.7344       -0.897897          1.6838
LJ           2.39533        0.736514        0.769847
LJ          -1.55908         1.86443        0.826867
LJ           2.52664         1.67052         1.72892
LJ          -1.62428        0.770787         1.65537
LJ         -0.893069        0.643505        0.836366
LJ       -0.00305301         1.69565            0.83
LJ         -0.780278         1.76172         1.43905
LJ        -0.0145391        0.882188         1.63689
LJ          0.809706        0.877251         1.00051
LJ            1.7665         1.72643        0.825157
LJ           1.01585         1.69882         1.85161
LJ           1.70336        0.905439         1.67127
