108
#Comment!
LJ           2.51572        -2.43534         2.54826
LJ          -1.74832        -1.66024         2.42809
LJ           2.52155        -1.73162        -1.71355
LJ          -1.82423        -2.43297         -1.6598
LJ         -0.814619         2.53718          2.4792
LJ         0.0169837        -2.04225        -2.50063
LJ           -1.0811        -1.49844        -1.59655
LJ         0.0288203         2.29403        -1.74176
LJ          0.956038         2.47545         2.50927
LJ           1.72538        -1.81929         2.53193
LJ          0.934251        -1.78017        -1.77718
LJ           1.89484        -2.55007        -1.67674
LJ           2.48743       -0.843882         2.55033
LJ           -1.9015      -0.0500293         2.54684
LJ           2.50075        0.147445        -1.98411
LJ          -1.73097        -0.52883        -1.49552
LJ          -1.17288       -0.816761        -2.45905
LJ         0.0299941       -0.184742        -2.49917
LJ         -0.727576       0.0649079        -1.80939
LJ         -0.100887        -1.16485        -1.93181
LJ          0.858034        -1.12301        -2.55431
LJ           1.63899        0.017235        -2.51737
LJ          0.826384       0.0937442        -1.79426
LJ           1.68377       -0.750074        -1.68214
LJ          -2.42695         1.01173         2.47405
LJ          -1.68253         1.93355        -2.54522
LJ          -2.51433         1.69728        -1.65856
LJ          -1.59879        0.818756        -1.83632
LJ         -0.641385         1.05638         2.50625
LJ          0.159642         1.80355         2.48362
LJ         -0.895462         1.64026        -1.74605
LJ         0.0461438         1.02954        -1.83732
LJ          0.969275        0.936802         -2.5503
LJ           1.92947         1.83072         2.48282
LJ          0.911561         1.86406        -1.63743
LJ           1.67256        0.895509        -1.69164
LJ           2.34181          2.3808       -0.761007
LJ           -1.5243        -1.77685        -0.77175
LJ          -2.43006         -1.8533       -0.068125
LJ          -1.61199         2.52548      -0.0269726
LJ         -0.855016        -2.56248        -1.09836
LJ          0.140954         -1.7201       -0.891499
LJ         -0.539157        -1.77587       -0.020936
LJ          -0.22849          2.3854        0.066183
LJ          0.892635        -2.51218       -0.878717
LJ           1.76662        -1.72695       -0.946073
LJ          0.659007        -1.95369        0.118231
LJ           1.68147        -2.36701      -0.0286274
LJ          -2.52855       -0.943954       -0.676228
LJ          -1.92437        0.116212       -0.750868
LJ          -2.55613        0.105576        0.059197
LJ          -1.69851       -0.941716      -0.0184808
LJ          -0.62371       -0.896265       -0.668928
LJ        -0.0808785         0.26706        -1.02153
LJ         -0.773692       -0.100232      -0.0625738
LJ          0.153841        -0.72986        0.236663
LJ          0.815401       -0.961369       -0.628528
LJ           2.05198       -0.090132       -0.875088
LJ          0.680387       0.0826226      -0.0243358
LJ           1.74509        -1.01261          -0.134
LJ          -2.47304         1.05059       -0.872789
LJ          -1.55764         1.79574       -0.827147
LJ           2.37375         1.76321       0.0778924
LJ          -1.98433        0.974265        0.120172
LJ          -1.06985        0.649109        -0.95619
LJ         0.0609814         1.84112       -0.880031
LJ         -0.800545         1.53406      -0.0952473
LJ        -0.0208071        0.880792       0.0182853
LJ          0.745471        0.962949       -0.669626
LJ           1.59014         1.63501       -0.917653
LJ          0.788899         2.00745        -0.10386
LJ           1.67938        0.814134       -0.201315
LJ           2.45684         2.38309        0.852223
LJ          -1.41853         -1.8427        0.731976
LJ           2.54167        -1.60866         1.79552
LJ          -2.00936        -2.48502         1.65198
LJ         -0.681213          2.5384         1.13871
LJ          0.157053        -1.63438         0.90501
LJ         -0.887386        -1.78186         1.72393
LJ          0.119329        -2.34843         1.71292
LJ          0.875379         2.29868        0.923232
LJ           1.97442        -1.56044        0.707357
LJ          0.968399        -1.77591         1.73186
LJ           1.68988         -2.5044         1.66936
LJ           2.47617       -0.601985        0.945441
LJ          -1.73742       0.0617796        0.796112
LJ            2.5189      -0.0263451         1.78244
LJ          -1.88673       -0.795285         1.71815
LJ         -0.732201       -0.880011         1.02979
LJ        -0.0132582      -0.0570099        0.982346
LJ         -0.847237          0.1812         1.94172
LJ          0.222335       -0.939609         1.85475
LJ           1.03648        -1.02978        0.716085
LJ           1.59207       -0.193959        0.731507
LJ           0.85542       0.0500312         1.93388
LJ           1.55296       -0.885082         1.78509
LJ           2.34925         0.70476        0.811743
LJ          -1.42964         1.99602        0.804956
LJ           2.47997         1.65658         1.59847
LJ          -1.79344        0.944172         1.60957
LJ         -0.857339        0.656576        0.850223
LJ           0.26397         1.48845        0.739979
LJ         -0.841853         1.61301         1.58664
LJ       -0.00890855        0.823085         1.56985
LJ          0.981057        0.793853         0.84342
LJ           1.56894         1.68166         0.56995
LJ          0.856606         1.60278          1.7234
LJ            1.8862        0.821241         1.77692
