108
#Comment!
LJ         -0.694995         1.71785        0.960295
LJ            2.1559         2.18697        -1.51988
LJ          -1.02465        0.515374         -2.0152
LJ          0.133155        -2.07237        0.499941
LJ         -0.660325        -1.29712        0.696721
LJ          -2.11897         2.06392        -2.18975
LJ          -1.56017       -0.626295        0.791835
LJ        -0.0686978       -0.681863         1.19376
LJ         -0.765591        -2.41725       0.0295392
LJ          0.298928        0.267489         1.31688
LJ           1.47322       -0.534333       -0.645358
LJ           2.22832        -1.07661         1.89802
LJ          -2.09867        -1.43912         1.32263
LJ           2.21025         -0.5012        0.254042
LJ          -2.30148       -0.233174        -0.56863
LJ           1.41178         -1.8536       -0.192533
LJ         -0.941554        -1.23801         1.58165
LJ           1.01037        0.426184        -2.27193
LJ            1.3366       -0.441755        -1.96094
LJ          -1.36731         1.48018        -2.54117
LJ          -1.63322       -0.222068        -2.36768
LJ           1.51589         1.25203       -0.724851
LJ           2.34678        0.983478        0.945073
LJ          -2.03345        -2.04066        -2.22351
LJ          0.158094       -0.356438        -1.51856
LJ          -1.62706        -2.16237        -1.01574
LJ         0.0555623         -1.3607        -1.26972
LJ           1.12239       -0.389543        0.372816
LJ           2.03636        0.449121       -0.262066
LJ         -0.690528       -0.826182        -2.50544
LJ          -1.05201        -1.78113        -1.74547
LJ          -1.37875         1.35998        -1.44801
LJ          0.598706        -1.43236         1.10857
LJ          -1.68648         0.53937       -0.313603
LJ          -1.38817        -2.54188         2.10183
LJ          -1.82302         2.41291        0.170414
LJ           -1.6998        -1.28957          2.4165
LJ         -0.415684        -2.44943         2.51952
LJ           2.30218       -0.481558        -1.47759
LJ         -0.835878        0.146135         1.08143
LJ          -2.44276        0.966482        -1.00112
LJ          -1.22316         2.40296        -1.78764
LJ         -0.478737         1.45002         1.92484
LJ         -0.146654       -0.244147        0.134304
LJ         -0.946207        0.524462         2.11977
LJ           1.81963         1.62034        -2.27524
LJ         -0.122422       -0.245357         2.02299
LJ          -1.12077       -0.530416       -0.269803
LJ           -2.5331        -2.15931       -0.375158
LJ           1.21769        -1.45861        -1.10015
LJ          0.738228       -0.726381         2.33491
LJ           1.57243       -0.683586          1.1689
LJ          -2.25229         0.17062        0.588492
LJ         -0.546619         1.71574        -1.00863
LJ          -1.34514          1.6121       -0.333666
LJ           -2.4435         1.45328       0.0425104
LJ          0.693155         1.70906        -2.40289
LJ         -0.800822        0.382917        -1.00477
LJ          0.811861         1.10719         1.89938
LJ         -0.148331        0.876479        -1.45032
LJ           -1.8828        -1.45508       0.0758576
LJ           1.14449         2.17075         1.64656
LJ          0.226942        -2.28208        -1.81732
LJ          -2.03452            2.03         1.18617
LJ          -1.84203        -1.16573        -1.16791
LJ           2.08629        -2.15306        -2.35023
LJ           2.12347         1.76727         1.85604
LJ          -2.24519        0.863327        -2.24742
LJ           1.02008        -2.42351         2.47976
LJ              2.03         2.14331       -0.511198
LJ           2.04707        0.758573         2.34212
LJ         -0.510889         -2.2287       -0.931972
LJ          0.551872        -2.30228       -0.707907
LJ          -2.45189        -2.43418         2.00313
LJ          0.486789        -1.16898       -0.163667
LJ          -0.20009         1.83694        -2.06993
LJ          -2.10927         1.99961       -0.888771
LJ          0.416507        -1.61371         2.09121
LJ           1.22704        0.665245          0.4777
LJ         -0.779738        -2.32144         1.14552
LJ          -1.74822       -0.363683         1.83273
LJ          0.429159        0.565813       -0.262549
LJ            1.4097        -1.48549        -2.07299
LJ            2.3832      -0.0555267         1.50711
LJ           1.91764        0.627873         -1.7431
LJ          0.457847         1.79382       -0.373069
LJ           1.53475        0.555543         1.40279
LJ           2.06496         2.28538        0.760574
LJ           1.58136        -0.12574         2.17778
LJ         -0.557412        0.892981      -0.0270331
LJ          -2.01766        0.213572         -1.5126
LJ          0.194022        -2.53426         1.56793
LJ          0.650023         2.23955         0.62153
LJ          0.255404         1.15743        0.820086
LJ           1.23381        -2.43112        -1.62061
LJ          -1.49972        0.866509        0.765003
LJ         -0.866516       -0.614147        -1.43748
LJ           2.22124        -1.78564        -1.41299
LJ           1.58169         1.63269        0.198845
LJ        0.00368805        0.545051        -2.51431
LJ           1.59685        -1.76621         1.44133
LJ           2.45237       -0.261924         2.55116
LJ          0.569565         1.77247        -1.39069
LJ         -0.676635        -1.38086       -0.333551
LJ          -1.95776        0.619557         1.89716
LJ            2.4844        -1.17382        -2.23317
LJ           2.17794        -1.53418        0.575575
LJ          0.911989        0.465589         -1.2692
