108
#Comment!
LJ         -0.227277        -1.99736        -2.05958
LJ           2.24761        -0.60227        0.473015
LJ         -0.107278        0.562167       -0.267409
LJ          -2.06486         2.28588         2.11436
LJ           2.20584        -2.31402       -0.910608
LJ          0.206469         2.54998         1.85123
LJ          -1.10853       -0.107257       -0.450947
LJ           -1.4655      -0.0191133         1.79625
LJ          -1.18254        -1.88606        -1.39802
LJ          0.507648         2.46357        -2.02933
LJ          -1.99827       -0.991836        0.057237
LJ         -0.553538        0.627454         2.26439
LJ         -0.680714         1.46843       -0.695709
LJ           2.50441        0.713034         -1.9752
LJ            1.8396        -1.41931        -1.40191
LJ           1.22539        0.212336        0.458681
LJ           1.21019         2.04819       -0.794304
LJ          0.918755       -0.090657        -1.77268
LJ          -2.24986         1.65871        -2.02503
LJ          0.445604        0.913534        -2.17843
LJ          0.559298         -1.4191        -1.37415
LJ          -1.69906         1.00888         2.38235
LJ          -2.28242        0.432544        -1.01633
LJ          0.697688         0.77471         1.92127
LJ           1.44241        0.844032        -1.93274
LJ           2.22992           2.028        0.652328
LJ           1.63925        -2.42754          1.6407
LJ          -1.61856       -0.900449         -0.9372
LJ          0.886935         1.67448         2.36675
LJ          0.749269       -0.903879        0.325862
LJ         -0.173303         0.60392         1.31372
LJ         -0.494956         1.23485        0.470773
LJ         -0.765478         2.53091       -0.315829
LJ          -2.17412       0.0395496        0.154994
LJ          -2.46486        -1.85954         1.92527
LJ            -2.312        0.046551         2.35889
LJ          -1.88623        -1.96777       -0.413422
LJ           2.01635         -0.7652         1.86173
LJ          -1.56369        -2.17175        -2.47065
LJ         -0.193143        -1.08356        0.974586
LJ          -1.23761        -1.23596         1.57688
LJ           -1.4191       -0.483221        0.800753
LJ          -1.83562         2.03561      -0.0296715
LJ           1.33887          2.3675        0.346191
LJ           1.13375        -2.07997        -0.61472
LJ         -0.297592        -1.70859       -0.630771
LJ         -0.657743        -1.02944        -1.40497
LJ           1.09549         1.83477         1.19276
LJ           1.23779       -0.872502       -0.669519
LJ           2.32562         1.06423         1.00146
LJ         -0.549026       -0.272259         1.60851
LJ          -2.41049        -2.07378         0.65921
LJ         -0.673416         1.72869          1.5185
LJ         -0.898109          2.3434        -1.73791
LJ          -1.24801        -1.93101        0.633638
LJ          -2.56052        -2.25529         -2.1373
LJ          -1.91453         -2.5521        -1.19703
LJ        0.00277883       -0.188409        -1.31266
LJ          -2.40873        -1.11725         1.22583
LJ          -1.24535        0.774541        0.885083
LJ           0.82582        -1.90287        0.716998
LJ           1.77051          -1.601         2.44526
LJ           1.69588        0.214989         1.40212
LJ           2.04063        0.324273       -0.202692
LJ          -1.96636         1.42569         1.43181
LJ           0.92763         -1.2045         1.58044
LJ          -1.20007        -1.07605        -2.33448
LJ         -0.129047         1.54258         2.47946
LJ           2.37454         1.91764       -0.523702
LJ          0.755285        0.429204       -0.651417
LJ           1.90559         1.94042          -1.475
LJ           2.03419         -1.4639       -0.130314
LJ          -2.41045        0.106615         1.10608
LJ          0.227814         1.75413       -0.246573
LJ            -1.774          1.5358        -1.07115
LJ           1.56515         1.27589        0.167538
LJ          0.304184       -0.155432         2.52648
LJ          -0.96336        -1.12627      -0.0632914
LJ          -2.02983        -0.92584         2.28454
LJ           2.18496        -0.68062        -2.09995
LJ           2.48474        -0.93664       -0.835966
LJ          -1.01645      -0.0723486        -2.26137
LJ          -1.10147         2.22476        0.665838
LJ          0.720351       -0.198748         1.15677
LJ          0.191754         1.37558        -1.18855
LJ         -0.720342         2.38648         2.23549
LJ          -2.47983         1.09163       -0.136651
LJ           1.73454        -1.47066        0.911928
LJ           1.37928        -2.23072        -1.76675
LJ         -0.160821       -0.324112        0.431272
LJ         -0.323147         -2.0546        0.954469
LJ           2.16413         2.03937         2.46684
LJ          0.737811        -1.85081         2.53544
LJ         0.0898994         2.09537        0.751707
LJ           1.08112        -1.01242         -2.1571
LJ          -1.41595        0.862178       -0.170206
LJ         -0.753878         1.11766        -1.85308
LJ          0.579861        0.952844        0.552139
LJ           0.13388       -0.852449       -0.421842
LJ           1.89895      -0.0399165        -1.37939
LJ          -1.35999        -2.30045         1.58977
LJ           1.74464         1.09675       -0.839977
LJ         -0.465986        -1.78794         1.90246
LJ           1.56216         0.11195         2.50671
LJ          -2.00836       -0.330716        -1.74312
LJ           1.70377         1.05117         2.07828
LJ        -0.0805586         2.42869         -1.2207
LJ          -2.01741        -1.37757        -1.84503
