108
#Comment!
LJ          -2.49606        -2.27448        -2.54736
LJ          -1.68219        -1.50256         2.54694
LJ          -2.43087        -1.55263        -1.72382
LJ          -1.70053        -2.44574        -1.75198
LJ         -0.821421         2.36094          -2.459
LJ         -0.142115        -1.49636         2.49905
LJ         -0.812961        -1.44716        -1.92981
LJ          0.134379         -2.5425        -1.84685
LJ           1.07632        -2.51228        -2.50327
LJ           1.59173        -1.47647          2.4518
LJ           1.06833        -1.77018        -1.74911
LJ           1.95196        -2.55145        -1.63166
LJ           2.53379       -0.744186        -2.45164
LJ          -1.91874      -0.0313411         2.29403
LJ           2.55735       0.0414409        -1.63394
LJ           -1.5908       -0.587017        -1.60214
LJ         -0.760628       -0.690342           2.495
LJ         0.0690643      -0.0300407          -2.323
LJ         -0.732968       0.0668078        -1.75819
LJ         0.0793795       -0.912357        -1.55213
LJ          0.703796       -0.999534        -2.53711
LJ           1.72353        0.085403        -2.42911
LJ          0.870283        0.246935        -1.63287
LJ           1.43832       -0.693454        -1.54279
LJ          -2.56341        0.901689        -2.36417
LJ           -1.7766         1.89873         2.47679
LJ          -2.45288         1.69699        -1.52059
LJ          -1.53646        0.669197        -2.03233
LJ         -0.494317        0.855405         2.50422
LJ         0.0557895         1.86715         2.44987
LJ          -1.18709         1.59715        -1.71583
LJ         -0.174015        0.983592        -1.65865
LJ           1.01386         0.99068        -2.50689
LJ           1.76053         1.96358        -2.55076
LJ          0.955977         1.86901        -1.84367
LJ           1.73378         1.19817        -1.82028
LJ           2.55631        -2.42444       -0.635412
LJ          -1.41903        -1.57218       -0.793736
LJ          -2.27031        -1.62483       0.0269948
LJ          -1.66098         2.44725        0.370615
LJ         -0.705461        -2.53084        -1.04444
LJ          0.035628        -1.86565       -0.707023
LJ          -0.74182        -1.86079       0.0546375
LJ         0.0720415          2.4431       0.0691818
LJ           1.01709        -2.47642       -0.950206
LJ           1.90486        -1.52546       -0.895726
LJ          0.741139        -1.98324        0.226663
LJ           1.69048        -2.49813       0.0012966
LJ          -2.28831       -0.807629        -0.72419
LJ          -1.82839        0.267564        -0.92177
LJ          -2.40341      -0.0311538       0.0138004
LJ          -1.59711       -0.625743       -0.108626
LJ         -0.731098       -0.789085       -0.803398
LJ       -0.00154911      -0.0326832       -0.825066
LJ         -0.641652      -0.0785875       0.0624403
LJ       -0.00641866        -1.08948       0.0703159
LJ          0.924588        -1.14852       -0.645831
LJ           1.92979       -0.296427       -0.571069
LJ          0.815976       0.0515668       0.0352587
LJ           1.91278        -1.05909        0.177732
LJ           2.35974        0.795714       -0.719664
LJ          -1.79642         1.66272       -0.639404
LJ           2.37567         1.62044        0.022816
LJ          -1.80207        0.971332        0.114523
LJ         -0.848266        0.846016       -0.907067
LJ        -0.0226213          1.7712        -0.95424
LJ         -0.789999          1.7164       -0.129974
LJ          0.177818         0.93979       -0.185458
LJ          0.858159         1.00615       -0.980461
LJ           1.71952         1.72544       -0.812549
LJ            0.8321         1.82435       -0.161514
LJ           1.71437          0.6922       0.0515766
LJ           2.46457         2.40622        0.764993
LJ          -1.48006        -1.82168        0.882564
LJ           2.42341        -1.46055         1.65035
LJ          -1.95182        -2.44889         1.67094
LJ         -0.717811         2.44357         1.00773
LJ         -0.146392        -1.56223          1.0117
LJ         -0.919497        -1.64521         1.79655
LJ        -0.0169061        -2.30791          1.7686
LJ          0.838603           2.493        0.895182
LJ           1.56129        -1.64189        0.977241
LJ          0.742151        -1.55426          1.6616
LJ           1.61882         2.55645         1.54556
LJ           -2.3833       -0.748899        0.881228
LJ          -1.82875        0.217337        0.789087
LJ           2.32873       0.0714356         1.67478
LJ          -1.61291       -0.815864          1.6805
LJ         -0.955083       -0.918841        0.882803
LJ         0.0631263      -0.0634998        0.892298
LJ           -1.0223      -0.0342198         1.57397
LJ         0.0147006       -0.700701         1.79464
LJ          0.929439       -0.928978        0.488515
LJ           1.65435       -0.208261        0.839106
LJ          0.949967      -0.0593392         1.71548
LJ           1.54705       -0.837865         1.71215
LJ           2.32264        0.939341         1.07766
LJ          -1.90332         1.63236        0.956146
LJ           2.44109         1.89106         1.60779
LJ          -1.69738        0.825367         1.66807
LJ         -0.965942        0.843146        0.939062
LJ          0.253294         1.48552        0.762634
LJ         -0.730415         1.46465         1.69986
LJ          0.175156        0.693953         1.63565
LJ           1.17508        0.683325         1.10673
LJ           1.56926         1.71185        0.781649
LJ          0.866069         1.80101         1.63523
LJ           1.73224        0.901226         1.93919
