108
#Comment!
LJ           1.44837        0.794847         1.45503
LJ         -0.444654         1.22415        0.179733
LJ          -1.00712       -0.269558         1.38548
LJ          0.626314         -2.0576        -1.23549
LJ         -0.274282         2.38812        0.609242
LJ          -2.21241          2.1484        -1.83075
LJ         -0.314091         -2.0658         1.45985
LJ        -0.0833006       -0.237803         1.94789
LJ           0.27136         -2.3276       -0.237457
LJ          0.772047         -0.8449        0.908046
LJ           2.09418         1.92754        -0.83015
LJ          -1.45737         2.46748         1.18723
LJ          -1.53993       -0.750835         2.18792
LJ           1.68744       -0.438784       -0.428868
LJ          -1.24848        -0.74723       -0.748129
LJ         -0.809897         2.33889          1.9845
LJ         -0.533539         -1.2862         2.15167
LJ           1.06916         1.22566       -0.394542
LJ           1.15411        -0.97103         2.48312
LJ          -1.76219        0.386977        0.827292
LJ          -1.53255        0.641626         1.95434
LJ           2.29208        0.383178        -1.71566
LJ           1.90049        0.561079       -0.796928
LJ               2.1        -2.11737        -1.52139
LJ           1.23063        0.678934        -1.71503
LJ         -0.489997        -2.39277        -1.10341
LJ       -0.00045138         1.03573       -0.608598
LJ          0.721721       -0.238797        0.100937
LJ           2.33298         1.49515      -0.0167426
LJ          0.608108        0.037606        -2.33819
LJ          -1.18449        -1.44038        -2.01057
LJ         -0.272544         2.26853        -1.98014
LJ           1.38472        -1.42252        0.113074
LJ          -2.26364       -0.234555       -0.558497
LJ         -0.372002         1.47264         2.38758
LJ         -0.805773        -1.83815        0.396205
LJ          -2.29501       -0.143232          1.7417
LJ          -0.74474         1.82982        -1.23618
LJ           2.32824         2.06809           2.285
LJ         -0.238244        -0.92159         1.11174
LJ          -2.50688       -0.563054        -2.44586
LJ         -0.970377         1.98925        -0.16714
LJ          0.370666          1.0838        0.878224
LJ           0.25994         -1.1557       0.0812928
LJ          0.420406       0.0910908         1.00646
LJ          -2.32216        -2.40972       -0.704331
LJ           2.35712       -0.837187        -1.41143
LJ          -1.45952        0.188314       -0.217129
LJ          -0.32432        -1.41483       -0.831018
LJ          0.804545        0.173254        -0.80063
LJ           1.17512        -0.25379          1.6378
LJ           1.87813       -0.511365        0.859553
LJ          -2.19078       -0.528909        0.703152
LJ           1.39583        0.558976        0.369901
LJ          -1.71578         1.90028       -0.820901
LJ          -1.60866         1.19182        0.118912
LJ           1.47439        -2.47222         1.80422
LJ         -0.333354     -0.00790342       -0.978737
LJ           1.82182       0.0849373         2.36932
LJ            1.3453       -0.326015        -1.67359
LJ          0.255688       -0.776818        -1.37676
LJ         -0.912259         1.58555         1.15914
LJ         -0.167929        -1.87876        -2.03275
LJ           -1.6689        -2.35554        0.199845
LJ          -0.47622       -0.433648        -2.02224
LJ           -2.3528        -1.29516         1.61518
LJ          -2.13145         -1.8619        -2.18443
LJ          -1.30318        -2.45849         -1.7491
LJ           1.36337        -2.48168        0.372644
LJ          -2.36917         1.86285        0.777493
LJ           1.97599        -1.66237         2.49948
LJ          0.578143        -2.02662        0.864939
LJ          0.578486         1.57564        -2.28454
LJ          -1.52558        -1.83559         1.98875
LJ           1.55833        -1.93341       -0.688345
LJ           -0.9503        0.881716       -0.801585
LJ          -1.31344        -1.80622       -0.571205
LJ          0.406815        -1.29086         1.75175
LJ           1.81691         1.86356         1.33466
LJ          0.480019         0.77259         2.11515
LJ          -2.54959        -1.21076       -0.475089
LJ           1.76423         1.64389        -1.83336
LJ          -1.22403        0.438324        -2.09753
LJ          -2.26036          1.1331       -0.980696
LJ          -1.80274          2.3779         2.41013
LJ           2.45831        0.939985         1.07481
LJ            1.4518         1.62655         2.35823
LJ          -1.41706         1.61104        -2.31274
LJ           2.41036        0.281321        0.171608
LJ         -0.789569       -0.527009        0.385421
LJ           1.27546         1.59504        0.570099
LJ          0.655816         1.89745         1.35965
LJ          -1.89526        -1.53678        0.567229
LJ           1.55427        -1.44609         1.40977
LJ          0.208158         1.95975        -1.12724
LJ         -0.362406        0.629466         1.37114
LJ          -1.89327       -0.157852        -1.46554
LJ          -2.08462         1.02933        -2.00765
LJ           2.40458        -2.50698         1.39358
LJ         0.0342292        0.900273        -1.73125
LJ          -1.13094        -1.33761          1.2109
LJ           2.44019         1.13084         2.08738
LJ           1.03124         2.26047       -0.646669
LJ          0.294857        -2.55489         2.31526
LJ         -0.162018        0.288237        0.189254
LJ          -1.97517        -1.39507        -1.34545
LJ            2.2021        -1.86981        0.614112
LJ           1.17611         2.51479        -2.20093
