108
#Comment!
LJ          -2.52339         2.32661        -2.43696
LJ          -1.96332        -1.80826         2.55196
LJ           2.49616        -1.76482        -1.60749
LJ          -1.60323         2.53221        -1.75105
LJ         -0.856336        -2.32109          2.4896
LJ         0.0117494        -1.68519        -2.42451
LJ          -0.72485        -1.69399        -1.70534
LJ         -0.105456         2.55977        -1.20924
LJ          0.990738         2.55951         2.33017
LJ           1.90212        -1.99326         -2.3913
LJ          0.774829        -1.49488        -1.72242
LJ           1.66805         2.42348        -1.56855
LJ          -2.39219       -0.655112        -2.37144
LJ          -1.37407       0.0813685         -2.4346
LJ           2.34384       -0.122192        -1.57752
LJ          -1.67048        -1.31694        -1.59841
LJ         -0.736741       -0.752047        -2.43327
LJ          0.149983       0.0978736         2.43478
LJ          -0.76108        0.232026        -1.62236
LJ         -0.105411        -0.87775        -1.54805
LJ            1.2153        -1.24468         2.33736
LJ           1.79166        0.187317        -2.49249
LJ          0.599086       0.0150785        -1.76555
LJ           1.73999       -0.888608        -1.99285
LJ          -2.47457        0.876636         -2.2682
LJ          -1.48977         1.93748         2.48234
LJ           2.46481         1.60724        -1.61482
LJ          -1.44959        0.910013         -1.7187
LJ         -0.734558        0.841883         2.52202
LJ          0.177921         1.91221         -2.5486
LJ         -0.834546         1.79542        -1.79681
LJ        -0.0169097         1.03586        -1.90901
LJ          0.818756        0.839316         2.56089
LJ           1.49242          1.6637        -2.24756
LJ          0.691393         1.76671        -1.50247
LJ           1.33807        0.790148        -1.58279
LJ          -2.50405        -2.42554       -0.835157
LJ          -1.38844        -1.75213       -0.630171
LJ          -2.43941        -1.72758      -0.0853488
LJ          -1.82086         2.38196       -0.118572
LJ          -1.04663         2.36597       -0.751398
LJ         -0.185613        -1.61441       -0.919157
LJ         -0.244603         -1.6436        0.109724
LJ         -0.117558         2.36495       -0.232739
LJ          0.862172        -2.43419       -0.909586
LJ           1.56716        -1.61584       -0.953567
LJ          0.851992        -1.92569        0.287492
LJ           1.73535        -2.40605       -0.193099
LJ           2.47977       -0.905583       -0.848113
LJ          -1.78147      -0.0853897        -1.32325
LJ           2.50953      -0.0845339       -0.258098
LJ          -1.70774       -0.962136      -0.0249251
LJ         -0.771829       -0.624907       -0.467446
LJ         -0.116363       0.0718016        -0.83087
LJ          -1.27328       0.0113706        0.309837
LJ         -0.263716       -0.273604        0.411031
LJ          0.875674       -0.739879        -1.02345
LJ           1.48037       -0.107629       -0.771459
LJ          0.781913        0.110335       -0.180521
LJ           1.60096        -1.06842       0.0357959
LJ            2.5019        0.693458        -1.05462
LJ          -1.77869         1.73731        -1.01807
LJ           2.30802         1.73712        0.179296
LJ          -1.84991        0.940501       -0.132919
LJ         -0.954001        0.602036       -0.431615
LJ         -0.384566         1.50543       -0.882863
LJ         -0.957505         1.54863       0.0144371
LJ         0.0373974        0.853929      0.00839504
LJ          0.649337        0.890265       -0.905779
LJ           1.79361         1.64928       -0.876472
LJ          0.815826         1.82926       -0.169531
LJ           1.52133        0.896215     -0.00706953
LJ          -2.32967         2.50679         0.70418
LJ          -1.44073        -1.94255        0.543543
LJ           2.49607        -1.66742         1.69292
LJ          -1.69326        -2.23248         1.56825
LJ         -0.648494        -2.49651        0.923215
LJ        -0.0161837        -1.74277         1.31313
LJ         -0.719389        -1.53569         1.87808
LJ          0.074992         2.44804         1.68773
LJ          0.904678         1.99805        0.830638
LJ           1.96494        -1.72561        0.762222
LJ           1.10549        -2.17751         1.36232
LJ           1.92092         2.31727         1.77761
LJ           2.50238       -0.710355        0.658774
LJ          -2.04028       0.0982224         1.08063
LJ          -2.34458        0.194757         2.01662
LJ          -1.52714       -0.871938          2.1335
LJ         -0.970458        -1.09354         1.01818
LJ            0.3967       -0.130198         1.18455
LJ         -0.842186        -0.21994         1.49667
LJ        -0.0579762       -0.784049          1.8631
LJ          0.976654          -1.118         1.07272
LJ           1.65376        0.120584        0.735535
LJ           1.24299       -0.124206         1.89951
LJ           2.10422       -0.660067         1.54759
LJ          -2.33924         1.07997         1.11655
LJ           -1.5023         1.75914        0.985173
LJ          -2.22203         2.01633         1.77102
LJ          -1.54013         1.02293         1.87407
LJ           -1.1078        0.802049        0.906588
LJ         -0.169994          1.6149         0.79194
LJ         -0.839026         1.78742         1.72286
LJ        -0.0798737         0.78883         1.50847
LJ          0.822738        0.846309        0.883001
LJ           1.74486         1.47164        0.976362
LJ          0.839268         1.56049         1.79538
LJ           1.93574         0.97535         1.82042
