108
#Comment!
LJ          -2.52019       -0.522497        0.871834
LJ           2.13814        -1.86595        0.934332
LJ         -0.613351        -1.47238         1.56811
LJ           2.48487        0.457187       -0.207469
LJ           2.18285        0.347423         2.24579
LJ         -0.975446        -1.69338        -1.25573
LJ           2.33346       -0.589169         -2.4451
LJ          -1.75814        0.432599        0.538595
LJ          0.942214         2.46508         1.77436
LJ          -1.41561        0.132889         2.21076
LJ           1.36971      -0.0945789        -2.11337
LJ          0.187908         1.71321         1.88498
LJ         -0.317403       -0.303746        0.980712
LJ          -1.23948        -2.56436         1.53363
LJ           1.53788        0.297103          1.2856
LJ           1.95139       -0.420614       -0.133506
LJ          0.613892        -1.69874        -2.51358
LJ          -1.15043         1.10844       -0.110053
LJ          0.475067         2.39033        0.905305
LJ           0.23645       -0.237605       -0.179183
LJ           2.46219        0.770879         1.29548
LJ         -0.367186        -2.33688       -0.870201
LJ        0.00548165         1.83061       -0.190823
LJ           1.39038        0.551922       -0.556286
LJ          0.646827        -2.40613        -1.68603
LJ          -1.43866        -1.78247       -0.348253
LJ           1.80075          2.2005       -0.403864
LJ           2.12396       -0.911147        -1.49103
LJ           1.75859         2.32294         1.12722
LJ          -1.65812        -2.14322        -2.54971
LJ          -2.19861          1.5662          1.6389
LJ          -1.72097        -1.37958         1.41789
LJ           2.51825        -1.62833        -2.39498
LJ          0.432217       -0.629202         2.38624
LJ          0.191147        -0.61306        -1.26162
LJ          -1.36992        -0.97495         2.34789
LJ          -2.20763         2.39176        0.839013
LJ          0.125409        0.961904        -2.52036
LJ            1.4768        -1.26875          -2.487
LJ          -2.02927         -1.0767       -0.915013
LJ            1.6763        -1.84953        -1.27214
LJ          0.482417        -1.34794        0.458386
LJ           1.09679        0.625987         2.28979
LJ           -2.3472        0.452404        -1.79648
LJ            1.5341       -0.740691         1.01065
LJ         -0.063322        -1.66153        -1.62679
LJ           0.31365        0.105882        -1.97572
LJ           1.55545        0.792592        0.448363
LJ          0.574922       -0.460888         1.46914
LJ          -2.51496        -2.32441          1.8427
LJ          -2.18173       -0.340907         1.77587
LJ           1.20205         1.70737        0.357727
LJ           2.53882         2.44303        -2.28219
LJ           1.22184        -2.10862        0.206815
LJ           1.42198       -0.438676         2.02284
LJ          -2.28233         2.00327        -1.37858
LJ         -0.761819         2.03425        0.838228
LJ           1.02049        -1.08454        -1.54905
LJ         -0.835752       -0.601385       -0.802974
LJ          -1.92164         1.08774         2.45647
LJ        -0.0421895        -2.41351         1.66864
LJ          -1.33208         -2.1892        0.613237
LJ          -2.02789         1.33514       -0.593199
LJ          -1.79425        -1.38787         -1.8777
LJ         -0.726208        -0.82043        -1.94157
LJ          0.999021         1.01577        -1.79981
LJ           1.40594         1.37662         1.38384
LJ         -0.562427       -0.413857         2.28096
LJ           1.30298        -1.25558       -0.325625
LJ         -0.644961        0.368583        -2.15853
LJ          0.115109        -1.43539       -0.554108
LJ          0.441026        0.787207       0.0757504
LJ           1.59198        -2.28039        -2.48627
LJ            2.0477         1.25948        -0.94783
LJ          -2.39494        -2.05265         -1.4138
LJ         -0.428964        0.557325         1.76124
LJ          -1.60816          1.9527        -2.35191
LJ          -1.60538       -0.376345        -1.85121
LJ          -1.15575       -0.423454         1.37805
LJ         0.0497631          1.5008        0.727304
LJ         -0.621263        -1.82878         -2.4122
LJ         0.0312392        0.596317       -0.865596
LJ          -2.21293        -2.51317       -0.247303
LJ           2.07897          1.9341         2.04569
LJ          -1.46539         1.01883        -1.57686
LJ          -0.73279         1.51764        -2.25784
LJ           2.20172        -1.09411         1.71517
LJ           2.16546       0.0558225        -1.06873
LJ            1.0362       -0.113606        0.416539
LJ           2.19311        -1.85427        -0.25485
LJ          -1.63057        0.102067       -0.602088
LJ          -1.62181         1.57885        0.581371
LJ         -0.386493         2.45624        -1.91767
LJ          0.381591        -1.55591         1.47569
LJ         -0.579447        -1.07262        0.274886
LJ           2.46064         1.63095        0.156636
LJ          0.819958        -2.55981       -0.652236
LJ             2.235         1.37424        -2.16277
LJ             1.435        -1.82332          1.6722
LJ          -1.07362         1.38473         1.77289
LJ           1.06269         1.83739         -2.4938
LJ          0.910825         1.42067       -0.612935
LJ         -0.340016        -2.20922        0.212631
LJ          -1.25555         2.20656       -0.426878
LJ           1.48165         1.95641        -1.51707
LJ          0.579296         0.50317         1.37909
LJ          -1.70117       -0.787041        0.344607
LJ          0.370395         1.74925        -1.36958
