108
#Comment!
LJ           2.47041        -2.51424         2.54933
LJ          -1.67174        -1.82778          2.5407
LJ           2.55768        -1.70353        -1.63042
LJ          -1.87845         2.51303        -1.76185
LJ         -0.870196         2.52545         2.40044
LJ         -0.183635         -1.8615        -2.51725
LJ         -0.907407        -1.50822        -1.68711
LJ          0.105885         2.35644        -1.74547
LJ          0.870198          2.5174        -2.42435
LJ           1.67884        -1.67596        -2.55042
LJ          0.782314        -1.51773        -1.57355
LJ           1.91697        -2.46166        -1.58104
LJ           2.42451       -0.877015        -2.54124
LJ          -1.66124          0.1446         2.49204
LJ          -2.49019        0.174193        -1.83266
LJ          -1.84173        -0.86107        -1.53974
LJ          -1.10967       -0.968371         2.53491
LJ        -0.0109278      -0.0473556        -2.56061
LJ          -0.82666        0.169563        -1.76542
LJ         0.0898301       -0.812026        -1.74727
LJ          0.946096        -1.03982          -2.551
LJ           1.71958        0.178272         2.51265
LJ          0.734925        0.178772        -1.61744
LJ           1.58682       -0.807551         -1.7805
LJ           -2.5002        0.942616         2.48926
LJ          -1.80073         1.89274         2.51792
LJ          -2.55091         1.59104        -1.80534
LJ          -1.66678        0.902003        -1.76765
LJ         -0.680552        0.975396         2.24987
LJ          0.111293         1.70933         2.36449
LJ         -0.845148         1.59223        -1.67383
LJ         -0.055074        0.879605        -1.69693
LJ          0.716404        0.883177        -2.47417
LJ           1.76369         1.87619        -2.52719
LJ          0.973012         1.74051        -1.53757
LJ           1.78839        0.815177        -1.67843
LJ           -2.4622         2.55792       -0.854701
LJ          -1.53569        -1.77297       -0.613691
LJ          -2.53761        -1.75661      -0.0457465
LJ          -1.74185         2.41253     -0.00411661
LJ          -0.77179         2.51115       -0.822866
LJ         0.0245329        -1.70129       -0.871171
LJ         -0.796464        -1.73796        0.115657
LJ          -0.19245         2.37748        0.009745
LJ           1.02865        -2.52748       -0.875721
LJ           1.64922        -1.71932       -0.810501
LJ          0.698827        -1.88213       0.0567279
LJ           1.70483        -2.41918      -0.0908455
LJ          -2.56126       -0.886538       -0.773723
LJ          -1.88195        0.173707       -0.720988
LJ           2.55474      -0.0330993       0.0299339
LJ          -1.73032       -0.736986      -0.0802385
LJ         -0.867851       -0.774057       -0.827801
LJ       -0.00220157       0.0379164         -0.7704
LJ         -0.864857      0.00619478      -0.0282575
LJ        -0.0803458       -0.733777      -0.0978571
LJ          0.739398       -0.825555       -0.834463
LJ           1.83344       -0.108937         -0.8502
LJ          0.867734       0.0693659       -0.135261
LJ           1.79525       -0.982543      -0.0339942
LJ          -2.54098         1.10966       -0.771831
LJ          -1.62318         1.73351        -1.01506
LJ           2.54982          1.6862        0.100557
LJ          -1.90741        0.934617       0.0606672
LJ         -0.923754        0.810731       -0.847068
LJ        -0.0200178         1.75674       -0.861754
LJ          -0.94609         1.56336         -0.2049
LJ        -0.0793256         1.03383        -0.08739
LJ          0.755862        0.934654       -0.809334
LJ           1.95705         1.77721       -0.917417
LJ          0.749244         1.94086       -0.103048
LJ           1.74621        0.882745      -0.0752512
LJ           2.45693         2.49531          1.0174
LJ          -1.50483        -1.80098        0.986298
LJ           2.49368        -1.55962         1.73889
LJ          -1.89201         2.44191         1.67271
LJ         -0.829101         2.54592        0.760428
LJ           0.10143        -1.71614        0.874149
LJ         -0.953474        -1.65917         1.80455
LJ         0.0684023        -2.50441         1.74873
LJ           1.11372        -2.50661        0.987664
LJ           1.93139        -1.57628        0.851387
LJ          0.834131        -1.65994         1.69105
LJ           1.59435        -2.48728         1.82552
LJ           2.51749       -0.732405        0.876293
LJ           -1.8261        0.051919        0.882494
LJ          -2.56252      -0.0154847         1.89386
LJ          -1.78716       -0.860645          1.6456
LJ         -0.668026       -0.843894        0.751943
LJ        0.00533349      -0.0897886        0.842774
LJ         -0.739873        0.103591         1.81237
LJ         0.0374692       -0.907047         1.58678
LJ          0.879314       -0.868033        0.912786
LJ           1.59663       0.0176615        0.599597
LJ          0.765377      -0.0358019         1.89797
LJ           1.73522       -0.861903         1.70275
LJ           2.45103        0.694977        0.733024
LJ          -1.53238          1.8328        0.797369
LJ           2.52814         1.71842         1.72854
LJ           -1.6213        0.713372         1.66789
LJ         -0.907532        0.667264        0.807027
LJ        -0.0411202         1.71788        0.806148
LJ         -0.793677         1.73554         1.45069
LJ          0.013873        0.905013         1.57727
LJ          0.876452        0.919255        0.999975
LJ           1.79188         1.72387        0.847154
LJ          0.985384         1.75054         1.89274
LJ           1.69683        0.943242         1.66352
