108
#Comment!
LJ            2.5386        -2.56051        -2.55018
LJ          -1.68493        -1.84711        -2.50987
LJ           2.54976        -1.74179        -1.67291
LJ          -1.73912         2.55988        -1.74338
LJ           -0.8807         2.56275         2.51998
LJ        -0.0555447        -1.70044        -2.53483
LJ         -0.777797        -1.71742        -1.70471
LJ         -0.034957         2.56139        -1.60256
LJ          0.831495         2.53166         2.49494
LJ            1.7304        -1.80005        -2.48615
LJ          0.839277        -1.70558        -1.72146
LJ           1.70383        -2.55393        -1.71443
LJ           2.54414       -0.825453        -2.51767
LJ          -1.66503     -0.00120746        -2.48826
LJ           2.56207      -0.0636816        -1.66759
LJ          -1.65561        -0.83871        -1.67208
LJ         -0.840901       -0.733838        -2.54999
LJ         0.0385333      -0.0305828          2.5343
LJ         -0.893146        0.101551         -1.6684
LJ        -0.0526585       -0.913212        -1.77005
LJ          0.858254       -0.932285        -2.52185
LJ           1.66519        0.143215         2.52006
LJ          0.725186     -0.00988301        -1.74745
LJ            1.6608       -0.879716        -1.70081
LJ          -2.54357        0.836892        -2.52071
LJ           -1.7133         1.71613          -2.557
LJ           -2.5482         1.56831        -1.76864
LJ          -1.71139        0.831884        -1.66846
LJ         -0.790329        0.893992         2.48281
LJ        -0.0179046         1.65801          2.4606
LJ         -0.813069         1.67808        -1.78654
LJ         0.0148023        0.851618        -1.83183
LJ          0.883464        0.928832         2.53011
LJ           1.63703         1.68231         2.54016
LJ          0.928877         1.69796        -1.75814
LJ           1.65642        0.888216        -1.72241
LJ          -2.54779        -2.55493       -0.801384
LJ          -1.57066        -1.68613       -0.876235
LJ          -2.54379        -1.78829       0.0031078
LJ          -1.71718        -2.52793       -0.056746
LJ         -0.778803         2.53243       -0.822949
LJ       -0.00506213          -1.713       -0.908583
LJ         -0.804169        -1.73456       0.0175507
LJ         -0.132687         2.50963       -0.105749
LJ          0.960561         2.52213       -0.799304
LJ           1.63006        -1.74052       -0.877019
LJ          0.813396        -1.77622      -0.0137664
LJ           1.71709        -2.52462      -0.0348722
LJ           2.52352       -0.820674        -0.85066
LJ          -1.75369     -0.00708565        -1.00423
LJ           2.55732     -0.00901125       -0.105401
LJ          -1.70501       -0.880716      0.00459292
LJ         -0.849733       -0.789727       -0.792377
LJ         0.0744503      -0.0400089       -0.868297
LJ         -0.939974      -0.0146388        0.021735
LJ         0.0114049       -0.801519        0.046973
LJ          0.898413       -0.753736       -0.854785
LJ           1.70188       0.0060507       -0.868364
LJ          0.852886     -0.00931618      -0.0639246
LJ           1.65309       -0.907369       -0.142383
LJ          -2.54221        0.856552       -0.828946
LJ          -1.71744          1.7182       -0.874095
LJ           2.50281         1.66842      -0.0108908
LJ          -1.74447        0.972681        0.025884
LJ         -0.830989        0.812643       -0.766649
LJ         -0.107409         1.68717       -0.868273
LJ         -0.875247          1.6921       0.0272261
LJ        -0.0266936        0.863702        0.111803
LJ          0.908317         0.89912       -0.806295
LJ           1.74348         1.70502       -0.840373
LJ          0.868368          1.8056      -0.0649648
LJ           1.73664        0.857976       0.0542631
LJ           -2.4875        -2.50799        0.859382
LJ          -1.69643        -1.74197        0.785616
LJ           -2.5568        -1.70022          1.7125
LJ          -1.78854         -2.5485          1.6713
LJ         -0.761998        -2.50498        0.779447
LJ         0.0616909        -1.69277        0.884792
LJ          -0.85047        -1.72324         1.77801
LJ         0.0415857         2.55152         1.75696
LJ          0.919133         2.38178        0.906782
LJ            1.7144        -1.80173        0.877477
LJ          0.886572        -1.81005           1.578
LJ           1.81715        -2.54281         1.73506
LJ           2.55463       -0.762011        0.853184
LJ          -1.73642      0.00216334        0.911526
LJ          -2.55372       0.0449683         1.72908
LJ          -1.68854       -0.824614         1.77311
LJ         -0.888902       -0.867797         0.77447
LJ          0.103871      -0.0185763        0.916141
LJ         -0.780276      -0.0285171         1.63542
LJ        -0.0496186       -0.781184         1.67298
LJ          0.868931       -0.905817        0.831175
LJ           1.59547      -0.0606281        0.782527
LJ          0.788311      -0.0495036         1.69897
LJ           1.77203       -0.756127         1.67698
LJ          -2.47417        0.852753          0.8773
LJ          -1.65654         1.64783        0.933211
LJ          -2.56008         1.72724         1.77445
LJ          -1.69885        0.867636         1.70618
LJ         -0.864317        0.864735        0.852234
LJ         0.0229401         1.66668        0.844989
LJ         -0.857894         1.72116         1.68897
LJ        -0.0974309        0.781345         1.65885
LJ          0.826437         0.74367        0.787729
LJ           1.68427         1.59253        0.905215
LJ          0.850966          1.6542         1.76007
LJ           1.80113        0.817765         1.68994
