108
#Comment!
LJ          -2.43469        -2.28512         2.39918
LJ          -1.68653        -1.57071         2.39649
LJ          -2.24174        -1.56029        -1.62784
LJ          -1.57749        -2.42451        -1.80585
LJ         -0.789384          2.4598         2.52974
LJ         -0.125213        -1.75627         2.55963
LJ          -1.07792        -1.53057        -1.80296
LJ          0.156552         2.36685        -1.89158
LJ          0.953086        -2.53863         2.48555
LJ           1.71779        -1.57964         2.41824
LJ           1.00333        -1.82607        -1.69807
LJ           1.97179         2.39243        -1.82976
LJ          -2.50237       -0.766619         2.53848
LJ          -1.76074      -0.0441028         2.40866
LJ          -2.50837       0.0217919        -1.78177
LJ          -1.68388       -0.651146        -1.62489
LJ          -1.11337       -0.857176         -2.4907
LJ        0.00635208       -0.183537        -2.33033
LJ          -1.00198       0.0741002        -1.86511
LJ         0.0502456        -1.11086        -1.68403
LJ            0.8859       -0.882531         2.54745
LJ           1.70597     -0.00278658        -2.43754
LJ          0.873877        0.156783        -1.78116
LJ           1.61339       -0.651004        -1.69112
LJ          -2.46688         0.99363        -2.46519
LJ          -1.69263         2.01347         2.33523
LJ           -2.5176         1.59986        -1.56741
LJ          -1.70422        0.722875        -1.90051
LJ         -0.438605        0.793491          2.4304
LJ          0.165288         1.59281          2.3303
LJ          -1.23323         1.65884        -1.75673
LJ        0.00161321         1.10985        -1.84194
LJ           1.05317        0.938347         2.46478
LJ           1.87549         1.71693        -2.55009
LJ          0.947126         1.76461        -1.91569
LJ           1.59457        0.866796         -1.6679
LJ            2.5477         2.41605       -0.824258
LJ          -1.42903          -1.704       -0.850903
LJ          -2.23445        -1.75214      -0.0162998
LJ          -1.65136         2.55995        0.134915
LJ         -0.546352        -2.50455        -1.12703
LJ         0.0329783        -1.69236        -0.82288
LJ          -0.77945        -1.94475       0.0215935
LJ        -0.0358398         2.25744       0.0805521
LJ          0.763687         -2.5549        -0.91325
LJ           1.94179        -1.71452       -0.905691
LJ          0.806527         -1.8228         0.37516
LJ           1.75235        -2.49223       0.0243969
LJ          -2.35873        -0.86982       -0.811831
LJ          -1.92807      0.00134328       -0.884952
LJ          -2.45693       0.0043288       0.0764966
LJ          -1.69289       -0.690555       0.0579423
LJ         -0.671964       -0.846932       -0.821662
LJ         -0.202168      -0.0748375        -1.07316
LJ         -0.683081     0.000607665      -0.0341252
LJ         0.0425889       -0.822448        0.120363
LJ           1.04343        -1.26943       -0.874171
LJ           1.84415       -0.169161       -0.645534
LJ          0.992617        0.098383       0.0924453
LJ           1.91774       -0.972876       0.0196071
LJ           2.44629        0.854485       -0.822178
LJ          -1.61242           1.719       -0.837535
LJ           2.30842         1.60439        0.078097
LJ          -1.82884         1.02331        0.350991
LJ          -1.11419        0.721377       -0.933805
LJ          0.170104         1.70803        -0.86862
LJ         -0.835774         1.61032       -0.238296
LJ        -0.0406789        0.820272       -0.242059
LJ          0.999349        0.780178       -0.843378
LJ            1.6673         1.64275       -0.748809
LJ          0.888983         1.69758       -0.181853
LJ           1.62657        0.803564      -0.0318802
LJ           2.54256         2.36492         0.67473
LJ           -1.3591        -1.79137        0.840899
LJ           2.55683        -1.50824         1.62154
LJ          -1.96204        -2.30721         1.53429
LJ         -0.805252         2.45097        0.925642
LJ         -0.120903        -1.53586        0.932135
LJ         -0.866139        -1.73565          1.9491
LJ         0.0171049        -2.35458          1.7518
LJ          0.813622         2.45405        0.993703
LJ           1.64039        -1.55472        0.845597
LJ          0.850908        -1.64757         1.77169
LJ           1.78881        -2.45642         1.60368
LJ          -2.49417       -0.902948         0.74305
LJ          -1.48638      -0.0568151        0.772966
LJ           2.51264      -0.0684211         1.67151
LJ          -1.71895       -0.761333         1.64579
LJ         -0.893544       -0.887186         1.12093
LJ          0.178928       -0.127068        0.966634
LJ          -0.92406       0.0242441         1.78372
LJ          0.206477       -0.806758         1.75353
LJ          0.842648       -0.867832         0.65031
LJ           1.72901       -0.277423        0.736006
LJ          0.692157       0.0217555         1.82661
LJ            1.5901       -0.809687         1.69451
LJ           2.25783        0.900967        0.938014
LJ          -1.75718         1.79697        0.924717
LJ           2.50778         1.82662         1.71416
LJ          -1.92903        0.860947         1.44793
LJ          -0.85974        0.875536         0.62886
LJ          0.400442         1.55709         0.77861
LJ         -0.910682         1.35872          1.6521
LJ         0.0737867        0.941916         1.48451
LJ           1.13832        0.644753         1.03633
LJ           1.51828         1.63122        0.601633
LJ           1.11338         1.75013         1.75888
LJ           1.78813         1.04293         1.86692
