108
#Comment!
LJ            -2.545          -2.447         2.49701
LJ           -1.6802        -1.69016          2.3884
LJ          -2.50496        -1.66537         -1.6371
LJ          -1.67616        -2.38869        -1.77571
LJ         -0.874017         2.43611         2.47577
LJ         0.0479688        -2.03029        -2.47107
LJ          -1.02004        -1.50279        -1.58182
LJ          0.047801         2.21917        -1.64042
LJ          0.995427         2.37194        -2.49004
LJ           1.84757        -1.71525         2.56389
LJ           1.05869        -1.81338        -1.66317
LJ           1.93424         2.55863        -1.53981
LJ           2.42032       -0.878099         2.54137
LJ          -1.75982       0.0197904         2.54655
LJ           -2.5452        0.163172        -1.86685
LJ          -1.68768       -0.471855         -1.4725
LJ          -1.16273       -0.872261        -2.44343
LJ        -0.0226586       -0.212044        -2.36592
LJ         -0.786356       0.0319238        -1.67079
LJ         -0.127594         -1.0017        -1.80524
LJ          0.952378        -1.11218        -2.47178
LJ           1.69416       0.0503777        -2.54791
LJ          0.727942      -0.0129447        -1.69618
LJ           1.69376       -0.828137        -1.74638
LJ          -2.37828         1.09428         2.41674
LJ          -1.74495          1.8398         2.50013
LJ          -2.50167         1.71497        -1.64786
LJ          -1.52661        0.847463        -1.65193
LJ         -0.644701         1.12082        -2.50447
LJ          0.124808         1.80512        -2.55157
LJ         -0.860636         1.70732        -1.71836
LJ          0.046955        0.998037        -1.71412
LJ           1.02619        0.836966        -2.42556
LJ           1.84172         1.88489         2.52608
LJ          0.960432         1.71198        -1.64173
LJ           1.83107        0.875035        -1.78357
LJ           2.52814         2.35967       -0.650228
LJ           -1.5524        -1.89292       -0.725622
LJ          -2.39723        -1.79714       -0.120577
LJ          -1.72388         2.42632      -0.0994544
LJ         -0.672539        -2.48921       -0.953135
LJ          0.111933        -1.74181         -0.8933
LJ         -0.481986        -1.69333      -0.0287897
LJ         -0.269128         2.35673        0.193201
LJ          0.753533        -2.50362       -0.962934
LJ           1.76561        -1.63539       -0.949952
LJ          0.591768        -2.02469       0.0843799
LJ           1.70383        -2.30233      -0.0426159
LJ          -2.38338       -0.903888       -0.718636
LJ           -1.8121       0.0404014       -0.593632
LJ           2.46255       0.0434996       0.0497247
LJ          -1.63656       -0.867707       0.0431722
LJ         -0.576278       -0.805255       -0.764839
LJ        0.00860163        0.233911       -0.877404
LJ         -0.922664      -0.0898052      -0.0300249
LJ         0.0900029       -0.832146        0.237232
LJ          0.895301       -0.988629       -0.764098
LJ           1.89725        -0.15161       -0.812624
LJ          0.796666       0.0568428       -0.007925
LJ           1.63286       -0.911658       -0.121753
LJ          -2.39594         0.90596       -0.956866
LJ          -1.62728         1.76069       -0.869686
LJ           2.51493         1.65953        0.167837
LJ           -1.9525        0.982021      -0.0504148
LJ         -0.961209        0.736613       -0.808146
LJ        -0.0305178         1.63096       -0.806484
LJ         -0.811503         1.47904      -0.0694322
LJ        -0.0509205        0.846838       0.0802804
LJ          0.852922        0.924899       -0.629885
LJ           1.67968         1.64875       -0.898942
LJ           0.82856         2.03753     -0.00715984
LJ           1.71493        0.783803       -0.171236
LJ           2.41048         2.53896        0.855883
LJ          -1.46225        -1.69285        0.687712
LJ           2.47788        -1.52262         1.72024
LJ          -1.97267         2.49124         1.58193
LJ         -0.770277        -2.49246         1.18677
LJ          0.147898        -1.56085         0.91175
LJ         -0.893044        -1.62718          1.7301
LJ          0.115408        -2.32138         1.71097
LJ          0.964153         2.44065        0.851442
LJ           1.97628        -1.54723        0.710087
LJ          0.973176        -1.73383         1.68089
LJ           1.68347        -2.52352         1.64058
LJ           2.51571       -0.647401        0.993007
LJ          -1.66673      -0.0981543        0.907028
LJ           2.50058       0.0538519         1.91376
LJ          -1.69381       -0.977822         1.57154
LJ         -0.707041       -0.931704        0.983825
LJ         0.0405047     -0.00849383         1.06586
LJ         -0.853941        0.154234         2.08408
LJ         0.0586497       -0.927005         1.81161
LJ           1.05349       -0.990701        0.743484
LJ           1.65057       -0.157632        0.706213
LJ          0.741637      -0.0427003          1.8453
LJ           1.60092       -0.858002         1.70794
LJ           2.47021         0.74576        0.969915
LJ          -1.47628         1.85167        0.775808
LJ           2.46362         1.65501         1.56461
LJ          -1.62787        0.984911         1.56634
LJ          -0.97917        0.623745        0.808822
LJ          0.257481         1.53353          0.8038
LJ         -0.823299         1.60854         1.60773
LJ        -0.0721539        0.820441         1.55246
LJ          0.885185        0.665361        0.865937
LJ            1.7106         1.74806        0.711486
LJ          0.884343         1.56948         1.79455
LJ           1.81175        0.831359         1.76004
