108
#Comment!
LJ           2.49791        -2.48705         2.47057
LJ          -1.76841        -1.79954         2.44372
LJ          -2.46963        -1.68335        -1.54844
LJ           -1.7851        -2.49664        -1.86216
LJ          -1.01306          2.4575         2.45859
LJ        -0.0984743        -1.95585        -2.56332
LJ         -0.896235        -1.52082        -1.64899
LJ         0.0916476         2.36851        -1.67374
LJ          0.973617         2.45623        -2.37331
LJ           1.79142        -1.69662         2.53863
LJ          0.932567        -1.65284         -1.6066
LJ           2.03311        -2.50415        -1.54642
LJ           2.47936       -0.815287        -2.50484
LJ          -1.83136       0.0426186         2.44823
LJ           -2.5066        0.132233        -1.73323
LJ           -1.6614       -0.624497        -1.37504
LJ          -1.18034       -0.900231        -2.49703
LJ         -0.126313       -0.237852        -2.55183
LJ          -0.83229         0.10732        -1.78528
LJ        -0.0573168       -0.938494        -1.76347
LJ            1.0088        -1.06847        -2.45453
LJ           1.66439       0.0787674         2.53086
LJ          0.760563      -0.0192124        -1.58657
LJ           1.77614       -0.812704        -1.71933
LJ          -2.52859         1.05742          2.3766
LJ          -1.80244          1.8324         2.52395
LJ          -2.54625          1.6695        -1.78261
LJ          -1.68401        0.954695        -1.88829
LJ         -0.726113         1.02322        -2.55457
LJ          0.046554         1.82156         2.47954
LJ         -0.797127         1.66107        -1.78147
LJ         0.0264589        0.828706        -1.88676
LJ          0.860282        0.835317        -2.49356
LJ            1.8435         1.81457         2.45438
LJ          0.969872         1.73324        -1.52864
LJ           1.83913        0.786282        -1.75224
LJ          -2.43128         2.43173       -0.681502
LJ          -1.53195        -1.84729       -0.642386
LJ           2.47325        -1.73661      -0.0666564
LJ          -1.63413         2.39145       -0.106735
LJ         -0.789605         2.44828       -0.958775
LJ         0.0120892        -1.67708       -0.894041
LJ         -0.680188         -1.8057       0.0453853
LJ         -0.205859         2.35887      -0.0369529
LJ          0.856778        -2.48088       -0.864034
LJ           1.82167        -1.66161        -0.89059
LJ          0.739625        -1.98223        0.111229
LJ           1.64968           -2.37       -0.115007
LJ          -2.54044         -0.8522        -0.76787
LJ          -1.80521        0.176322       -0.734894
LJ           2.45425       -0.050418       0.0451553
LJ           -1.7442       -0.878965       0.0331144
LJ         -0.655928       -0.805505       -0.821143
LJ        -0.0134328        0.251987       -0.934529
LJ         -0.739038       -0.122365      -0.0748396
LJ         0.0606166       -0.794891         0.19816
LJ          0.821534       -0.853332       -0.756219
LJ           1.74472       -0.119926        -0.82992
LJ          0.788098      0.00973733       -0.116182
LJ           1.61435       -0.917971      -0.0885028
LJ          -2.41347        0.988806       -0.920393
LJ          -1.65392         1.72726        -1.10779
LJ          -2.53816         1.60472        0.104953
LJ          -1.90743        0.787922        0.108627
LJ          -1.01713        0.732893       -0.810633
LJ         -0.114058         1.54292       -0.832029
LJ         -0.783304         1.49831      -0.0583316
LJ         0.0883663        0.952834       0.0256824
LJ          0.822349         1.05916       -0.706215
LJ           1.77849         1.65208       -0.968555
LJ          0.835748          1.9263      0.00438285
LJ           1.75478        0.859389       -0.102759
LJ           2.39512         -2.5328        0.863621
LJ          -1.50973        -1.66773        0.744383
LJ           2.53746        -1.43073         1.77057
LJ          -2.01706         2.52185         1.56041
LJ         -0.716545        -2.48824         1.03305
LJ          0.167822        -1.79018         0.95266
LJ         -0.942582        -1.63721         1.74358
LJ         0.0697141        -2.38071         1.71518
LJ           1.09197         2.55301        0.907393
LJ             1.714         -1.4601        0.784931
LJ          0.848968        -1.67731         1.71512
LJ           1.51775        -2.45384         1.85213
LJ           2.54731       -0.572839         1.07382
LJ          -1.80315       0.0405759        0.891859
LJ           2.53923        0.107163         1.85809
LJ          -1.69543       -0.894164         1.53826
LJ         -0.746812       -0.898914        0.915561
LJ          0.126337      -0.0978746         1.03737
LJ         -0.851289        0.166884         2.07344
LJ          0.151668       -0.936714         1.62432
LJ          0.979487       -0.812969        0.858702
LJ           1.62777       -0.121067        0.544668
LJ          0.740518       -0.156246         1.90124
LJ           1.72513       -0.778955         1.75607
LJ            2.4746        0.729292        0.734278
LJ          -1.46884          1.9022        0.817479
LJ          -2.55663         1.58195         1.43541
LJ          -1.51258        0.893659         1.64784
LJ         -0.908826        0.749971         0.68791
LJ           0.11119         1.66676        0.936859
LJ         -0.792731          1.6754          1.4751
LJ         0.0274201        0.907475         1.65131
LJ          0.816342        0.627242        0.957315
LJ           1.83048         1.69674        0.790431
LJ          0.978645         1.65455         1.71853
LJ           1.70187        0.754744         1.58192
