108
#Comment!
LJ          -1.52804        -1.83535        -1.06551
LJ           1.67946        0.947204       0.0259596
LJ         0.0740613        0.171265        0.429272
LJ           2.14142         1.79192         1.46773
LJ            2.1468         2.36322       -0.979945
LJ         -0.702804         1.83616        -2.31785
LJ         -0.830108        0.282099        0.921576
LJ          -2.21994        0.456812         2.21412
LJ          -2.45875        -1.80537        -2.02105
LJ         -0.376856        -1.27729        -1.65128
LJ          -2.46766       -0.698556        0.417914
LJ          -1.47513        0.886738        -2.17748
LJ          -1.94061         2.12411        -1.01532
LJ           1.68599        0.990123         2.08539
LJ          0.766434        -1.89024        -1.63541
LJ           1.03785         1.78248       -0.714389
LJ         -0.811376        -1.88894       -0.368006
LJ           1.18004       -0.917093       -0.859353
LJ           2.20598         2.29001        -2.05525
LJ         0.0489739       -0.523528       -0.810197
LJ         -0.593308       -0.932685          2.3492
LJ           -1.3803         1.25371         1.20123
LJ          -2.08681         1.58521         1.96483
LJ            2.4984       -0.177743         1.45245
LJ          0.847363        0.350027         -1.5324
LJ           1.67649         2.08863        0.449283
LJ          0.373876        -2.25755         2.20839
LJ         -0.719539       -0.156002      -0.0354386
LJ           0.57578         1.53772        -1.54819
LJ           1.97016        -1.24387       -0.315992
LJ          0.686682       0.0306221         2.25589
LJ         -0.190161        0.956503         2.22982
LJ          -1.26387        -1.06716       0.0319493
LJ          -2.04264       -0.160383       -0.444494
LJ           1.17164         2.46432         1.20825
LJ           2.44475        -1.20082         2.10113
LJ           2.55804       -0.872949        -1.18135
LJ           1.73063        -1.78216        -2.53175
LJ          -1.74767         -1.7211         2.22699
LJ         -0.384022        -1.61501          0.9976
LJ         -0.765727        -2.26135         2.30502
LJ         -0.163826       -0.289924         1.55916
LJ          -2.38296          1.9192        0.652837
LJ          0.486595         1.07188        0.100544
LJ          0.579903         2.10564        0.166728
LJ         -0.248484        -2.42469        0.177341
LJ          -1.63542        -1.10892        -1.78505
LJ          0.737766        0.883776        -2.41769
LJ          0.767772          0.2969       -0.477115
LJ           1.34505         1.35009        0.924827
LJ        -0.0895566       -0.259173        -2.31847
LJ           1.46356        -1.45086        0.468118
LJ         -0.715279         1.75796         1.79913
LJ          -1.88453         2.22421        -2.01062
LJ            2.3607        -2.12877        0.047599
LJ           1.71108        -1.59801        -1.28385
LJ          -2.44289        -1.84229       -0.871152
LJ            1.0203        0.373748        0.924074
LJ           2.40967        -2.31802         1.17089
LJ          -1.14783        0.201817         2.07182
LJ          -1.09036         2.54595        0.775148
LJ           1.04901         2.37974        -2.10505
LJ           1.93108       -0.916249         1.11475
LJ          -2.42705         1.27749         -2.1864
LJ           2.22881        0.847142         1.11264
LJ          0.782825        -1.15658         2.31613
LJ          -1.18777     -0.00136999         -1.9546
LJ         -0.419525        0.669489        -1.93049
LJ           2.33712         1.38901         -0.5738
LJ          0.238497        -1.48709       -0.435083
LJ           1.62417         1.34835        -1.96088
LJ             1.933       0.0373095         0.57304
LJ          -1.83804       -0.690668         1.61752
LJ          -1.17887         1.94376       -0.239559
LJ          -1.89863        0.710425       -0.966036
LJ          0.345539        -2.56111       -0.818164
LJ          0.666472       -0.675116         -1.7908
LJ         -0.954208       -0.777876         1.00668
LJ          -1.90031        0.141921        0.904246
LJ           1.59623       -0.489115         1.96128
LJ            1.6863       -0.745978        -1.95428
LJ           2.50453         0.41827        -1.66769
LJ           -1.7412        -2.13792        0.117567
LJ          0.922706       -0.523733        0.180221
LJ         -0.738162         2.31944        -1.30813
LJ          -1.83458          2.5229         1.60298
LJ          -2.36875        0.730567        0.159463
LJ          0.567533        -1.96327        0.703357
LJ           1.24488        -2.30407       -0.143056
LJ          0.663232       -0.922819         1.32121
LJ         -0.580597         1.60927        0.409516
LJ           1.44106         2.27982         2.17371
LJ          0.416241         1.86896         1.86869
LJ         0.0262168         1.12269         1.23746
LJ         0.0447466         2.45093        -1.81056
LJ          -1.12888        0.839993      -0.0937419
LJ          -1.05237       -0.305248       -0.963317
LJ        -0.0688498         1.62871       -0.642974
LJ          0.029563       -0.878845        0.354041
LJ           1.53495          0.8429        -1.04649
LJ           -1.7468        -1.61714         1.08854
LJ         -0.193904        0.491637       -0.806097
LJ         -0.194801         2.48905         1.18864
LJ           1.54588        -1.67941           1.623
LJ            1.8734        0.140467        -2.49058
LJ           1.91465       -0.204668       -0.433453
LJ           -1.0167         1.32214         -1.1713
LJ          -2.30462       -0.495816        -2.34247
