108
#Comment!
LJ           2.38611          2.5526         2.49898
LJ          -1.68217        -1.89202        -2.52468
LJ          -2.53053        -1.72421        -1.83725
LJ          -1.83245         2.48155        -1.70684
LJ         -0.926478         2.39244         2.48346
LJ         -0.191809        -1.85869        -2.43184
LJ         -0.841597        -1.62846        -1.59596
LJ        -0.0197859         2.52936         -1.6884
LJ          0.860562         2.55254        -2.51253
LJ           1.65019        -1.79123        -2.56379
LJ          0.812914        -1.50277        -1.57662
LJ           1.88645        -2.48896        -1.66636
LJ           2.49859       -0.915162         2.48885
LJ          -1.65378       0.0483509          2.5245
LJ           -2.5161        0.139395        -1.78063
LJ          -1.76961       -0.964714        -1.70226
LJ          -1.15874       -0.873087         2.53772
LJ        -0.0128896      -0.0821507         2.53414
LJ         -0.762183        0.102051        -1.71613
LJ         0.0363811       -0.811188        -1.68941
LJ          0.861528       -0.916322          -2.534
LJ           1.79768        0.127646         -2.5537
LJ          0.719529        0.168502        -1.62868
LJ           1.66622       -0.809746        -1.69363
LJ          -2.51843        0.884649         2.54944
LJ          -1.77504         1.80555         2.49847
LJ          -2.53335         1.63688        -1.81883
LJ            -1.754        0.902883        -1.75403
LJ         -0.636267         1.01259         2.31637
LJ          0.184892         1.74823         2.42947
LJ         -0.813023         1.64305         -1.6135
LJ         -0.119086        0.914821        -1.79046
LJ          0.776591        0.875034        -2.36075
LJ           1.81477         1.74383        -2.53488
LJ          0.915923         1.80751        -1.60714
LJ            1.7515        0.811344        -1.71756
LJ          -2.47967        -2.47823       -0.798488
LJ          -1.45941        -1.72877       -0.740701
LJ           2.55417        -1.82764      -0.0478566
LJ          -1.61697         2.48316       0.0142194
LJ         -0.805469        -2.56268         -0.8019
LJ         -0.107683         -1.6898        -0.96298
LJ         -0.850059        -1.73896        0.166034
LJ         -0.168583         2.39487       0.0190541
LJ           0.83724         2.47537       -0.820668
LJ           1.55744         -1.7905       -0.804801
LJ          0.728582        -1.78291        0.120976
LJ           1.59863        -2.48173      -0.0933147
LJ          -2.47083       -0.936665       -0.798708
LJ          -1.96545        0.194462       -0.821361
LJ           2.47802       0.0398857      -0.0277833
LJ          -1.66051       -0.881848      -0.0757888
LJ         -0.874707       -0.728882       -0.757299
LJ        -0.0187627       0.0380591       -0.719416
LJ         -0.893086       0.0323752      -0.0526945
LJ        -0.0389187       -0.699943       -0.041111
LJ          0.969636       -0.809912       -0.766892
LJ           1.77111       -0.145201       -0.828582
LJ          0.901905      -0.0512922      -0.0713361
LJ           1.70701        -1.02009       -0.128269
LJ          -2.53889         1.03596       -0.806337
LJ          -1.69643         1.73697       -0.983241
LJ           2.56208         1.79613         0.14877
LJ          -1.85185        0.904225        0.077755
LJ         -0.794806        0.676276       -0.870422
LJ        -0.0882992          1.7106       -0.929677
LJ         -0.955067          1.6751       -0.171074
LJ         -0.109527         1.01506      -0.0871431
LJ          0.678001        0.964786       -0.811499
LJ           1.78611         1.95273       -0.951947
LJ           0.63733         1.78313      -0.0202231
LJ           1.61294        0.812545       0.0594261
LJ           2.51591         2.49944        0.877114
LJ          -1.60868        -1.72817        0.920692
LJ           2.40898        -1.71327         1.68194
LJ          -1.84103         2.53605          1.6514
LJ         -0.747545         2.50596         0.79047
LJ        -0.0089708        -1.69791        0.833342
LJ         -0.853504         -1.6652         1.73869
LJ          0.181467        -2.53911         1.81337
LJ           1.05723         2.51055         1.00701
LJ           1.81133        -1.76968        0.821374
LJ          0.902756        -1.62638          1.6284
LJ           1.70158         -2.4485         1.81817
LJ            2.4804       -0.661931        0.905984
LJ           -1.8481      0.00611682        0.907713
LJ          -2.49538      -0.0198755         1.96581
LJ          -1.79675         -0.8584         1.66595
LJ         -0.694127       -0.884983        0.806294
LJ          0.102544       0.0305906         0.77963
LJ          -0.67156       0.0432255         1.73775
LJ       0.000575698       -0.912878         1.57979
LJ          0.741277       -0.895342        0.838873
LJ           1.61214       -0.011245        0.746496
LJ          0.798986       -0.210228          1.8365
LJ           1.69982       -0.880733         1.68913
LJ           2.41416        0.929855        0.848594
LJ          -1.78388         1.77257        0.832566
LJ           2.56425         1.70436          1.8338
LJ          -1.79454        0.737369         1.64824
LJ         -0.857775        0.745016        0.816254
LJ         -0.022528          1.5973        0.899994
LJ         -0.886282         1.70618         1.60102
LJ         0.0476498         0.84325         1.60097
LJ          0.811904        0.809476        0.878643
LJ           1.75873         1.78927        0.835689
LJ          0.875166         1.61217         1.70978
LJ           1.68044         1.02766         1.65258
