108
#Comment!
LJ           2.56069        -2.39021         2.52967
LJ          -1.71161        -1.67518          2.4687
LJ           2.52228        -1.66808        -1.75525
LJ          -1.73292        -2.35834        -1.77294
LJ         -0.784109         2.56495         2.50097
LJ         0.0407221        -2.05829        -2.45213
LJ          -1.09397        -1.43355        -1.59861
LJ         0.0346633         2.23136        -1.69341
LJ          0.982364         2.40868        -2.55751
LJ            1.6878        -1.78982         2.48788
LJ           1.03858         -1.7918        -1.72728
LJ           1.91089         2.44754        -1.61367
LJ           2.44442       -0.742803         2.52349
LJ          -1.85089        0.032006          2.5127
LJ           2.50728        0.186013        -1.94983
LJ          -1.76876       -0.492727        -1.59099
LJ          -1.07635       -0.868301        -2.41411
LJ         0.0284484       -0.219071        -2.47809
LJ         -0.782261     -0.00677714        -1.68179
LJ        -0.0982646        -1.04111        -1.87828
LJ           1.01029         -1.1555        -2.45255
LJ           1.67716       0.0107717        -2.53493
LJ          0.819522      0.00139269        -1.77686
LJ           1.59932       -0.741876        -1.72644
LJ           -2.5098          1.0669         2.49259
LJ          -1.81439         1.93576        -2.54401
LJ          -2.51162         1.69444        -1.68374
LJ          -1.55511        0.914865        -1.81682
LJ          -0.67562         1.13395         2.51684
LJ           0.10467         1.77913          2.4592
LJ         -0.833227         1.66451         -1.7024
LJ         0.0502172          1.0786         -1.7629
LJ          0.988928        0.900126        -2.55003
LJ           1.87457         1.79984         2.47657
LJ          0.926006         1.79007        -1.68954
LJ           1.74203        0.925946         -1.7767
LJ           2.41352         2.34562       -0.758398
LJ          -1.50007         -1.9029       -0.762586
LJ          -2.47701        -1.87194      -0.0454371
LJ          -1.72821          2.4718      -0.0893888
LJ         -0.721239        -2.50774        -1.07636
LJ          0.108462        -1.64275       -0.919962
LJ         -0.396321         -1.7669     -0.00411201
LJ         -0.251267          2.3867       0.0765385
LJ          0.794379        -2.52979       -0.951662
LJ           1.69492        -1.70864       -0.936266
LJ          0.644952        -2.11317        0.110537
LJ           1.71014        -2.40208     -0.00626057
LJ          -2.43419       -0.861149       -0.644837
LJ          -1.83148       0.0587869       -0.740458
LJ           2.48516       0.0986075       0.0604171
LJ          -1.56168       -0.953032        0.034696
LJ         -0.518194       -0.853418       -0.774304
LJ       -0.00999471        0.245002        -1.02004
LJ         -0.962553       -0.110995       -0.128119
LJ         0.0610201       -0.739697        0.246357
LJ          0.879507        -1.00592       -0.701261
LJ           2.01342      -0.0922388       -0.911905
LJ          0.734789        0.014957      -0.0584179
LJ           1.57088       -0.891068      -0.0873074
LJ          -2.44954        0.886515       -0.948287
LJ          -1.57713         1.66882       -0.776084
LJ           2.46541         1.79716        0.116323
LJ          -1.91294        0.964585     -0.00747464
LJ           -1.0996        0.729264       -0.860007
LJ         0.0810957         1.76241        -0.81996
LJ         -0.806653         1.49164       -0.148152
LJ        -0.0991978        0.841208        0.112127
LJ          0.742474         1.00201       -0.683226
LJ           1.59986          1.6089        -0.95342
LJ          0.907082         1.99346      -0.0906752
LJ           1.67291        0.855957       -0.247716
LJ           2.49836         2.46562        0.901283
LJ          -1.40175        -1.78684        0.670538
LJ           2.50848        -1.59792         1.81413
LJ          -2.01927        -2.51377         1.69929
LJ         -0.642567        -2.49702         1.08746
LJ          0.200223        -1.64595         1.00905
LJ         -0.886438        -1.69745         1.63023
LJ          0.117871        -2.32597         1.71393
LJ          0.951569           2.362        0.926255
LJ           1.90774        -1.51829        0.699649
LJ          0.984156        -1.84158         1.67093
LJ           1.70919        -2.56083         1.69436
LJ           2.55291       -0.674521        0.952814
LJ            -1.676       -0.064848        0.889005
LJ          -2.53551     -0.00533601         1.84024
LJ          -1.77777       -0.851351         1.66226
LJ          -0.74368       -0.817712         1.03917
LJ         0.0559257      0.00939265        0.909088
LJ         -0.794261        0.201505         1.98048
LJ          0.201085       -0.940782         1.93467
LJ           0.99254        -1.08354        0.738242
LJ           1.66738       -0.167862        0.709132
LJ          0.875053     -0.00648052         1.85203
LJ           1.64833       -0.834577         1.74306
LJ           2.41897        0.852656        0.919432
LJ          -1.51406          1.9023        0.814391
LJ            2.4653         1.70086         1.64625
LJ          -1.64534          0.9481         1.52774
LJ         -0.886413        0.648815        0.843988
LJ          0.258567         1.44309        0.849968
LJ         -0.880498         1.56858         1.52976
LJ        -0.0406811        0.840268         1.64877
LJ           1.01419        0.704207        0.829422
LJ           1.60183         1.72667        0.611768
LJ          0.852608         1.56132         1.76441
LJ           1.78614        0.813795          1.8211
