108
#Comment!
LJ          -2.38273        -2.40526         2.51283
LJ          -1.75106        -1.60018         2.51798
LJ          -2.35749        -1.56059        -1.74759
LJ          -1.52066        -2.47038        -1.81462
LJ         -0.804502         2.44758         2.56236
LJ         -0.175289        -1.60308         2.43649
LJ         -0.977484        -1.60674        -1.81993
LJ         0.0187409          2.4604        -1.92509
LJ          0.858111        -2.42923        -2.56312
LJ           1.74266        -1.64552         2.43025
LJ           1.13211        -1.82739         -1.7078
LJ           1.89771         2.41439        -1.58875
LJ           2.48903       -0.685404         2.51798
LJ          -1.82825      -0.0559708         2.38633
LJ          -2.49965      -0.0968291        -1.85792
LJ          -1.61022       -0.629796         -1.6533
LJ          -1.07215       -0.676985        -2.52543
LJ        -0.0233411       -0.246265        -2.40385
LJ         -0.839495      0.00318419          -1.772
LJ          0.124563        -1.01126        -1.73982
LJ          0.820979       -0.955856         2.55863
LJ           1.74615      -0.0968888        -2.38624
LJ          0.788295         0.19481        -1.64685
LJ           1.53237       -0.785231        -1.62454
LJ           -2.5096        0.994555        -2.46771
LJ          -1.82564         1.92952         2.30393
LJ          -2.51139         1.68035        -1.51533
LJ          -1.70721        0.740767          -1.984
LJ         -0.475407        0.710271          2.5452
LJ          0.106245         1.66025         2.35192
LJ          -1.18432         1.58756        -1.67145
LJ        -0.0261663         1.07699        -1.68954
LJ           1.13772        0.941095         2.55541
LJ           1.78338         1.78356        -2.53883
LJ           1.03597         1.83602         -1.9601
LJ           1.63604        0.838308        -1.71827
LJ          -2.55676         2.46141       -0.790994
LJ          -1.43783        -1.71572       -0.828724
LJ          -2.36615        -1.71993      -0.0703973
LJ          -1.55179         2.53708        0.157726
LJ         -0.648808        -2.49883        -1.10727
LJ         0.0680731        -1.75195       -0.728789
LJ         -0.765872        -1.76252      -0.0663881
LJ        -0.0752861         2.31154         0.14585
LJ          0.642743        -2.53858       -0.892213
LJ           1.95543        -1.61909       -0.960889
LJ          0.755379        -1.91276        0.215665
LJ           1.64425        -2.46019      0.00438476
LJ          -2.48842       -0.875913       -0.875913
LJ          -1.94368        0.138386       -0.901457
LJ          -2.43565        0.109047      -0.0097188
LJ          -1.71816       -0.712843      0.00234365
LJ         -0.816667       -0.827977       -0.827002
LJ         -0.191728     -0.00492155       -0.953874
LJ         -0.699438      -0.0482036       0.0431899
LJ          0.030748       -0.796878       0.0970267
LJ           0.95094        -1.22965        -0.79125
LJ           1.81716       -0.181148       -0.662872
LJ          0.854088         0.10765        0.133944
LJ           1.93642        -1.07454      -0.0106192
LJ           2.54302        0.922012       -0.759748
LJ          -1.75599          1.7011       -0.802819
LJ           2.44007         1.51107       0.0800346
LJ          -1.82238         1.08672        0.218096
LJ          -1.06095        0.690562        -1.01774
LJ          0.145468         1.71721       -0.867324
LJ         -0.830646         1.70456       -0.156829
LJ          0.108809        0.855662       -0.120523
LJ          0.913347        0.941715       -0.887484
LJ           1.77223         1.67701       -0.776982
LJ          0.997697         1.61351       -0.137469
LJ            1.5953         0.78609        0.076275
LJ          -2.49339          2.4153        0.594714
LJ          -1.44234        -1.83517        0.890877
LJ          -2.48861        -1.51308         1.59043
LJ          -2.00303        -2.33482         1.55427
LJ         -0.852158         2.37067        0.950144
LJ        -0.0311003        -1.48395        0.991413
LJ         -0.989318        -1.68421         1.85136
LJ          0.171564        -2.32203         1.73438
LJ          0.800882         2.42139        0.931274
LJ           1.67497        -1.45622         0.98119
LJ           0.91863        -1.60902         1.76901
LJ           1.83329        -2.45476         1.61339
LJ           -2.4847       -0.894531        0.751036
LJ          -1.59429       -0.030621        0.770863
LJ           2.42583      -0.0201143         1.65944
LJ          -1.62547       -0.821163         1.59458
LJ         -0.902412       -0.886764         1.02609
LJ          0.154061       -0.113812        0.852458
LJ          -1.00033       -0.057909         1.78245
LJ          0.215386       -0.772708         1.73635
LJ          0.896062       -0.926435        0.649253
LJ           1.82599       -0.334624        0.819307
LJ          0.838173       0.0524963         1.76727
LJ           1.56496        -0.79804         1.85536
LJ           2.31752        0.962957        0.986105
LJ          -1.80799         1.85581         1.10442
LJ           2.55186         1.93902         1.58473
LJ          -1.84669        0.830448         1.58621
LJ          -0.93923        0.891269        0.597653
LJ          0.384869         1.50329        0.813777
LJ         -0.840128         1.42496         1.65143
LJ         0.0637086        0.925845         1.52015
LJ           1.18288        0.744986         0.99443
LJ           1.53723         1.72268         0.79181
LJ           1.06997         1.66891           1.702
LJ           1.88612         1.04253          1.8751
