108
#Comment!
LJ           2.42195        -2.52615        -2.55482
LJ          -1.62208        -1.84834         2.45835
LJ          -2.50823        -1.76092        -1.72264
LJ          -1.84828         2.55801        -1.68847
LJ         -0.857852         2.55051          2.4744
LJ         -0.177019        -1.90744        -2.48762
LJ         -0.850253        -1.53647        -1.62898
LJ         0.0472743         2.39327        -1.78982
LJ          0.902705         2.48079        -2.38086
LJ           1.69572        -1.71934        -2.47181
LJ          0.830509         -1.4813        -1.54867
LJ           1.89338        -2.50326        -1.63928
LJ           2.50171       -0.953761        -2.54257
LJ          -1.68153       0.0374902        -2.55353
LJ          -2.44742        0.203253         -1.7603
LJ          -1.81724       -0.894214        -1.59228
LJ          -1.07404       -0.905561         2.53255
LJ        -0.0286988       -0.064804         2.54725
LJ         -0.774397        0.119664        -1.75959
LJ         0.0478915       -0.786374         -1.7859
LJ          0.957267       -0.973021        -2.53534
LJ           1.79426        0.151809         2.55253
LJ          0.688496        0.173307        -1.67261
LJ           1.60474       -0.857097        -1.71332
LJ          -2.51469         0.83346         2.51838
LJ          -1.80064         1.85268         2.46328
LJ          -2.51907         1.62544        -1.79413
LJ          -1.71596        0.871784        -1.73913
LJ         -0.600416        0.993138         2.28721
LJ          0.136264         1.68188         2.44843
LJ          -0.80467         1.64014        -1.76968
LJ         -0.108202        0.887136        -1.74163
LJ          0.761154        0.820556        -2.43311
LJ           1.76064         1.73409        -2.53236
LJ          0.929647         1.69502        -1.55481
LJ           1.75975        0.833031        -1.68985
LJ          -2.51447         2.55243       -0.812375
LJ          -1.55767        -1.79318       -0.642042
LJ           2.52932         -1.8079      -0.0425097
LJ          -1.76573         2.43563      -0.0407228
LJ         -0.789586         2.48371       -0.815572
LJ        -0.0247085        -1.72976       -0.847002
LJ         -0.753399        -1.78943       0.0805364
LJ         -0.150782         2.41125       0.0497284
LJ          0.959006         2.53309       -0.898529
LJ           1.65963        -1.74049       -0.831177
LJ          0.790992        -1.85452         0.17916
LJ           1.64762        -2.41655       -0.126689
LJ          -2.50259        -1.00861       -0.739168
LJ          -1.90164        0.121436       -0.774462
LJ           2.53798       0.0132868      -0.0167847
LJ          -1.75887       -0.716501      -0.0885542
LJ         -0.851218       -0.689888       -0.795665
LJ         0.0120187       0.0860843       -0.698828
LJ          -0.86724      -0.0237295       0.0203723
LJ         -0.160576        -0.75213      -0.0979712
LJ          0.853105       -0.782975       -0.856223
LJ             1.821       -0.125538       -0.870474
LJ          0.942344       0.0146325      -0.0993711
LJ           1.77574       -0.954163      -0.0877622
LJ          -2.53572         1.06888       -0.717941
LJ          -1.67453         1.69933       -0.957106
LJ           2.47567          1.7359        0.169921
LJ          -1.89044        0.939604       0.0770681
LJ         -0.862015        0.796957       -0.854397
LJ        -0.0224796         1.67053       -0.826512
LJ         -0.901748         1.61988        -0.19006
LJ        -0.0800256         1.02089      -0.0610216
LJ          0.766558        0.926102       -0.822711
LJ           1.89827         1.79879       -0.942565
LJ          0.754956         1.93063      -0.0733574
LJ           1.69153        0.871075      -0.0608645
LJ            2.4561         2.53045        0.992316
LJ          -1.59778        -1.84462        0.968961
LJ           2.48444        -1.64829         1.69095
LJ          -1.82156         2.50304         1.62712
LJ         -0.843273         2.50601         0.80083
LJ         0.0405534        -1.67301        0.817559
LJ         -0.887581        -1.68352         1.74932
LJ          0.138129        -2.47613         1.75663
LJ           1.09226        -2.49287        0.993152
LJ           1.93357        -1.66461        0.771787
LJ          0.886519        -1.62873         1.62451
LJ           1.63587        -2.54073         1.80514
LJ           2.45491       -0.667453        0.870368
LJ          -1.93073       0.0195733        0.891227
LJ          -2.52245      -0.0287811         1.88572
LJ          -1.84595       -0.814466         1.66879
LJ         -0.693844        -0.80211        0.737267
LJ          0.032346      -0.0826931        0.774328
LJ         -0.751901        0.125243         1.79378
LJ        0.00503837       -0.995528         1.62728
LJ          0.860773       -0.937039        0.814289
LJ            1.5964     -0.00843778        0.704718
LJ          0.746292       -0.119164         1.82537
LJ           1.72351       -0.868263         1.68855
LJ           2.40125        0.775425        0.757438
LJ          -1.66125         1.75632        0.791896
LJ           2.48761         1.70085         1.71264
LJ          -1.72092        0.734447          1.5921
LJ         -0.890729        0.674931        0.789895
LJ          0.065096         1.69614        0.838719
LJ         -0.839598         1.69365         1.52031
LJ         0.0218338        0.885953         1.51056
LJ          0.884205        0.887195         1.07537
LJ           1.69433         1.81449        0.829649
LJ           0.99074         1.70935         1.82658
LJ           1.72745        0.967322         1.69801
