108
#Comment!
LJ           2.53038         2.51254        -2.39453
LJ          -1.79965        -1.89809        -2.53401
LJ           2.52024        -1.52389        -1.56445
LJ          -1.58198        -2.46747        -1.53099
LJ         -0.840593        -2.50308        -2.47194
LJ           0.11299        -1.79628         2.55603
LJ         -0.747917        -1.71653        -1.70276
LJ          0.112314          2.4205         -1.3857
LJ          0.917718        -2.51556        -2.41118
LJ           1.93648        -1.84969        -2.35445
LJ           1.15119        -1.49997        -1.65725
LJ           1.55254         2.51385        -1.68429
LJ          -2.33059       -0.662262        -2.55735
LJ          -1.58736       0.0629782         2.49403
LJ           2.55058       -0.128771        -1.66386
LJ           -1.6152        -1.14626        -1.82345
LJ         -0.929576       -0.665445        -2.31166
LJ          0.140733      -0.0619516         2.51543
LJ         -0.876212        0.313416        -1.68373
LJ         0.0809719       -0.776506        -1.72819
LJ          0.755828       -0.864781        -2.49322
LJ           1.72826       0.0478397        -2.40675
LJ           0.91512     -0.00149868         -1.7585
LJ           1.78072       -0.787469         -1.8556
LJ           -2.5206        0.686914        -2.30746
LJ          -1.72882         1.78862        -2.54281
LJ          -2.55797         1.71636        -1.80981
LJ          -1.68489         1.04559        -1.85873
LJ         -0.768832        0.930469         2.38948
LJ         0.0728417         1.61969        -2.52803
LJ         -0.730119         1.75561        -1.89227
LJ          0.219379        0.770425        -1.63225
LJ           1.00004        0.731572         2.47745
LJ           1.51856         1.76217        -2.52462
LJ          0.850369         1.66628        -1.70511
LJ           1.72243          1.0431        -1.61807
LJ          -2.55196         2.47283        -1.03951
LJ          -1.42853        -1.41483       -0.881225
LJ           2.41569        -1.80964       -0.212232
LJ          -1.86926        -2.48318       0.0820212
LJ         -0.833373        -2.53084       -0.564768
LJ          0.164976        -1.70316       -0.999184
LJ         -0.695324        -1.57975       -0.152417
LJ         0.0425299        -2.47269       -0.173819
LJ           1.01092         2.44486       -0.830488
LJ           1.55604        -1.71193       -0.761158
LJ          0.761268        -1.63993      -0.0484401
LJ           1.64939         2.46198        0.174906
LJ           2.46508       -0.729183       -0.710954
LJ          -1.75719       -0.217421         -1.1258
LJ           -2.3808       0.0518223       -0.137777
LJ          -1.79445       -0.784074       0.0425455
LJ         -0.894584       -0.593216       -0.566247
LJ         -0.022307       -0.166771       -0.896463
LJ          -1.01826       0.0597679        0.244276
LJ        -0.0926512       -0.402987        0.232323
LJ          0.892717       -0.758909       -0.963872
LJ           1.97688        0.297329       -0.969876
LJ          0.861009       0.0373958      -0.0776811
LJ           1.57036       -0.917196      -0.0852576
LJ          -2.33294        0.974808       -0.866665
LJ          -1.74068         1.79022       -0.982798
LJ          -2.45336         1.74558       -0.151579
LJ           -1.6876        0.877938        -0.11298
LJ         -0.950257        0.701229       -0.825562
LJ         -0.146723         1.33651       -0.869254
LJ         -0.869979         1.61801       0.0331521
LJ         -0.197376        0.635556        0.128621
LJ          0.984759        0.927891       -0.835863
LJ           1.83459         1.87471       -0.803096
LJ          0.876361         1.72187      -0.0921878
LJ           1.93691        0.913256      -0.0926752
LJ          -2.52007        -2.55567        0.900005
LJ          -1.61182        -1.95915        0.923913
LJ          -2.46326         -1.7162         1.69427
LJ          -1.86174        -2.52665         1.71495
LJ         -0.736349        -2.50348        0.537093
LJ          0.108273        -1.48064        0.787678
LJ         -0.923447        -1.70324         2.06043
LJ         -0.331399        -2.49871         1.68888
LJ          0.825187         2.39569        0.800829
LJ           1.62037        -2.00279        0.971564
LJ          0.838409        -1.77717          1.5489
LJ             1.849        -2.53541           1.907
LJ           2.40268       -0.651763        0.770548
LJ          -1.82008       -0.112114        0.900884
LJ           2.45212        0.314776         1.89772
LJ          -1.77177         -1.0244         1.62853
LJ         -0.964367       -0.797923        0.871787
LJ          0.109496      -0.0615012         1.21234
LJ         -0.942175      0.00582194         1.65545
LJ         -0.264065       -0.768451         1.77315
LJ          0.850402       -0.792212         0.76209
LJ           1.81265        0.167175        0.789083
LJ           1.07038      -0.0964332         1.69967
LJ           1.98596       -0.623288         1.78795
LJ          -2.51956        0.849513        0.947426
LJ          -1.68449         1.87706         0.76067
LJ           2.47766         1.77811         1.74274
LJ          -1.80455        0.995095         1.90435
LJ         -0.937443        0.955408        0.897151
LJ        -0.0753462         1.60563        0.971347
LJ         -0.835542         1.77022         1.69056
LJ          0.126323        0.955961          1.7555
LJ          0.671485        0.849863        0.718361
LJ           1.76328         1.61626        0.818167
LJ          0.808979         1.65031         1.79221
LJ           1.75387         1.04745         1.67197
