108
#Comment!
LJ          -2.42605        -2.39465         2.54353
LJ           -1.7796        -1.46689         2.51274
LJ          -2.25513        -1.52489        -1.76237
LJ           -1.6072        -2.34625        -1.85197
LJ         -0.815355         2.26737        -2.42539
LJ        -0.0997015          -1.546         2.41103
LJ         -0.903412         -1.5303        -1.95008
LJ         0.0245382         2.51285        -1.90391
LJ           1.01308        -2.35635        -2.43036
LJ           1.69836        -1.58738         2.43682
LJ           1.18161        -1.68853        -1.63206
LJ             1.906         2.46645        -1.57355
LJ           2.38886       -0.620451        -2.53493
LJ           -1.8239      -0.0183987          2.3103
LJ           -2.4665      -0.0841955        -1.72704
LJ          -1.50081       -0.646773        -1.71928
LJ         -0.929702       -0.699867         -2.5324
LJ          0.046125       -0.178741        -2.47281
LJ          -0.81583       0.0872458        -1.73548
LJ          0.166464       -0.941475        -1.64889
LJ          0.776731       -0.951316        -2.49451
LJ           1.63047      -0.0383749        -2.43547
LJ          0.785678          0.1335        -1.71441
LJ           1.61188       -0.619979        -1.55519
LJ          -2.52625        0.863357        -2.37731
LJ          -1.76263         1.95888         2.42218
LJ          -2.48723         1.73467        -1.55193
LJ          -1.58447        0.747659        -2.05489
LJ         -0.527995        0.727952         2.52584
LJ         0.0856883         1.76008         2.33088
LJ          -1.31462         1.76495        -1.72178
LJ         0.0417814        0.986407        -1.67762
LJ           1.12554         1.01782        -2.47996
LJ           1.71424         1.87515         2.50747
LJ          0.960254         1.92296        -1.91232
LJ           1.80903        0.871157        -1.74736
LJ           2.55739        -2.55758        -0.73865
LJ          -1.45073        -1.63818       -0.921159
LJ          -2.27988        -1.63822       -0.138706
LJ          -1.66991         2.39205        0.116809
LJ         -0.693354        -2.43787        -1.00317
LJ         0.0285287        -1.77506       -0.674076
LJ         -0.721678        -1.77683      -0.0152608
LJ         0.0355718         2.35728        0.120021
LJ          0.770133         2.47398       -0.901566
LJ           1.93606        -1.61469       -0.920948
LJ          0.792596        -1.84614        0.203768
LJ           1.70192        -2.43142       0.0339217
LJ          -2.36155       -0.814617       -0.902032
LJ          -1.81849        0.109317       -0.932523
LJ          -2.40071       0.0176448     -0.00948853
LJ          -1.61901       -0.683155       -0.057741
LJ         -0.773471       -0.774955       -0.679926
LJ        -0.0395797       0.0735443        -1.00547
LJ         -0.662949       -0.042341        0.116573
LJ        -0.0557796        -0.88339         0.17208
LJ           1.02193        -1.10775       -0.800989
LJ           1.82301       -0.223433        -0.60925
LJ          0.788893       0.0426699        0.146032
LJ           1.96774        -1.03991       0.0222779
LJ           2.41997        0.757107       -0.794874
LJ          -1.85501         1.66648       -0.694059
LJ           2.54318         1.69078      -0.0467807
LJ          -1.80032        0.943499        0.108239
LJ          -1.05571        0.826398       -0.959061
LJ         0.0579828         1.72705       -0.819499
LJ         -0.778122         1.65185      -0.0979564
LJ         0.0486476        0.865206        -0.14586
LJ          0.862887         0.91785       -0.907858
LJ           1.60608         1.72937       -0.832436
LJ          0.922132         1.71683      -0.0949249
LJ           1.57999        0.795831       0.0788068
LJ           2.50733         2.47044        0.684242
LJ          -1.47489        -1.83216        0.762442
LJ          -2.56341        -1.43322         1.57119
LJ          -1.93181        -2.38687         1.63882
LJ         -0.865841         2.40962         1.02265
LJ         0.0175763          -1.461         1.09259
LJ          -1.00639        -1.65976         1.78879
LJ         0.0142577        -2.29819         1.74885
LJ           0.72257          2.3928        0.887125
LJ           1.68277        -1.53096         1.07008
LJ          0.802168        -1.69979         1.79192
LJ           1.76422        -2.55149         1.45112
LJ          -2.36171       -0.781996        0.721489
LJ           -1.6403       0.0910607        0.785864
LJ           2.39843     -0.00148599         1.64369
LJ          -1.69565       -0.923321         1.57321
LJ         -0.815792       -0.822745         1.02973
LJ          0.145125       -0.174811        0.882819
LJ         -0.935322       0.0337074         1.87959
LJ          0.228533       -0.734684         1.77182
LJ          0.970643       -0.917031        0.617755
LJ           1.74549       -0.385239        0.777438
LJ          0.853056       0.0885938         1.76093
LJ           1.50919       -0.808958         1.77338
LJ           2.41867        0.982729          1.0394
LJ          -1.85666          1.6493        0.964042
LJ           2.42768         1.87969         1.52418
LJ          -1.73444        0.838178          1.6903
LJ         -0.851128        0.947504        0.808153
LJ          0.385787         1.38372        0.767962
LJ         -0.697472         1.44029         1.72499
LJ         0.0964246        0.804322         1.66863
LJ              1.15        0.615521         1.03271
LJ           1.53798         1.78575        0.710916
LJ          0.946376         1.71137         1.66586
LJ           1.83611         1.07069         1.91456
