108
#Comment!
LJ          -2.50703        -2.43664         2.39074
LJ          -1.75337        -1.70136         2.53585
LJ          -2.38451        -1.50333        -1.73688
LJ          -1.74257         2.54165        -1.64416
LJ         -0.819201         2.49958        -2.44665
LJ         -0.101672        -1.95037        -2.49168
LJ          -1.06715        -1.54206         -1.8163
LJ        -0.0299915         2.22601        -1.78342
LJ          0.788581         2.49897         2.45759
LJ           1.78327        -1.70127        -2.55493
LJ          0.732188        -1.85916        -1.75862
LJ            2.0261         2.48087        -1.72178
LJ           2.48348       -0.770153         2.53468
LJ          -1.76005         0.05465        -2.53367
LJ           2.46834       0.0490247        -1.86436
LJ          -1.74268       -0.515063        -1.62934
LJ          -1.09303       -0.747605        -2.46535
LJ         -0.120581       -0.163966        -2.47191
LJ         -0.891611       0.0404368        -1.80016
LJ         -0.127226        -1.07439        -1.83603
LJ          0.819604        -1.13825         -2.5494
LJ           1.70805       0.0159935         2.48874
LJ          0.884465       0.0825593        -1.82953
LJ           1.68904        -0.64124         -1.7398
LJ           2.53489        0.964238         2.55141
LJ          -1.69403         1.88746         2.43827
LJ          -2.35711         1.59186        -1.58555
LJ          -1.61673        0.758556        -1.78001
LJ         -0.598713        0.908913        -2.54926
LJ         0.0961701         1.69963         2.30719
LJ          -1.05379         1.71845        -1.72174
LJ         0.0385928         1.12768        -1.84618
LJ          0.839128        0.899721         2.54041
LJ           1.73253         1.78665         2.42251
LJ          0.908632         1.95539        -1.82544
LJ           1.60089         1.06885        -1.66699
LJ           2.50333          2.4545       -0.739185
LJ          -1.48286        -1.73898        -0.83633
LJ          -2.34549         -1.8294       -0.187915
LJ           -1.7618         2.44306      -0.0434265
LJ         -0.765267         2.55945        -1.00663
LJ          0.180427        -1.67525       -0.768203
LJ         -0.700612         -1.9344       -0.169243
LJ         -0.191889         2.29971       0.0312733
LJ          0.833093        -2.51788       -0.934148
LJ           1.87367        -1.82697        -1.05396
LJ          0.747055        -1.89206        0.325299
LJ           1.68631        -2.49122       -0.104724
LJ          -2.42688       -0.922341       -0.703487
LJ           -1.9585       0.0115813       -0.778045
LJ          -2.53692         0.22803      -0.0114226
LJ          -1.81379       -0.755695        0.114481
LJ         -0.616189       -0.893701       -0.698111
LJ         -0.111661        0.323916        -1.01754
LJ         -0.681723        0.111035      -0.0828721
LJ         -0.101037       -0.659402        0.139864
LJ          0.954959       -0.976113       -0.715913
LJ           1.89365      -0.0250532       -0.602188
LJ          0.692434       0.0331529        0.107657
LJ           1.81437        -1.11781      -0.0921082
LJ          -2.49134        0.963046       -0.788092
LJ          -1.64861         1.84815       -0.793551
LJ           2.48279         1.67267      -0.0704183
LJ           -1.8763          1.1348        0.367883
LJ          -1.11676        0.781673       -0.845189
LJ         0.0797732         1.64286        -1.01524
LJ           -0.8441         1.45837      -0.0876868
LJ        -0.0165129        0.896389       -0.251521
LJ          0.986319        0.934163       -0.792992
LJ            1.6315         1.78786       -0.756959
LJ          0.766971         2.01666      -0.0461165
LJ           1.70847        0.882763      -0.0430406
LJ           2.46051         2.32871        0.736828
LJ          -1.33582        -1.79613        0.736938
LJ           2.51474        -1.49974         1.74776
LJ          -2.07351        -2.37359         1.42434
LJ         -0.829037         2.49146          1.0034
LJ          0.110885        -1.48789        0.979135
LJ         -0.968876        -1.86739          1.8885
LJ         0.0433639        -2.38096         1.72908
LJ          0.787008         2.39941        0.969706
LJ           1.88825        -1.66621        0.842146
LJ           0.96861        -1.79784         1.78855
LJ           1.76466        -2.39529         1.64262
LJ           2.49083        -0.66601         0.84728
LJ          -1.58501       0.0492777        0.821819
LJ           2.43555       0.0354169         1.75996
LJ          -1.76667       -0.777106         1.71759
LJ         -0.718125        -1.02737        0.998114
LJ          0.179322       -0.156693         1.11033
LJ         -0.958965        0.121291         1.98906
LJ           0.16157       -0.927046         1.88898
LJ          0.998221        -1.03565        0.798307
LJ           1.61305       -0.183824        0.623545
LJ          0.661258       0.0209907          2.0297
LJ           1.55035       -0.777174          1.7454
LJ           2.26115        0.809485        0.835064
LJ          -1.63054          1.8592        0.985199
LJ           2.45463         1.62542          1.4683
LJ          -1.81779        0.884032         1.57043
LJ         -0.819185         0.72013        0.774954
LJ          0.256472         1.39324        0.776706
LJ         -0.912336           1.433         1.57213
LJ          0.175705        0.890724         1.62246
LJ           1.14224        0.725745         1.01369
LJ           1.52063         1.66838        0.641258
LJ          0.925193         1.50286         1.65585
LJ           1.66172        0.807052         1.86583
