108
#Comment!
LJ          -2.51213        -2.45032         2.55624
LJ          -1.73189        -1.48205         2.49688
LJ          -2.22482        -1.56234        -1.76054
LJ          -1.61968        -2.40778        -1.82207
LJ         -0.811498         2.29144        -2.44366
LJ         -0.125367        -1.54074         2.46197
LJ          -0.94819        -1.53599        -1.91228
LJ         0.0242451          2.5227        -1.91241
LJ           1.02722        -2.33226        -2.40214
LJ           1.72007        -1.56975         2.41248
LJ           1.17863        -1.69572        -1.66583
LJ           1.87763         2.49248        -1.60845
LJ           2.38096       -0.660728         2.55494
LJ          -1.78243      -0.0660818         2.31997
LJ          -2.46003      -0.0716988        -1.77625
LJ            -1.479       -0.662061          -1.734
LJ         -0.865641       -0.736596        -2.54586
LJ          0.115216       -0.173436         -2.4149
LJ         -0.789014        0.076019        -1.72161
LJ          0.160812       -0.960538        -1.70451
LJ          0.738467       -0.956672         -2.4946
LJ           1.64018     -0.00904616        -2.44412
LJ          0.838545         0.18967        -1.73405
LJ           1.59141       -0.626845        -1.54848
LJ          -2.51771        0.838977        -2.42671
LJ          -1.86099         1.95567         2.38482
LJ          -2.48825         1.69037        -1.59889
LJ          -1.56786        0.764567        -2.03122
LJ         -0.509667        0.718904         2.51653
LJ          0.057158         1.72613         2.29941
LJ          -1.27323         1.73904        -1.75923
LJ         0.0644828         1.01351        -1.70862
LJ            1.0712         1.05384        -2.51772
LJ           1.70579         1.86895          2.5004
LJ          0.943761          1.9246        -1.88516
LJ           1.83426        0.894665        -1.78374
LJ          -2.51013         2.52572       -0.719207
LJ          -1.43312        -1.64807       -0.928828
LJ          -2.30062        -1.63903       -0.129984
LJ          -1.59543         2.35412        0.119126
LJ         -0.661046        -2.45972        -1.00599
LJ         0.0761385        -1.80679       -0.716026
LJ         -0.712546        -1.77074       0.0071778
LJ       0.000732151         2.30315        0.129701
LJ          0.764541         2.51233       -0.954506
LJ           1.94487        -1.62715       -0.904401
LJ          0.856118        -1.87561        0.211306
LJ           1.72778        -2.47284       0.0993544
LJ          -2.36117       -0.826857       -0.892662
LJ          -1.80916        0.156373       -0.928628
LJ          -2.39292       0.0600824      0.00103918
LJ          -1.58413       -0.673093      -0.0474103
LJ         -0.752113       -0.742994       -0.723964
LJ       -0.00709817        0.121963        -1.02623
LJ         -0.673728      -0.0484186        0.129137
LJ        -0.0691864       -0.856136        0.196912
LJ           0.99776        -1.04845         -0.7513
LJ           1.81012       -0.266497       -0.638527
LJ          0.804216        0.120729        0.162354
LJ           1.96043        -1.05895      -0.0169438
LJ           2.45534        0.757723       -0.789933
LJ          -1.83467         1.69781       -0.677082
LJ           2.51083         1.70603      -0.0494284
LJ          -1.79706         0.92555        0.127578
LJ          -1.05927        0.812153       -0.989264
LJ         0.0403001         1.69847       -0.838789
LJ         -0.750746         1.68013       -0.117743
LJ         0.0510027        0.820232       -0.107958
LJ          0.873687         0.97855        -0.89836
LJ           1.64043         1.72892       -0.822047
LJ          0.944473         1.69961       -0.113429
LJ           1.62415        0.819028       0.0783189
LJ           2.48086         2.40852        0.716323
LJ           -1.4911        -1.85387        0.783987
LJ           2.55339        -1.39681         1.57884
LJ          -1.93909        -2.34536         1.63414
LJ         -0.851372         2.42946        0.967503
LJ        -0.0140213        -1.48923         1.11694
LJ         -0.943794        -1.72637         1.78493
LJ         0.0212445        -2.25607         1.75879
LJ          0.769454           2.377        0.879386
LJ           1.67284        -1.59215         1.07044
LJ          0.745204          -1.649         1.74518
LJ           1.71172        -2.52657         1.48714
LJ          -2.36046       -0.748949         0.72107
LJ          -1.65616        0.058895         0.81104
LJ           2.45277       0.0072458         1.60888
LJ          -1.71269        -0.92583         1.60058
LJ         -0.805524       -0.864298         1.03074
LJ          0.135171       -0.237323        0.861076
LJ         -0.912752        0.017339         1.83209
LJ          0.197016        -0.74118         1.74786
LJ          0.999084       -0.900566        0.592324
LJ            1.7406       -0.318287        0.817997
LJ           0.83031       0.0542759         1.71686
LJ           1.48929       -0.763103          1.7449
LJ           2.38196        0.943898          1.0782
LJ          -1.89404          1.6503        0.971125
LJ           2.43866         1.83642         1.55736
LJ           -1.7689        0.853952          1.7075
LJ         -0.846363        0.964644        0.773788
LJ          0.365869         1.39359        0.722119
LJ         -0.703253         1.45304         1.70291
LJ          0.132195        0.769562         1.70742
LJ           1.18115        0.599596         1.00892
LJ           1.57151         1.83566        0.722625
LJ          0.957443          1.6996         1.68764
LJ           1.84816         1.03319         1.88906
