108
#Comment!
LJ           2.52732        -2.44311         2.55486
LJ          -1.74803        -1.65208         2.42946
LJ           2.51737        -1.72873        -1.70859
LJ          -1.82723        -2.42429         -1.6613
LJ         -0.813127         2.53503         2.47473
LJ         0.0116507          -2.036        -2.49155
LJ          -1.07128        -1.48182        -1.59738
LJ         0.0292666         2.30109        -1.74055
LJ          0.946014         2.46025         2.50979
LJ           1.72924        -1.80433          2.5396
LJ          0.926094        -1.77257        -1.76051
LJ           1.89667        -2.54802        -1.69267
LJ           2.47499       -0.846052         2.56101
LJ          -1.89872      -0.0408667         2.55488
LJ           2.49441        0.138592        -1.99266
LJ          -1.73006       -0.523156        -1.49801
LJ          -1.17753       -0.802022         -2.4579
LJ         0.0417386        -0.17744        -2.49617
LJ         -0.724826       0.0691423        -1.80675
LJ        -0.0920214        -1.14861        -1.92578
LJ          0.855259        -1.12612         -2.5433
LJ            1.6487      0.00943983        -2.51831
LJ          0.824587        0.105078        -1.79366
LJ           1.68143       -0.751461        -1.68478
LJ          -2.43115         1.00528         2.46692
LJ          -1.69709         1.93008        -2.55032
LJ          -2.51592          1.7064        -1.65743
LJ          -1.58514        0.829635        -1.83541
LJ         -0.650454         1.06056         2.49933
LJ          0.161589         1.79786         2.48605
LJ         -0.912021         1.63915        -1.74422
LJ         0.0423261         1.02482         -1.8383
LJ          0.969143        0.947895        -2.54595
LJ           1.92385         1.83302         2.47695
LJ           0.90877         1.85215        -1.64368
LJ           1.66719        0.906002        -1.68329
LJ           2.34015         2.38469       -0.754608
LJ          -1.52954        -1.78831       -0.759774
LJ          -2.42814        -1.84809      -0.0704095
LJ          -1.60858         2.52629      -0.0204394
LJ         -0.845043        -2.54837         -1.0934
LJ          0.139841        -1.73463       -0.882436
LJ         -0.536449        -1.78332       -0.022901
LJ         -0.232653          2.3921       0.0585201
LJ          0.898451        -2.52099       -0.885247
LJ           1.76948        -1.71773       -0.955676
LJ          0.662453        -1.96261        0.113444
LJ           1.69045        -2.37187      -0.0228896
LJ          -2.53103       -0.939684       -0.672193
LJ          -1.92888        0.116993       -0.749466
LJ          -2.55418       0.0966157       0.0443647
LJ          -1.68479       -0.951463      -0.0243993
LJ         -0.608755       -0.900113       -0.658085
LJ         -0.083726        0.261959        -1.02458
LJ         -0.771499      -0.0845749      -0.0767875
LJ          0.138531       -0.722335        0.243906
LJ           0.81373       -0.962363       -0.620682
LJ           2.04908      -0.0920075       -0.874184
LJ          0.675975       0.0896405       -0.019743
LJ             1.742        -1.01135       -0.140409
LJ          -2.47603         1.04189       -0.883972
LJ          -1.57196         1.80021       -0.831777
LJ            2.3669         1.77018       0.0503259
LJ           -1.9722        0.972498        0.120502
LJ          -1.07073        0.652904       -0.954456
LJ         0.0529265         1.84288       -0.882785
LJ         -0.782227         1.55414      -0.0854575
LJ        -0.0338915        0.871472       0.0199448
LJ           0.74295        0.961167        -0.68918
LJ           1.59829         1.62765       -0.913277
LJ          0.787003         2.01038       -0.105804
LJ            1.6635        0.811992       -0.197701
LJ           2.45089         2.37284        0.866816
LJ          -1.41736        -1.83643        0.741805
LJ            2.5479        -1.61067         1.79886
LJ           -1.9883        -2.47944          1.6496
LJ         -0.695267         2.54545         1.13141
LJ          0.151694        -1.62713         0.92567
LJ          -0.88522        -1.79383         1.72472
LJ          0.118842        -2.35072         1.72116
LJ           0.87864         2.29694        0.913224
LJ           1.98868        -1.56447        0.715507
LJ          0.968123        -1.78319         1.72601
LJ           1.67771        -2.50477         1.66537
LJ           2.48258       -0.610086        0.926441
LJ          -1.73188        0.051582        0.799058
LJ           2.50595      -0.0262294         1.78296
LJ          -1.88897       -0.802121         1.74175
LJ         -0.729113       -0.873592         1.03473
LJ        -0.0128728      -0.0622937        0.977606
LJ         -0.845363        0.185909         1.94257
LJ          0.228531       -0.938936         1.85894
LJ            1.0372        -1.03789        0.729408
LJ           1.58758       -0.200169         0.73836
LJ          0.848209       0.0505729         1.94375
LJ           1.55086       -0.897404         1.77986
LJ           2.34972        0.702914        0.810416
LJ          -1.43074         1.99267        0.807619
LJ           2.47645         1.65152         1.58762
LJ          -1.78538           0.934         1.60269
LJ         -0.853679        0.649445        0.856601
LJ          0.255686         1.49651        0.743083
LJ         -0.846413          1.6068         1.58236
LJ        -0.0170873        0.809173         1.56549
LJ          0.983545         0.78398        0.854674
LJ           1.56466          1.6708        0.576885
LJ           0.86094         1.60237         1.73013
LJ           1.87886        0.816453          1.7835
