108
#Comment!
LJ          -2.41038        -2.27729         2.42096
LJ          -1.70313        -1.62569         2.44645
LJ          -2.26236        -1.52872         -1.7512
LJ          -1.47018         -2.4617        -1.86209
LJ         -0.751471         2.47375         2.50557
LJ           -0.1463        -1.62268         2.49656
LJ          -1.05539        -1.53122        -1.75464
LJ          0.120914         2.38832        -1.81554
LJ          0.956215        -2.47443         2.46211
LJ           1.72724        -1.54002          2.4278
LJ           1.00197         -1.8461        -1.71636
LJ           1.93512          2.3125        -1.77224
LJ          -2.55067       -0.784253         2.53636
LJ          -1.82236       0.0271189         2.31957
LJ          -2.46328      0.00880423        -1.75895
LJ          -1.64706        -0.63904        -1.65963
LJ          -1.13346       -0.820079        -2.55226
LJ         0.0239336       -0.125227        -2.34234
LJ         -0.954026       0.0697301        -1.82136
LJ        -0.0140451        -1.09533        -1.72682
LJ          0.873568        -0.95478         2.54187
LJ           1.69745       0.0003088        -2.40344
LJ           0.85754        0.156457        -1.78995
LJ           1.60116       -0.674228        -1.68746
LJ          -2.44088        0.972454        -2.44879
LJ          -1.71061         1.97527         2.37398
LJ          -2.46568         1.58803        -1.56354
LJ          -1.63693        0.734229        -1.90734
LJ         -0.490198        0.755284         2.46112
LJ          0.168549         1.64469         2.28757
LJ           -1.2116         1.65533        -1.66054
LJ        -0.0264425         1.11596        -1.80378
LJ           1.05987        0.974951         2.45381
LJ           1.84836         1.74519         2.54045
LJ          0.952871         1.79487        -1.96396
LJ           1.61563        0.861149        -1.67348
LJ          -2.54405         2.38961       -0.845576
LJ          -1.46711         -1.6768       -0.825531
LJ          -2.29822        -1.73708      -0.0228177
LJ           -1.6448         2.56435        0.142599
LJ         -0.556055         -2.4894        -1.15863
LJ         0.0363182        -1.67048       -0.833571
LJ         -0.802395        -1.87991       -0.028591
LJ       -0.00286245          2.2417       0.0840986
LJ            0.7848        -2.54725       -0.972456
LJ           2.01104        -1.78429       -0.871953
LJ          0.797626         -1.8463        0.276163
LJ           1.64665        -2.50334       0.0493666
LJ           -2.3758       -0.892079       -0.801711
LJ          -1.94775       0.0870752       -0.935575
LJ          -2.45788       0.0556542       0.0472258
LJ          -1.63901       -0.702594        0.073401
LJ          -0.75628       -0.852013       -0.803689
LJ         -0.221451      -0.0627646        -1.02659
LJ         -0.672491       -0.013082       0.0150076
LJ       -0.00628015       -0.813813        0.103636
LJ          0.991066        -1.25778       -0.763643
LJ           1.79507       -0.116644       -0.660455
LJ          0.929276       0.0841473       0.0624234
LJ           1.97632       -0.985363    -0.000746197
LJ           2.52399        0.843778       -0.800897
LJ          -1.64951         1.60963       -0.772538
LJ           2.36706         1.58542       0.0328685
LJ           -1.8424         1.04838        0.261614
LJ           -1.1557        0.680617       -0.961487
LJ          0.129063         1.65571       -0.814573
LJ         -0.871165         1.58467       -0.192942
LJ         0.0192187        0.850512        -0.21259
LJ          0.991801        0.819056       -0.812206
LJ           1.68386         1.72125       -0.742454
LJ          0.852879         1.65256        -0.12326
LJ           1.67187        0.764126       0.0404735
LJ            2.5335         2.37324        0.694057
LJ          -1.38042        -1.81456        0.857092
LJ          -2.50772        -1.48745         1.58876
LJ          -1.92122        -2.31179         1.51565
LJ         -0.775953         2.43175         0.88303
LJ        -0.0125365        -1.52978         0.96787
LJ         -0.860651        -1.67126         1.87973
LJ         0.0660512        -2.33454          1.6716
LJ           0.78717         2.41812        0.994526
LJ           1.69451        -1.58029        0.909253
LJ          0.893553        -1.59801         1.73181
LJ           1.84815        -2.49577         1.62023
LJ          -2.47675       -0.953199        0.741708
LJ          -1.56245      -0.0707385        0.772881
LJ           2.42956       -0.103501         1.58791
LJ          -1.70751       -0.738128         1.61996
LJ         -0.858017       -0.940674         1.12157
LJ          0.231298       -0.103328        0.942163
LJ          -0.92685       0.0348979         1.74211
LJ          0.140302       -0.813286          1.6955
LJ          0.870293       -0.840218        0.619358
LJ           1.69719       -0.258039        0.769042
LJ          0.737653      0.00659099         1.83276
LJ           1.65165        -0.77739         1.67456
LJ           2.22719        0.932322         1.01436
LJ          -1.67226         1.76987         1.03368
LJ           2.50004         1.77401         1.75192
LJ          -1.89545        0.843989         1.39543
LJ         -0.861586        0.793658        0.608647
LJ          0.452684         1.52153        0.814157
LJ         -0.918935         1.36476          1.6368
LJ         0.0610969        0.909316          1.4786
LJ           1.18781        0.632808         1.04791
LJ           1.49562         1.66546        0.574725
LJ           1.16144         1.75671         1.73168
LJ           1.79657         1.06297         1.89791
