108
#Comment!
LJ          -2.50428        -2.28488        -2.55657
LJ          -1.69385        -1.50945         -2.5546
LJ          -2.43774        -1.55029         -1.7143
LJ          -1.69159        -2.44925         -1.7477
LJ         -0.812644         2.34992        -2.46172
LJ         -0.129675        -1.49711         2.49592
LJ         -0.814834        -1.43789        -1.92426
LJ          0.135147        -2.54371        -1.83996
LJ            1.0756        -2.53032        -2.51811
LJ           1.58501        -1.46788         2.45358
LJ           1.05536        -1.77174        -1.74303
LJ           1.95212         2.55687        -1.62615
LJ           2.52455        -0.75878        -2.43425
LJ          -1.91947      -0.0407168         2.28344
LJ           2.55648       0.0474252        -1.61608
LJ          -1.58925       -0.580218        -1.59496
LJ          -0.75406       -0.681971         2.50004
LJ          0.071298       -0.025887        -2.31227
LJ         -0.734566       0.0632722        -1.74182
LJ         0.0702625       -0.907928        -1.54285
LJ          0.684424       -0.991089        -2.55388
LJ           1.71496       0.0784135         -2.4319
LJ          0.872906        0.263136        -1.63002
LJ           1.43421       -0.688423        -1.53125
LJ          -2.56352        0.905058        -2.36492
LJ          -1.77625         1.89079         2.46599
LJ          -2.44568         1.69514        -1.52609
LJ          -1.54469        0.682618        -2.00897
LJ         -0.492423        0.849852         2.50249
LJ         0.0558558         1.87023          2.4514
LJ          -1.19127         1.60524        -1.70636
LJ         -0.182967         0.98053        -1.66206
LJ           1.02289        0.979233         -2.5256
LJ           1.75452         1.95786        -2.56386
LJ          0.961831         1.86095        -1.83834
LJ           1.73813         1.21566        -1.81161
LJ           -2.5635        -2.42049       -0.638405
LJ           -1.4109        -1.57157       -0.801885
LJ          -2.26491        -1.61908       0.0381565
LJ          -1.67735         2.43527        0.364233
LJ         -0.705031        -2.52803        -1.03925
LJ         0.0328157        -1.86755        -0.69897
LJ         -0.751612        -1.85661       0.0512068
LJ         0.0677364         2.44534       0.0744997
LJ           1.01553        -2.47217       -0.940498
LJ           1.88881        -1.52174       -0.906104
LJ          0.748221        -1.96817        0.245963
LJ           1.68552        -2.49431       0.0159404
LJ          -2.29009       -0.812871       -0.734832
LJ          -1.81813        0.273393       -0.923266
LJ          -2.40324      -0.0337351       0.0213812
LJ          -1.61022       -0.617823       -0.102431
LJ         -0.740985       -0.785066       -0.815491
LJ        -0.0132373      -0.0236307       -0.820163
LJ         -0.634127      -0.0765342        0.057456
LJ        0.00169226        -1.08614       0.0615011
LJ          0.915297        -1.15664       -0.645483
LJ           1.92695       -0.305995       -0.570218
LJ           0.81598       0.0586872       0.0402408
LJ           1.91226        -1.06299        0.156411
LJ           2.36844        0.789305       -0.717338
LJ          -1.77806         1.66054       -0.632621
LJ           2.37573         1.62407       0.0146855
LJ          -1.79004        0.979671        0.127847
LJ         -0.835204        0.861258       -0.897145
LJ        -0.0334025         1.78302       -0.941423
LJ         -0.779337         1.70886       -0.128909
LJ          0.177235        0.931371       -0.204454
LJ          0.871749         1.01366       -0.992341
LJ           1.72383         1.71711       -0.804718
LJ           0.84613          1.8293       -0.153478
LJ           1.72609        0.691261       0.0421324
LJ           2.47176          2.4039        0.752302
LJ          -1.47937        -1.83625         0.87176
LJ           2.42626        -1.45984         1.65032
LJ          -1.95415        -2.45587         1.65665
LJ         -0.720796         2.44225        0.995186
LJ         -0.138379        -1.57634          1.0337
LJ         -0.913631        -1.64379         1.79954
LJ        -0.0280115        -2.32771         1.77647
LJ          0.852297          2.4842         0.89377
LJ           1.56803        -1.64575        0.958918
LJ          0.735253        -1.54406         1.65106
LJ           1.61035         2.55769         1.54897
LJ          -2.39939       -0.763627        0.893588
LJ          -1.82888        0.223899        0.792834
LJ           2.33524       0.0846264         1.68128
LJ          -1.60105       -0.826227         1.67735
LJ         -0.951924       -0.917153        0.880657
LJ         0.0911519      -0.0689165        0.892072
LJ          -1.04022      -0.0207964         1.56183
LJ         0.0187274       -0.705278         1.80087
LJ          0.940262       -0.946187        0.488595
LJ           1.66474       -0.216526        0.847251
LJ          0.934196      -0.0606687         1.71058
LJ           1.55864       -0.838754          1.7174
LJ           2.32577        0.932966         1.06736
LJ          -1.90088         1.64016         0.95444
LJ           2.44784         1.91625          1.6233
LJ          -1.68827        0.827523         1.66399
LJ         -0.969268        0.841843         0.92177
LJ          0.266808         1.49081        0.768222
LJ         -0.731957         1.45121         1.69854
LJ          0.167319        0.696267         1.62919
LJ           1.16894        0.667998         1.09977
LJ           1.56404         1.72146        0.772777
LJ           0.87016         1.78948         1.62722
LJ           1.72755        0.898533         1.92851
