108
#Comment!
LJ          0.789896        -1.57777         1.42337
LJ          -2.20925        -1.61903       -0.726253
LJ         0.0693293       -0.781455         2.47858
LJ          -2.53194          1.3464        -1.26478
LJ          0.888196         0.77088         2.25458
LJ           2.44157         1.20412        0.305978
LJ           1.34215        0.305899         -1.2981
LJ           2.34231        -2.28145        -1.14875
LJ          -2.07223        -1.93488         2.02436
LJ          0.779945          1.7623        -0.25402
LJ              2.33         1.48889          1.3028
LJ          -2.13318         2.30903         1.18364
LJ           1.85709      -0.0788036       -0.620237
LJ          -1.03771         1.54312         1.53692
LJ           -1.0709         1.65255       -0.584351
LJ          -1.57524        -0.46842       -0.418208
LJ        0.00927019       -0.135455        -1.48959
LJ          -1.56154         0.52174        -1.14009
LJ           1.82938        -1.33901         1.26265
LJ           1.41994         2.31605        -2.46877
LJ           1.95279        0.481306         2.08709
LJ        -0.0289693         1.82292         1.55862
LJ          -2.41693         1.21659         2.37045
LJ           2.25002       -0.636367        0.212973
LJ           2.05619         2.52274         1.69193
LJ          0.872125       -0.153348        -2.26739
LJ          -1.79731        -2.00968        -1.82094
LJ          -0.97786        -1.18328         -1.3786
LJ         -0.958081        0.364598       -0.135369
LJ          0.177125        -2.52329        -0.76732
LJ         -0.646446        0.660093        -1.61455
LJ         -0.207301        0.798651         1.73175
LJ          -1.94155        0.980912         1.53855
LJ          -2.09271        -2.31806      -0.0744558
LJ         -0.883287        -1.47615       -0.171761
LJ          0.084494          1.5377        0.449717
LJ           2.00269        -1.82618      -0.0373534
LJ          -2.51556        -1.90137         0.82689
LJ         -0.520232         1.50549         -2.4932
LJ          0.353067       -0.314223         0.38684
LJ          0.919079        0.912229         1.23379
LJ          -2.28807         1.90498       -0.434658
LJ         -0.690108       -0.751819        0.634042
LJ           2.33542          2.1924        0.478696
LJ          -1.95742       -0.795254        -2.00825
LJ           1.87826         1.34834        -2.18607
LJ           1.81021        0.991112       -0.625318
LJ          -1.45798        -1.38695         1.38402
LJ          -2.42001        0.231403        0.601476
LJ           1.44589         -1.1867        -1.72952
LJ          -0.56612        -2.44414      -0.0473932
LJ         -0.418009       -0.410651       -0.567226
LJ           0.59403        -1.53542        -1.17081
LJ           2.23315       -0.516538         2.50492
LJ           1.24646         1.61135          -1.391
LJ          0.195866         2.53253        0.879123
LJ           1.56472       -0.314837         1.09049
LJ          -1.62106       -0.396194         1.13628
LJ          -2.37652        0.407474       -0.547454
LJ             2.468        0.395832        -1.88292
LJ         -0.608768       -0.243453         1.79535
LJ           2.35256         2.19969        -1.97453
LJ         -0.986818        -2.25192        -1.06865
LJ           1.43775         1.64923         1.71861
LJ           1.13986         -1.0982        0.390127
LJ         -0.249386        -2.34372         2.11094
LJ          -1.94073        -1.20299        0.306352
LJ          0.669206         2.54143         1.75174
LJ          -0.13411        0.511112        0.526115
LJ          0.883053        -2.33435       0.0932636
LJ          -1.77892         2.15633        -1.24029
LJ         -0.403553        -1.47472         1.55084
LJ         -0.929069        -2.51689        -2.17063
LJ         -0.743603         2.04885        0.659813
LJ            1.8717         2.23214       -0.431264
LJ          -1.08519        0.487099        0.979341
LJ           2.55458       -0.630412         1.37865
LJ          0.392877        0.933759        -1.99789
LJ          -1.00989        -0.27834        -2.16675
LJ        -0.0659222        0.532293       -0.650147
LJ          0.587726         1.88182         2.48434
LJ          -2.10304        0.130421         2.20318
LJ          0.013446         2.08258        -1.93442
LJ          0.835908        0.505398       -0.124089
LJ           1.29078         -2.2455        -1.16264
LJ          -1.66292         2.19227         2.44638
LJ           1.37976         1.63103        0.641267
LJ           2.49808       -0.756444        -1.16569
LJ          -1.08303         -2.4566         1.57838
LJ          -1.46276         1.39309        -1.82968
LJ           1.46767        -2.22219        0.924925
LJ         -0.194481        0.257592        -2.52046
LJ          0.180845        -1.37119       -0.316765
LJ            1.7054        0.640607        0.533294
LJ        -0.0750177         1.39026        -1.16612
LJ          -0.22654        -1.73247        -2.07467
LJ           1.52963        -1.22396       -0.698605
LJ           1.01585        -1.96728        -2.27224
LJ          0.812404       -0.596596       -0.710671
LJ          -1.21301        0.737322         2.18713
LJ          -0.93131        -1.59349         2.43726
LJ          -1.27572        -2.03769        0.610419
LJ          0.486144       0.0140067           1.461
LJ           2.27427        -1.96123        -2.49444
LJ         0.0624625        -1.50946        0.638135
LJ          -1.70619         1.66141         0.32972
LJ          -1.66151       -0.826734         2.20487
LJ           1.23349       -0.946929         2.22349
