108
#Comment!
LJ           2.22609         1.68072         1.84569
LJ          -2.08294        -1.81626         0.42576
LJ          -0.48467        -1.98913        0.961475
LJ          -1.66285         1.65717        0.306008
LJ          -1.43577         0.36705         2.05476
LJ           2.20799       -0.695958         1.45592
LJ           1.27793        -1.28974         2.39331
LJ           1.08621        0.712041        0.854118
LJ          -1.97391         2.28078          1.7781
LJ        -0.0503062        0.523581         2.32818
LJ           2.33084         1.55642        -1.78475
LJ           1.13514         1.90886         2.55527
LJ          0.142661         1.58618         2.11038
LJ          0.474423          1.0709       -0.176864
LJ           1.08343        0.869731          2.5023
LJ         -0.413263        -1.67216       -0.955052
LJ         -0.214839        -1.14414         2.07736
LJ         -0.592489        0.106684         1.61116
LJ          0.379104        -1.75463        0.206067
LJ           1.85546       -0.443511        -1.10915
LJ           -1.2757         0.30614        0.760923
LJ         -0.990726         2.23809       -0.739346
LJ           1.50018        -2.49556       -0.326964
LJ           -1.9599        0.125653      -0.0501837
LJ              1.25        -2.54406         1.76747
LJ          -1.19443        -2.08627        -1.48333
LJ            1.7737        -1.03217      -0.0509838
LJ            1.7669        -2.21143         -2.1555
LJ           2.44625         2.07955        0.914355
LJ         -0.386523        -0.80354        0.914343
LJ          -1.66666        -2.24614        -2.42256
LJ          0.702241        -0.71304        0.350847
LJ          -2.48952       -0.768098        0.434727
LJ           1.34605       -0.243879         2.44699
LJ           0.80079        -1.06894       -0.626244
LJ          -1.26068        -1.15211        -2.02979
LJ         -0.360834         2.07152         0.78433
LJ        0.00158474        -1.27278        -1.95555
LJ          0.645033        -1.52247         1.54739
LJ          -1.43095        0.574027       -0.714031
LJ           -2.0319         2.32211        -1.54129
LJ           2.00623        0.708961        -0.62832
LJ          -2.54406         2.38059        -2.46787
LJ          -1.35077       -0.585148         1.66577
LJ          -2.49396       -0.947835       -0.658178
LJ          0.806477        -1.90989        -1.34723
LJ          0.428132       -0.224545         1.51271
LJ         -0.841872       -0.224058       -0.487009
LJ           1.58174        -1.50955         1.06487
LJ          -1.47843        -2.34091         1.11916
LJ          -1.88136         1.67543        -2.50285
LJ          -1.84169         1.15681         1.50428
LJ          -1.27186        -1.42119         2.06762
LJ           2.16129       -0.747322        -2.25465
LJ           2.22011        0.236098        0.297558
LJ          -1.53881        0.453913        -1.95836
LJ        0.00478196         2.35561        -1.99803
LJ           2.49366        -2.42799       -0.122587
LJ          0.844775       0.0508259        -1.85462
LJ         -0.990113         2.05636        -2.10994
LJ          0.753155         1.87527        0.791924
LJ         0.0455858         2.29531        -0.19282
LJ           2.10132         2.39828        -1.08626
LJ          -1.38885       -0.990531       -0.962321
LJ            0.8193        0.598802       -0.957241
LJ            2.0433        0.392271        -1.78358
LJ         -0.991049         2.05234         1.76169
LJ          0.142694        0.834937         1.43417
LJ            1.2821        -0.15866       -0.206132
LJ          -2.18912      -0.0407274        -1.10373
LJ           1.08526       -0.916627        -1.56516
LJ           1.16265         1.21197        -1.76527
LJ           2.53421        -2.16227         1.42453
LJ          -2.17446       -0.938212        -1.67111
LJ             -1.81         1.32718        -1.44779
LJ          0.598524        -1.89556        -2.54688
LJ         -0.626625        -2.05713        -2.48686
LJ         -0.371937       -0.238445        -1.57243
LJ          -2.15297      -0.0161704         1.30492
LJ           2.05614        0.651014         1.46241
LJ          0.355774       -0.527115         2.55845
LJ         -0.193171        0.787491       -0.953969
LJ          -1.07161        -2.15061       0.0219686
LJ         -0.774353         1.18235         2.53612
LJ          -2.44631         1.04236        0.689199
LJ         -0.059942        0.393427        0.303691
LJ           2.38773        0.835623         2.40442
LJ          -2.26942       -0.205288         2.25836
LJ           1.48024         1.73429       -0.777176
LJ          -2.03733        -2.09353       -0.795502
LJ          -0.43947        -1.09766      -0.0693578
LJ         -0.844731         1.19951         1.14546
LJ        -0.0256088        -2.50392         1.70426
LJ           1.50168         2.56315        0.834456
LJ          0.183701       -0.182722       -0.537644
LJ          -2.35489          1.7916       -0.432668
LJ         -0.713439         1.50541        -1.36984
LJ          0.994197         2.18861        -1.68627
LJ          -2.06627        -1.19848         1.34391
LJ         -0.758398       -0.308902        -2.52641
LJ          0.184207         1.31702         -1.9636
LJ           1.79288         1.42339        0.268747
LJ           2.22446        -1.69238        -1.49611
LJ          0.199054          1.7747        -1.07172
LJ            -2.554         -1.5474         2.18594
LJ           1.54896       -0.197732        0.910675
LJ          -1.38422        -1.06399        0.570374
LJ         -0.583353         1.34362        -0.20909
