108
#Comment!
LJ           1.61905        -0.56813        0.996917
LJ          -2.45441       -0.975863         1.15009
LJ         -0.533908          0.7555         1.61986
LJ         -0.143851       -0.359662        -1.28693
LJ           1.12463        0.998473        0.921015
LJ            2.1805        -2.15014       -0.498431
LJ          0.885785      -0.0288861        -2.36066
LJ           1.78341        0.400509        0.168361
LJ           1.46843        0.720134         2.38438
LJ          -1.24129         1.42217           1.049
LJ           1.69446       -0.836585       -0.537724
LJ          0.142091        0.185464         1.20115
LJ         -0.810734        -2.26247       -0.501696
LJ           1.33344         1.80807         1.59895
LJ           2.40074       0.0157662         1.30283
LJ         -0.700501         -1.3827        0.378639
LJ           -1.2663        -1.86459         2.05574
LJ          -2.11499        0.833912         0.76754
LJ          0.263856          2.4493          2.4508
LJ          -2.51289       -0.522481       -0.981777
LJ       -0.00786912         1.90861        -1.84871
LJ          -0.67802         1.43092        -1.14593
LJ          -1.03221        0.339782        -1.53931
LJ          -1.48419        0.342385        -2.40492
LJ           0.80273       -0.692994        -1.21245
LJ          -1.61646         2.28583         1.28347
LJ           2.38994        -1.27918       0.0792014
LJ         -0.166049       -0.046373         2.52948
LJ           0.78412         1.90663        0.650634
LJ         -0.925359       -0.762802        -2.40658
LJ           1.75993        -1.73032        -1.57709
LJ          -1.63205        -1.60517        -2.07818
LJ           2.55013        -1.06083        -1.98079
LJ         0.0770318        -2.45664       -0.909066
LJ          -1.77566         -2.0961        0.231754
LJ         -0.355472         1.99514         1.15901
LJ           1.83266         2.01986        0.222469
LJ         -0.791244       -0.167705         1.74113
LJ               1.1        -0.99059        -2.29945
LJ          0.850196       -0.270691       -0.219218
LJ          0.999389         -1.7692       -0.560274
LJ           -1.7712        -1.02482     -0.00699281
LJ         -0.859477       -0.560982       -0.515497
LJ          -1.91579         1.54725        -2.40562
LJ           1.26787        -2.20491         0.70349
LJ          -1.82964        -2.53254        -0.82855
LJ         -0.742765         1.09506        -2.35142
LJ           1.13187        0.202943         1.57546
LJ          0.453677        -2.41481         1.40355
LJ           0.71325        -1.77081         2.06961
LJ          -1.69271        0.547035         1.70909
LJ          0.258473         1.50545         1.72002
LJ           1.06374         1.64941        -2.32911
LJ         -0.300064          1.9241       -0.294769
LJ           -2.1157         1.44394         1.72789
LJ          -2.28872          1.4395        -1.44469
LJ         -0.981705         1.78249         2.02085
LJ         -0.800054        -1.57865        -1.45265
LJ           1.19421         -1.2414        0.351491
LJ           1.61776        0.872202        -1.65529
LJ          -1.53426        -1.72041         1.10939
LJ         0.0166339        -1.06337        -2.07566
LJ          -1.25601          1.9925       0.0947825
LJ           -2.4944        0.519163         2.38341
LJ          -2.51463       -0.259481        0.268553
LJ          0.897005        0.436345        -1.11163
LJ          -1.44783        0.261425       0.0574288
LJ           0.45149       -0.842309          1.9118
LJ         -0.799108        -2.36794         0.61295
LJ          -2.24823        0.408666        -1.57111
LJ           1.84981        -2.41727         2.43197
LJ          -1.64633        0.998176       -0.749097
LJ           0.42828         1.52893        -1.01148
LJ          -2.27971          2.0947        0.543984
LJ           2.08694         2.26918        -1.24618
LJ         -0.601309        -1.22525          1.4913
LJ          0.688059        -1.85723        -1.55067
LJ           2.56496        0.647607       -0.391048
LJ          -0.37648         -2.0433          -2.455
LJ         -0.253582       -0.290019        0.394205
LJ          -1.39155       -0.705964        -1.45083
LJ        -0.0609625        0.432401       -0.568924
LJ           2.34982        -1.96548        0.750475
LJ        -0.0929073         1.13675         0.61444
LJ           1.89432       -0.260488        -1.69944
LJ           2.10825         2.34066         1.34881
LJ           2.04133       -0.712567         2.22728
LJ          0.394145        0.852431         2.47964
LJ          0.151221       -0.970429       -0.313598
LJ          0.150656        -2.13484       0.0621182
LJ          -2.27571        -1.56868         2.00059
LJ          0.337396        -1.42051        0.771125
LJ           2.24082          1.6529         2.40598
LJ          -1.61419        -0.70631         2.05519
LJ          -2.17731        -1.54232        -0.86585
LJ           2.11721         1.02363         1.38307
LJ           1.59871         1.48779       -0.804177
LJ          -0.95217        -2.49283        -1.80607
LJ           1.72415        -1.66602         1.49317
LJ          -1.52552       -0.212853        0.996194
LJ          0.778304         1.24953       -0.135149
LJ          0.987937         2.32606        -0.38117
LJ           2.55732         1.68733       -0.427531
LJ           1.86127        0.221025       -0.834184
LJ           1.11208         2.35157        -1.45227
LJ          -2.09471         2.51542         2.13544
LJ          -2.12596         2.46698        -1.89393
LJ         0.0343375        0.891315         -1.6539
