108
#Comment!
LJ           2.50314        -2.54334          2.5484
LJ          -1.68882        -1.90011         2.53484
LJ          -2.45667         -1.6862        -1.75209
LJ          -1.83979         2.55624        -1.72486
LJ         -0.893399         2.34497         2.48311
LJ         -0.193745        -1.82568        -2.53508
LJ         -0.853098        -1.63452        -1.57158
LJ         0.0203351        -2.56175          -1.697
LJ          0.878196         2.52501         2.56091
LJ           1.62577        -1.81255        -2.51986
LJ           0.86355         -1.5075         -1.6121
LJ           1.88905        -2.46403        -1.71775
LJ           2.42319       -0.872389         2.53577
LJ           -1.5799       0.0633848         2.55636
LJ           2.52948       0.0983712        -1.79411
LJ          -1.80377       -0.893989        -1.71011
LJ          -1.11079       -0.870482         2.54404
LJ           0.02298       -0.141772         2.49741
LJ         -0.870744       0.0792615        -1.71644
LJ         0.0544637       -0.864259        -1.74085
LJ           0.91216       -0.974574        -2.54536
LJ           1.80046        0.138561        -2.54585
LJ          0.771324        0.200995        -1.68031
LJ           1.67256       -0.826802        -1.69204
LJ          -2.52959        0.854616         2.55755
LJ          -1.76689         1.74715         2.55337
LJ          -2.50545         1.55966        -1.78417
LJ          -1.78488        0.929038        -1.62205
LJ         -0.703756        0.988865         2.27365
LJ          0.200668         1.75878         2.43922
LJ         -0.909067         1.64891        -1.60006
LJ        -0.0911613        0.871131        -1.90299
LJ          0.780993        0.936644        -2.37866
LJ           1.75283         1.73755        -2.44913
LJ           1.00914         1.81576        -1.62324
LJ           1.71803        0.857933        -1.70188
LJ          -2.49193        -2.43333       -0.802843
LJ          -1.46386        -1.64682       -0.754073
LJ           2.48882        -1.76896     -0.00697814
LJ          -1.61009         2.53977      0.00227256
LJ         -0.768741         2.55142        -0.83934
LJ        -0.0601676        -1.77173       -0.892684
LJ         -0.888066        -1.72043        0.150073
LJ         -0.106523         2.44624      -0.0298106
LJ          0.843433         2.54671       -0.892304
LJ           1.55724        -1.80836       -0.814772
LJ          0.720941        -1.75493        0.175334
LJ           1.63479        -2.53063      -0.0689343
LJ          -2.49287       -0.915387        -0.82615
LJ          -1.96035        0.199273       -0.781609
LJ           2.42248     -0.00607915      -0.0579341
LJ          -1.70514       -0.872252      -0.0863267
LJ         -0.888918       -0.764816       -0.850086
LJ       -0.00198697      -0.0155459       -0.797659
LJ         -0.879775      0.00117465      -0.0455947
LJ        -0.0483317       -0.693037      0.00729543
LJ          0.937005        -0.83664       -0.762836
LJ           1.67392       -0.195284       -0.821578
LJ          0.909797      -0.0455388        -0.11791
LJ           1.72425        -1.03874       -0.101881
LJ          -2.47649          1.0473         -0.8668
LJ          -1.73578          1.7789       -0.972892
LJ          -2.55204         1.77531       0.0980797
LJ          -1.74638        0.936765        0.135289
LJ         -0.874771        0.761576       -0.726484
LJ         -0.139679         1.73549       -0.988843
LJ         -0.906966         1.74362       -0.139283
LJ         -0.124933        0.976996      0.00543324
LJ          0.665699         0.92395       -0.812647
LJ           1.72009         1.85503       -0.879779
LJ          0.687812         1.78371       -0.108851
LJ           1.66386        0.787847       0.0849774
LJ           2.50111         2.56016        0.958505
LJ          -1.62546        -1.73302        0.943583
LJ           2.34923        -1.67706         1.73262
LJ          -1.85557         2.51315         1.62933
LJ         -0.843967         2.43044         0.77948
LJ         0.0404621        -1.69541        0.882669
LJ         -0.880428        -1.72831          1.6964
LJ         0.0798572         -2.4475         1.89184
LJ           1.06872         2.48633        0.990381
LJ           1.70463        -1.78643        0.839735
LJ           0.91602         -1.5543         1.68143
LJ           1.68929        -2.55921         1.79232
LJ           2.43934       -0.596698        0.920935
LJ          -1.78977     -0.00255538         0.85241
LJ           -2.4848      -0.0262063         2.01662
LJ           -1.7572       -0.901226         1.71477
LJ         -0.694235       -0.888937        0.839198
LJ         0.0655551      -0.0848354        0.830029
LJ         -0.650196       0.0887121         1.72856
LJ        -0.0341534       -0.855749         1.63296
LJ          0.734018       -0.953798        0.770556
LJ           1.66842      -0.0116469        0.759012
LJ          0.879213       -0.146252         1.75618
LJ           1.70514       -0.867083         1.74602
LJ           2.45904        0.933844        0.859813
LJ           -1.7799         1.72635        0.808539
LJ          -2.51727         1.70899         1.78398
LJ          -1.75831        0.768667         1.71016
LJ         -0.900501        0.640633        0.831846
LJ        -0.0525065         1.61729        0.886837
LJ         -0.819988         1.72432         1.65436
LJ         0.0121087        0.755256         1.54194
LJ          0.881302        0.790147        0.794688
LJ           1.76443         1.77482        0.799131
LJ          0.814439         1.61774         1.66438
LJ           1.66985         1.04519         1.61871
