108
#Comment!
LJ          -2.46191        -2.30346         2.56031
LJ          -1.66727        -1.48342         2.56361
LJ          -2.43427        -1.55752        -1.75605
LJ          -1.70397        -2.41462        -1.77445
LJ         -0.812492         2.32631        -2.42502
LJ          -0.14161        -1.46423         2.48386
LJ         -0.866561        -1.44929        -1.94244
LJ          0.129868        -2.47037        -1.86185
LJ           1.05314        -2.49957        -2.50775
LJ            1.6396        -1.49767         2.42372
LJ           1.08499        -1.81449        -1.74824
LJ            1.9561        -2.55979        -1.61949
LJ           2.52071       -0.754896        -2.44536
LJ          -1.88912      0.00639842         2.25996
LJ          -2.55546       0.0596431        -1.61834
LJ          -1.60656       -0.601512        -1.57501
LJ         -0.755289       -0.680985         2.52141
LJ         0.0830629      -0.0434123        -2.33285
LJ         -0.724036        0.095363         -1.7315
LJ         0.0900241       -0.930708        -1.55241
LJ           0.67985       -0.983499        -2.50469
LJ           1.69616       0.0733459         -2.4472
LJ          0.874713         0.21763        -1.66141
LJ           1.47165       -0.706527        -1.53347
LJ           2.55219        0.878485        -2.35037
LJ          -1.80495         1.92591         2.47646
LJ          -2.46046         1.68605         -1.5269
LJ           -1.5436        0.680909           -2.08
LJ         -0.487956        0.850138         2.51773
LJ         0.0680306         1.83593         2.43111
LJ           -1.2265         1.60226        -1.73189
LJ         -0.177635        0.979939        -1.64692
LJ          0.975091        0.991785        -2.48517
LJ           1.79177         1.92487        -2.56396
LJ          0.967002         1.85121        -1.85852
LJ           1.70742         1.13505        -1.80776
LJ           2.56148        -2.44533       -0.696885
LJ          -1.39939        -1.56988       -0.794611
LJ          -2.23823        -1.59656       0.0566032
LJ          -1.65428          2.4822        0.301629
LJ         -0.720961        -2.50442        -1.03219
LJ         0.0228274        -1.88115       -0.718603
LJ         -0.703046        -1.86368       0.0955745
LJ         0.0594013         2.44069        0.125096
LJ           1.03137        -2.46902       -0.969091
LJ           1.84955         -1.5521       -0.907675
LJ          0.753621        -1.94646        0.203559
LJ           1.66159        -2.50488      -0.0128145
LJ          -2.30436        -0.78386       -0.732628
LJ          -1.84017        0.257428       -0.954457
LJ          -2.41846     -0.00513687       0.0137966
LJ          -1.58615       -0.598207       -0.157414
LJ         -0.728706       -0.786719       -0.831413
LJ       -0.00368912      -0.0702928       -0.859217
LJ         -0.650986      -0.0445313       0.0125492
LJ         0.0219603        -1.11728       0.0649259
LJ          0.925716        -1.14739         -0.5893
LJ           1.95599       -0.265712       -0.540772
LJ          0.801448       0.0619355       0.0434994
LJ           1.92277         -1.0037        0.165226
LJ           2.32059        0.787296       -0.701169
LJ          -1.80086         1.68136       -0.645374
LJ           2.42513         1.61227     -0.00981294
LJ          -1.77718        0.961403        0.106838
LJ         -0.901105        0.841325       -0.920132
LJ        -0.0326463         1.75708       -0.924744
LJ         -0.815781          1.7277       -0.102867
LJ          0.178413        0.955353       -0.130829
LJ          0.876121         1.01369       -0.961753
LJ           1.70155         1.73299        -0.83893
LJ           0.83052         1.81184       -0.177329
LJ           1.68302        0.741939       0.0626419
LJ           2.46369         2.38729        0.737447
LJ          -1.47904        -1.79074        0.875665
LJ           2.41644        -1.47507         1.63776
LJ          -1.94816        -2.42022         1.63048
LJ         -0.763957         2.40801        0.981996
LJ         -0.149507        -1.58608          1.0588
LJ         -0.863542         -1.6429         1.79379
LJ        -0.0029132        -2.31707         1.79256
LJ          0.815163         2.47999         0.89473
LJ           1.58361        -1.60978        0.956821
LJ          0.750676         -1.5198         1.69248
LJ           1.63925         2.54516         1.52878
LJ          -2.36394       -0.736896        0.883536
LJ          -1.82386        0.214286        0.791964
LJ            2.3896       0.0548238          1.6696
LJ          -1.64157       -0.801967         1.66714
LJ         -0.945917       -0.933652        0.901996
LJ         0.0960583      -0.0992221        0.905754
LJ          -1.01192      -0.0461742         1.59507
LJ         0.0452944       -0.687303          1.8016
LJ          0.985596       -0.883152        0.440349
LJ           1.65467       -0.192622        0.838194
LJ          0.916985       -0.062599         1.76259
LJ           1.54911       -0.828732         1.72805
LJ           2.30979        0.915128         1.07135
LJ          -1.88607         1.62147        0.975132
LJ           2.45417         1.93333         1.61733
LJ           -1.7147        0.844889         1.65282
LJ         -0.951365        0.838302        0.874944
LJ          0.279038         1.46605        0.743685
LJ         -0.758259         1.48621         1.72587
LJ          0.175814        0.703159         1.62399
LJ           1.18409        0.707478         1.09714
LJ           1.61351         1.72159        0.754641
LJ          0.893645         1.81764         1.63096
LJ           1.74492        0.933361          1.9344
