108
#Comment!
LJ           2.47635        -2.49313         2.55573
LJ          -1.77659        -1.70534         2.43694
LJ           2.51707        -1.70868        -1.76705
LJ          -1.77782        -2.55524        -1.57431
LJ         -0.872716         2.48403        -2.55519
LJ         0.0466506        -2.04637         -2.4521
LJ          -1.18994         -1.4755        -1.71662
LJ         -0.043939         2.22547        -1.80581
LJ          0.878324          2.5095         2.46862
LJ           1.76609        -1.71515        -2.55704
LJ          0.872868         -1.8579        -1.77203
LJ           1.90283         2.54141        -1.68491
LJ           2.51429       -0.922803          2.5582
LJ          -1.86325       0.0484703         2.52901
LJ            2.5135        0.122003        -1.98192
LJ          -1.80896       -0.559435         -1.6109
LJ          -1.20835       -0.777895        -2.44255
LJ      -0.000627393       -0.225366        -2.46652
LJ         -0.686298      -0.0118846        -1.78446
LJ         -0.150681        -1.14026        -1.86817
LJ          0.919667        -1.13704        -2.50879
LJ           1.75465        0.045182         2.51993
LJ          0.934578        0.080885        -1.80712
LJ           1.66397       -0.618298        -1.74705
LJ          -2.53206        0.931074         2.45084
LJ          -1.72656         1.96527         2.48016
LJ          -2.46899          1.6402        -1.59517
LJ          -1.59653        0.788257        -1.77637
LJ         -0.594579         1.05154          2.5127
LJ          0.185616         1.74641         2.46176
LJ         -0.973564          1.6541        -1.75743
LJ         0.0977992         1.02255        -1.79826
LJ          0.877919        0.827919         2.46474
LJ            1.8706          1.8334         2.49271
LJ          0.904102          1.8545        -1.61383
LJ           1.58302        0.930409        -1.64079
LJ           2.44822         2.37985       -0.746429
LJ           -1.5069        -1.72233       -0.769089
LJ          -2.44112        -1.92048      -0.0702209
LJ          -1.66055         2.54687      -0.0248642
LJ         -0.847812        -2.56045        -1.02968
LJ          0.200888        -1.72613       -0.911598
LJ         -0.600562        -1.87112       0.0200685
LJ         -0.194998         2.36684       0.0877697
LJ          0.846961        -2.49968        -0.89223
LJ           1.83072        -1.71405       -0.948199
LJ          0.806679        -2.02848         0.23786
LJ           1.67925        -2.43715       0.0126886
LJ           2.55439       -0.927548       -0.685595
LJ          -1.88715        0.178276       -0.813224
LJ          -2.50885        0.108906       0.0448324
LJ          -1.75748       -0.947917      0.00750993
LJ         -0.598033       -0.866246       -0.677012
LJ         -0.108582         0.32436       -0.970872
LJ         -0.721167       -0.028439      -0.0175257
LJ         0.0896402       -0.775203        0.262367
LJ          0.780521       -0.951524       -0.582434
LJ            2.0056        -0.15952       -0.828202
LJ          0.739749      -0.0150624      -0.0115848
LJ           1.73419        -1.07007       -0.109366
LJ           -2.5407        0.969945        -0.89188
LJ          -1.58898         1.84422       -0.802568
LJ            2.3707         1.68792       0.0176774
LJ          -1.97096         1.08721        0.174958
LJ           -1.0715        0.715121       -0.964804
LJ          0.163569         1.86572       -0.898941
LJ         -0.761674         1.60477         -0.1193
LJ         0.0243278        0.888337       -0.100506
LJ          0.733751          1.0206       -0.764839
LJ            1.6911         1.72413       -0.855149
LJ           0.75846         2.06428      -0.0279899
LJ           1.76294        0.844133       -0.143306
LJ           2.39377         2.32562        0.825692
LJ          -1.40917        -1.90394        0.682501
LJ           2.55288        -1.56828         1.70044
LJ          -2.01611        -2.39849         1.49856
LJ         -0.603098         2.51502          1.1056
LJ         0.0853159        -1.63066        0.945279
LJ         -0.923002        -1.87299         1.73573
LJ         0.0824368        -2.33612         1.70435
LJ          0.803174          2.3383        0.959319
LJ           1.98293        -1.65006        0.714724
LJ           0.98722        -1.78069         1.72885
LJ           1.66001         2.55174         1.69146
LJ           2.47606        -0.71031        0.938311
LJ          -1.75795       0.0850159        0.875374
LJ           2.52233      0.00284855         1.73093
LJ          -1.89764       -0.749802         1.78227
LJ         -0.710642       -0.923635         1.02353
LJ         0.0367175       -0.108112         1.02298
LJ         -0.896263        0.214304         1.87839
LJ          0.235632       -0.975032         1.77445
LJ           1.09093        -1.00031        0.685253
LJ           1.62508       -0.169039         0.76118
LJ          0.844859       -0.049173         1.89997
LJ           1.59183       -0.848648         1.82814
LJ           2.38312        0.862011        0.886083
LJ           -1.4348         1.94872        0.865429
LJ            2.4244         1.63935         1.56951
LJ          -1.83899        0.972656         1.58354
LJ         -0.901391         0.63756        0.852985
LJ          0.198663         1.47268        0.662185
LJ         -0.789339         1.58878         1.61711
LJ         0.0642679        0.812309         1.58301
LJ           1.08588        0.779319        0.909039
LJ           1.57054          1.7177        0.571575
LJ          0.807478         1.56886         1.68044
LJ           1.76646          0.7906         1.83543
