108
#Comment!
LJ           2.48997        -2.52087         2.49736
LJ          -1.65015        -1.83823         2.52715
LJ           2.52279        -1.73858        -1.61866
LJ          -1.90159         2.55309        -1.79552
LJ          -0.90433         2.56282         2.33861
LJ         -0.203331        -1.88784         2.56161
LJ         -0.948559        -1.52957        -1.69945
LJ          0.122399         2.38308        -1.73774
LJ          0.881469         2.53191         -2.4142
LJ           1.71969        -1.69767        -2.55276
LJ           0.81933        -1.56233        -1.54046
LJ           1.89904         -2.4743        -1.59069
LJ            2.5094       -0.854248        -2.51569
LJ          -1.63346        0.170952         2.46816
LJ           -2.4796         0.20644        -1.85721
LJ           -1.8748       -0.810975        -1.51695
LJ          -1.09733       -0.977382        -2.56171
LJ         0.0211435      -0.0880623         2.54384
LJ         -0.832241        0.139706         -1.7575
LJ         0.0529346       -0.826537         -1.7448
LJ          0.929304        -1.05212        -2.53222
LJ           1.69154        0.171207          2.5266
LJ          0.735094        0.159086        -1.61362
LJ           1.58507       -0.909036        -1.73501
LJ          -2.55696        0.975764         2.45908
LJ          -1.75483         1.90089         2.46125
LJ           2.54264         1.57912        -1.81621
LJ          -1.67287         0.88584        -1.78623
LJ          -0.70114        0.996853         2.28199
LJ          0.094513         1.70113         2.39591
LJ         -0.800784         1.62047        -1.68615
LJ        -0.0756063        0.808994        -1.75829
LJ          0.728645        0.869935        -2.46003
LJ           1.80611         1.92968        -2.56044
LJ           1.00962         1.76739        -1.52935
LJ           1.76315        0.826156         -1.7024
LJ          -2.44153        -2.54915       -0.831546
LJ          -1.50736        -1.72814       -0.643017
LJ          -2.54162        -1.77334      -0.0556558
LJ          -1.72962         2.44467     -0.00821911
LJ         -0.765024           2.496       -0.852652
LJ         0.0436842        -1.69124       -0.844911
LJ         -0.763002        -1.74331        0.142092
LJ         -0.227162         2.37817      -0.0320473
LJ           1.01442         -2.5121        -0.94087
LJ           1.62689        -1.69805       -0.763593
LJ           0.64041        -1.93286       0.0561589
LJ           1.67854        -2.42652      -0.0847418
LJ           2.50571       -0.917815       -0.772723
LJ          -1.88134         0.13901       -0.799578
LJ          -2.55751      0.00940615      -0.0211392
LJ          -1.74283       -0.724004      -0.0794303
LJ         -0.855171       -0.762379       -0.902101
LJ       -0.00988079       0.0860024       -0.799474
LJ         -0.858516     -0.00237057       0.0322384
LJ         -0.120282        -0.69504       -0.114291
LJ           0.75015       -0.877893       -0.820076
LJ           1.85593      -0.0977493       -0.854764
LJ          0.880776       0.0792568      -0.0929943
LJ           1.76773        -0.95922      -0.0506192
LJ           -2.4793         1.11244       -0.774548
LJ          -1.65385         1.73366        -1.01988
LJ          -2.55628         1.70595       0.0610979
LJ          -1.87867        0.889128        0.126155
LJ         -0.905066        0.799577       -0.899892
LJ         0.0208382         1.72365       -0.871642
LJ         -0.921109         1.58887       -0.208351
LJ        -0.0322716         1.01901      0.00090015
LJ          0.761576         0.95566       -0.786304
LJ            1.9051         1.78673       -0.931704
LJ          0.820006         1.90036       -0.111777
LJ           1.77393        0.873732      -0.0676533
LJ           2.49032         2.53764          0.9828
LJ          -1.50812        -1.81224        0.986064
LJ           2.49217        -1.53706         1.78227
LJ          -1.89488         2.46829         1.67448
LJ         -0.785507          2.5025        0.804003
LJ         0.0978016        -1.67859        0.894382
LJ          -0.96663        -1.67218           1.812
LJ         0.0432055        -2.50303         1.72533
LJ           1.12756        -2.49802        0.999216
LJ           1.89987        -1.54353        0.857636
LJ          0.829501        -1.68483         1.67279
LJ           1.60329         -2.4753         1.84392
LJ           2.51673       -0.668814        0.905094
LJ          -1.83718       0.0361898        0.888209
LJ          -2.54909      -0.0105014         1.92611
LJ          -1.73718       -0.832832         1.65162
LJ         -0.685919       -0.842161        0.813825
LJ      -0.000471788       -0.142586        0.861048
LJ         -0.832739       0.0569556          1.8614
LJ         0.0869863       -0.943402         1.58421
LJ           0.87555        -0.88057        0.888822
LJ           1.58075       0.0120062        0.637361
LJ          0.780382       -0.060143         1.88455
LJ           1.75265       -0.863149         1.69236
LJ           2.39029        0.742651        0.753005
LJ          -1.54476         1.85088        0.806776
LJ           2.50969          1.6881         1.75784
LJ          -1.60244        0.770464         1.64848
LJ         -0.889578        0.617298        0.844578
LJ       -0.00783467         1.72687        0.816827
LJ         -0.784567         1.73673          1.4157
LJ       -0.00679278        0.872328         1.61142
LJ          0.834525         0.89632         1.00484
LJ           1.78003         1.70872        0.837423
LJ           1.01414         1.73194         1.84033
LJ           1.68367        0.922581         1.67439
