108
#Comment!
LJ          -2.53369        -2.36665         2.54735
LJ          -1.81305        -1.50726          2.5219
LJ          -2.25389        -1.61033        -1.79653
LJ          -1.54492        -2.45094        -1.79399
LJ         -0.847404         2.39184        -2.49456
LJ          -0.10517        -1.59134         2.47307
LJ         -0.945898        -1.55877        -1.88726
LJ         0.0500316         2.42502        -1.89731
LJ           1.01816        -2.37485        -2.45344
LJ           1.73234        -1.63219          2.3903
LJ           1.23873        -1.71531        -1.66381
LJ           1.93503         2.42621         -1.5493
LJ           2.42826       -0.628065         2.55138
LJ          -1.80409      0.00448228         2.34626
LJ           -2.4199      -0.0635974        -1.85018
LJ          -1.62319       -0.598555        -1.63905
LJ          -1.02082       -0.736498        -2.49928
LJ        -0.0522278       -0.166909        -2.48732
LJ         -0.798293        0.145449        -1.74782
LJ         0.0869355       -0.925457        -1.61947
LJ          0.778566       -0.987824        -2.56393
LJ           1.63943     -0.00782603        -2.37601
LJ          0.754441        0.144284        -1.70596
LJ           1.52763        -0.67088        -1.60088
LJ          -2.54616        0.936088        -2.46833
LJ             -1.74         1.96047         2.42048
LJ          -2.46095         1.69803        -1.52052
LJ          -1.60251        0.728038        -2.03745
LJ         -0.506113         0.76754         2.55932
LJ          0.114608         1.72873         2.32805
LJ           -1.2195         1.70758        -1.67679
LJ        -0.0304156         1.04613        -1.71109
LJ           1.09795         1.01884         -2.4839
LJ           1.75252         1.88937         2.48274
LJ          0.982719         1.87788        -1.84761
LJ           1.77888         0.81551        -1.75255
LJ           2.50014         2.55844       -0.683381
LJ          -1.45503        -1.73904       -0.909018
LJ          -2.32005        -1.65505       -0.215673
LJ          -1.59095         2.47653        0.130831
LJ         -0.622712         -2.4879        -1.04728
LJ         0.0276646        -1.78555       -0.742166
LJ          -0.70711        -1.76502      -0.0298143
LJ        -0.0290427         2.32448        0.117303
LJ          0.700897         2.53351        -0.86621
LJ           1.91838        -1.52189       -0.903576
LJ          0.810631        -1.89586        0.166798
LJ           1.67697        -2.52962       0.0223518
LJ          -2.38702       -0.819268       -0.845571
LJ          -1.82006        0.102474       -0.974613
LJ          -2.31928        0.084875      0.00882975
LJ          -1.65471       -0.766778      -0.0110433
LJ         -0.747742       -0.714265       -0.687611
LJ         -0.107025        0.156556        -1.02234
LJ         -0.673965      -0.0669928       0.0756283
LJ        -0.0491698       -0.853479        0.143693
LJ          0.903973        -1.17297        -0.72227
LJ           1.82846       -0.211352       -0.569635
LJ          0.740306       0.0576813        0.121785
LJ           1.96996        -1.00705    -0.000401898
LJ           2.45141        0.821602       -0.785178
LJ          -1.78359         1.64559       -0.733188
LJ            2.4828         1.60352      -0.0227289
LJ           -1.8621           1.015        0.157476
LJ          -1.10724         0.77505       -0.963092
LJ           0.17973         1.72281       -0.888959
LJ         -0.854984         1.72164      -0.0614015
LJ         0.0556339        0.833233       -0.178082
LJ          0.915431        0.929403       -0.910739
LJ           1.71024         1.73634       -0.881176
LJ          0.841242         1.74456      -0.0993962
LJ           1.63637        0.839404        0.156635
LJ           2.51933         2.47499         0.62077
LJ          -1.52273        -1.78778        0.797735
LJ          -2.50211         -1.4445           1.576
LJ          -2.00783        -2.38445         1.65762
LJ         -0.827243         2.44379         1.05669
LJ         0.0297924        -1.46446         1.05662
LJ           -1.0463        -1.71729         1.85534
LJ          0.016636        -2.23952         1.71559
LJ          0.856903         2.36594        0.883473
LJ           1.67087        -1.58494         1.10773
LJ          0.819553        -1.67598         1.80796
LJ           1.78097          -2.516         1.46812
LJ          -2.44085       -0.837412        0.721725
LJ           -1.6165       0.0949087        0.864871
LJ           2.39844      -0.0250685         1.64792
LJ          -1.67632       -0.934582         1.59863
LJ         -0.857442       -0.944202         1.05321
LJ          0.154885      -0.0948043        0.937474
LJ         -0.973185       0.0550568         1.81843
LJ           0.23059       -0.698197         1.73362
LJ          0.883309       -0.899445        0.657909
LJ           1.79576        -0.36271        0.838808
LJ          0.883001       0.0674528         1.77977
LJ           1.52995         -0.7129          1.7591
LJ           2.29338         1.00516         1.03768
LJ           -1.7645         1.71843         1.05321
LJ           2.52365         1.88265         1.60928
LJ          -1.87142        0.797223          1.6469
LJ         -0.891268        0.925473        0.760737
LJ          0.384175         1.34584        0.771417
LJ         -0.718263         1.34982         1.64626
LJ          0.118879        0.795927         1.61246
LJ           1.16502         0.65192         1.02857
LJ           1.52128         1.68814        0.703263
LJ           1.01793         1.62874         1.72605
LJ           1.80595         1.13117         1.91181
