108
#Comment!
LJ           2.55427          2.5184        -2.53466
LJ          -1.68386        -1.80674         2.49738
LJ           2.54262        -1.81138        -1.73947
LJ          -1.80231         2.53589        -1.71463
LJ         -0.947073         2.42756         2.48474
LJ          -0.10806        -1.75034         -2.4936
LJ         -0.789118        -1.65253        -1.63756
LJ        -0.0486525        -2.49882         -1.5723
LJ          0.892963        -2.55767         2.47016
LJ           1.69885        -1.79915        -2.46368
LJ          0.910333        -1.61095        -1.59683
LJ           1.78137        -2.52015        -1.70312
LJ           2.38035       -0.813652         2.47209
LJ          -1.57513       0.0135542         2.43468
LJ           2.51652      -0.0157504        -1.71716
LJ          -1.64855       -0.896549        -1.67785
LJ         -0.894437       -0.817502         -2.5568
LJ          0.110664      -0.0722021        -2.55358
LJ         -0.873368        0.110851        -1.63352
LJ        -0.0317951       -0.960772        -1.68106
LJ          0.783111       -0.959387         -2.5388
LJ           1.77689        0.103873         2.53304
LJ          0.775453        0.058827        -1.72696
LJ           1.63995       -0.864139        -1.64187
LJ           2.55731        0.863184         2.50287
LJ           -1.7618         1.75044         -2.5533
LJ          -2.48646         1.60042        -1.77661
LJ          -1.81382        0.835858        -1.73278
LJ          -0.79725        0.920429         2.37546
LJ         0.0642285          1.6224         2.43292
LJ         -0.815615         1.75101         -1.7013
LJ         0.0120161        0.866582        -1.81402
LJ          0.833471        0.952579        -2.48447
LJ           1.74315         1.78548         2.56339
LJ           1.00483         1.75018        -1.74905
LJ           1.63905        0.798884        -1.59315
LJ          -2.50152        -2.55136       -0.884463
LJ          -1.59843        -1.75175       -0.809892
LJ           -2.5626        -1.77707      -0.0551532
LJ          -1.64357         2.53529     0.000456098
LJ         -0.806297          2.4974       -0.865675
LJ        -0.0467982        -1.62892       -0.872622
LJ         -0.867835        -1.67746      -0.0767763
LJ         -0.101743         2.42666       -0.104769
LJ          0.884027         2.48832       -0.804145
LJ           1.64461        -1.75713       -0.772772
LJ          0.740265        -1.85953       0.0787606
LJ           1.68558        -2.52829      -0.0214788
LJ          -2.52351       -0.847029       -0.776283
LJ          -1.83014        0.143539       -0.978351
LJ          -2.56351      -0.0106562      -0.0330494
LJ          -1.79039       -0.908069      -0.0530858
LJ         -0.792554       -0.763562       -0.780358
LJ         0.0322952       -0.198291       -0.903893
LJ           -0.9383       -0.170198       0.0107443
LJ         0.0123224       -0.717714        0.111795
LJ          0.941537       -0.787602       -0.864703
LJ           1.66124      -0.0285744       -0.914658
LJ          0.873847       0.0170806      -0.0530063
LJ            1.6788       -0.908149       -0.149604
LJ            2.5448        0.913419       -0.867798
LJ           -1.7563         1.68531       -0.916927
LJ           2.51921         1.70477       0.0380272
LJ          -1.69427        0.894331          0.1119
LJ         -0.842108        0.765404       -0.619069
LJ         -0.129513         1.74678       -0.972531
LJ         -0.917377         1.69287       -0.064042
LJ        -0.0573917        0.889333        0.152681
LJ          0.793122        0.954668        -0.81859
LJ           1.77353         1.75908       -0.784227
LJ          0.710277         1.72788      -0.0868781
LJ           1.66491        0.754926       0.0546272
LJ          -2.53311        -2.52156        0.882023
LJ          -1.64388        -1.77509        0.993373
LJ            2.4752        -1.60117         1.73231
LJ          -1.76762         2.55474         1.68304
LJ         -0.887725         2.50092        0.774372
LJ          0.081514        -1.75658          0.9009
LJ         -0.860229        -1.75437         1.81433
LJ         0.0987165        -2.50106         1.72719
LJ          0.979967         2.40397        0.879978
LJ            1.7142        -1.84579         0.82613
LJ          0.946191        -1.75072         1.56735
LJ           1.77222        -2.56123         1.73243
LJ           2.49683       -0.803817        0.889799
LJ          -1.72427      0.00825162        0.873709
LJ          -2.49095      -0.0485222         1.83826
LJ          -1.75047       -0.923944         1.82143
LJ         -0.818954       -0.830202        0.774568
LJ          0.149555       0.0103858        0.816008
LJ         -0.753174       0.0716558         1.71041
LJ         0.0244077       -0.923257         1.64954
LJ          0.783602       -0.868662        0.861674
LJ           1.65833       -0.134332        0.863458
LJ          0.849046     -0.00480397         1.70851
LJ           1.79745       -0.792285         1.63629
LJ           2.52896        0.826475        0.789563
LJ          -1.70568         1.63228        0.831571
LJ           2.52882         1.66691         1.78313
LJ          -1.60866        0.809185         1.77359
LJ         -0.846108        0.781375        0.846427
LJ          0.014839         1.55836        0.875921
LJ         -0.794691         1.78135          1.6419
LJ        0.00703655        0.757245         1.60817
LJ          0.886839        0.778738        0.704087
LJ           1.63663         1.62138        0.781767
LJ          0.878335         1.56428         1.67205
LJ           1.71575        0.980627         1.64371
