108
#Comment!
LJ         -0.761404        -1.95753         2.54081
LJ          0.108713         1.23237        -1.92174
LJ           1.20658        0.638687         2.45271
LJ          -1.13978         2.31397         2.01404
LJ         -0.979298       -0.912297       -0.132563
LJ          -1.32593         1.23819         2.46491
LJ           0.33505        0.378267         1.93178
LJ          -2.39826       -0.580849       -0.769609
LJ           1.33668        0.852041      -0.0452768
LJ           -2.1651        0.990539        0.493867
LJ          0.453951        -2.47472       -0.194784
LJ          0.880916        0.754775         -1.1018
LJ         0.0624923        -1.91551         -1.8401
LJ          0.354101       -0.584248         1.33267
LJ          0.384991       -0.156525       -0.729347
LJ          -1.37319         1.32964          1.4097
LJ          -2.09378       -0.264586        -2.20328
LJ           1.50616         1.60845        0.880431
LJ         -0.326313        -0.36897        -1.71099
LJ           2.56409         1.89902        0.895391
LJ          -2.30379        -1.25133        -1.76309
LJ          0.943795         1.07949         1.54105
LJ          -1.53621         0.12719       -0.172437
LJ         -0.411979         1.93995       0.0364082
LJ         -0.361384        -1.28097        0.732453
LJ           1.90626         2.27518      -0.0351426
LJ          -1.27859         1.67866       -0.358818
LJ          -1.72479        -1.47568         2.18219
LJ           1.04146        -2.43204        0.704633
LJ          -1.23288        -1.67278        -1.60553
LJ        -0.0596744        -2.15924        0.648865
LJ           2.06043       0.0596724       -0.959075
LJ          -2.21757        -2.41815         1.82949
LJ          0.716909        -1.10751       -0.663191
LJ             2.142        0.178209         2.25755
LJ         -0.418942         1.61005         1.23502
LJ          0.602056       -0.794001        -1.76339
LJ          0.575385         2.13288          1.5213
LJ           2.35777        -1.92787    -0.000107076
LJ          -2.12218         0.55619        -1.14945
LJ           1.55498       -0.262586        -1.95706
LJ          -1.63519          1.2907        -1.60672
LJ          -2.16482         2.31893         -2.2472
LJ         -0.426822        0.541774        -2.48403
LJ          -1.13779       -0.934496        -2.36116
LJ          -0.13051         1.44013         2.17764
LJ         -0.762117         1.92831        -1.99112
LJ          -2.26475         0.60957         1.70577
LJ           1.87308        -1.29748       -0.860187
LJ           1.80416         2.34849         1.75092
LJ         -0.287799      0.00965602         0.26231
LJ          0.667047        -1.67623         1.43856
LJ          0.586929        0.296074        -1.92292
LJ           1.94781        0.658994        -1.72699
LJ          0.998729         1.79913       -0.155658
LJ          -1.57275        -2.48966       -0.863101
LJ         -0.245243        -1.29444        -1.02362
LJ           2.27244        0.274719        0.227236
LJ         -0.882883       -0.311418         1.24179
LJ         -0.699344       -0.145019       -0.704698
LJ           2.07102       -0.843209        0.091308
LJ          0.474818         1.57546        0.658683
LJ           -2.3959         1.50301         2.07255
LJ          -0.35157        -2.11094         1.59499
LJ           2.45662        -2.27065         -1.6405
LJ           -0.6541        -2.51296        -1.24852
LJ          0.802285          1.9673        -2.33486
LJ        -0.0372067         1.65037       -0.966605
LJ           1.76984         2.54579        -2.31834
LJ          -1.20447        0.338176        -1.75595
LJ          -1.02887        0.787354       -0.830974
LJ          -2.06411          2.3399     -0.00743213
LJ          0.763991       -0.824393        0.265111
LJ           1.05829          1.9709        -1.33043
LJ           1.99714        -1.98561        0.999264
LJ           2.20582         1.75944        -1.76969
LJ           1.79629         1.41882        -0.79759
LJ          -1.36387        -1.65871         1.17604
LJ          -2.11365        -1.10627        0.223645
LJ           2.15979       -0.221017          1.3074
LJ          -1.83668       -0.555422          1.7939
LJ         -0.892247        0.902695        0.324917
LJ           1.00302       -0.951405         2.24986
LJ           1.53259       -0.992596         1.16913
LJ           1.29791        -1.81209      -0.0740921
LJ          -1.53469       -0.618299        -1.25602
LJ           1.67721          1.5084         2.43896
LJ           1.00861        -1.94996        -2.39098
LJ           1.28565       -0.164752       -0.327145
LJ          -1.90111        -1.47881       -0.800951
LJ         0.0800274        -2.48601         2.41614
LJ         0.0612781        0.567757        0.983489
LJ           1.03996        0.257986        0.763121
LJ          -2.31262        0.842901        -2.29048
LJ         -0.531398        -2.03132       -0.339918
LJ           1.91991         1.01565         1.57833
LJ          -2.37421         1.75454       -0.829953
LJ          -2.51524        -1.93943        -2.54349
LJ          0.340778         0.72607       -0.209491
LJ        -0.0539346        -1.25902         2.19232
LJ           2.35305       -0.830645           2.246
LJ           1.77835        -1.37583        -1.95568
LJ         -0.126098        0.535228        -1.26377
LJ          -2.42383         -1.3616         1.31369
LJ          -1.34614        0.288587         2.18562
LJ           1.80114        -1.67185         2.02053
LJ           1.03661        -2.06382        -1.17664
LJ          -1.88091       0.0723642        0.883368
