108
#Comment!
LJ          -1.09396        -2.23777        -1.79547
LJ          -1.11837       -0.237516          -1.887
LJ           2.28798         2.18444        -2.44264
LJ           1.30717         2.26633         -2.1285
LJ         -0.611085         1.23874       -0.545128
LJ           2.37091         1.14145         2.47526
LJ          -0.52402        -1.11569        -2.11501
LJ            1.6513       -0.758187        -1.41028
LJ           1.55592        0.862051         1.75776
LJ           1.83743        -1.23279       -0.407661
LJ         -0.668863         2.21718        0.180016
LJ          0.576808       -0.479639         -1.4711
LJ         -0.723901         1.97738        -2.30545
LJ         -0.981111        -1.10824           1.229
LJ          0.507481         1.82857      -0.0970186
LJ          -2.47143         2.18086         1.14123
LJ          -2.49548       -0.744468        -1.90749
LJ          0.424238      -0.0902225         1.74851
LJ         -0.165417        -1.60094          -1.365
LJ          0.193663         2.45378         1.03859
LJ          -1.35684        -1.46417         2.24749
LJ          0.792885        0.436712        0.714685
LJ          0.981412        0.507627        -1.31033
LJ        0.00902992         1.03628        0.348943
LJ          -1.66292        -0.31625         1.68404
LJ           1.06219        -2.11654        0.453101
LJ           1.74165         1.86239        0.839647
LJ          -1.73071         -2.4044         2.24637
LJ           1.36239        -2.44868         1.61437
LJ          -2.44557          1.6573       -0.916898
LJ          -1.60459         2.08306       -0.268327
LJ           -2.2586        0.388153        0.369056
LJ           1.88942         1.82043         1.89929
LJ          0.420311        -1.46256        -2.23764
LJ         -0.108399       -0.162946        -2.32171
LJ           2.41551        0.576065        -0.56236
LJ          0.254569         2.50458        -2.20665
LJ          0.823427         1.90339          2.2038
LJ           1.42788        0.121021       -0.195993
LJ          -1.41474         1.80465        -1.49123
LJ        -0.0828014        0.317683        -1.36883
LJ          0.812128         1.52341        -1.30831
LJ           1.66512         2.40922         -1.1644
LJ         -0.984578        0.934551        -1.89575
LJ           -2.5611        0.455277         1.47214
LJ          0.221056        0.818855        -2.16158
LJ          -2.35274        -1.75521        -2.37231
LJ          -1.76326         1.58696        -2.42245
LJ           2.01924        0.118266         -1.8905
LJ         -0.145199        -1.14995         1.83675
LJ        -0.0866925        -0.91314      -0.0468962
LJ          -0.41552         1.62775          1.2358
LJ          0.623199        -1.47169       -0.672973
LJ          0.446847       -0.123028       -0.483682
LJ           1.38069         1.19523       -0.342726
LJ          -2.42942         1.45961        0.116574
LJ          -1.81918        -2.29948       -0.816524
LJ           1.85003       -0.488051        0.500708
LJ          -2.29396       -0.515949        0.875328
LJ          -2.02423        0.804824        -1.78527
LJ          -2.50741        -1.02525         1.91701
LJ         -0.512732         1.17095          2.2646
LJ          0.522745        -2.37358         -1.1102
LJ          -1.25646        0.345832        0.986759
LJ          -1.45913         2.42116        0.753053
LJ          -1.64028         1.00312        -0.85603
LJ            1.3495         1.01731        -2.40721
LJ          -1.56055        -1.34643        -1.68895
LJ           1.22739        -1.77115        -1.49576
LJ           1.87397         1.31062        -1.44888
LJ          -1.31977         1.22571        0.213132
LJ          -1.21076        -1.73088         0.31667
LJ          -2.11476         -1.1504       0.0131163
LJ          0.359187        0.897424       -0.676042
LJ           2.04537        -1.55451        0.968121
LJ          0.968022       0.0694329        -2.36002
LJ          0.704437         1.60601        0.989801
LJ           -2.0652        -1.80983        0.940192
LJ           1.89167          0.8104        0.472924
LJ           1.67028        -1.84629         -2.4954
LJ          -1.48037        0.594276         2.00144
LJ          -1.77413         1.25648         1.23129
LJ         -0.542112       -0.737703        -1.12447
LJ         -0.440462        0.128539       -0.128489
LJ         0.0441541        -2.12119        -0.21061
LJ          -2.18462         2.56247         -1.6637
LJ          0.331975        -2.08618         1.99053
LJ           1.16353         -1.3969         1.52483
LJ           -1.1421        -1.48033       -0.767983
LJ            2.2504         -1.6348        -1.46448
LJ         -0.795632        -2.29768          1.8694
LJ          -1.07904       -0.717333        0.174448
LJ         -0.089758       -0.265918        0.896918
LJ          -2.22983       -0.418191        -0.76462
LJ         -0.683635         2.46918       -0.798237
LJ          0.840601       -0.638856        0.627746
LJ           1.44811          2.4086       -0.180737
LJ           1.82903       -0.425908         2.37188
LJ          0.344614        0.979756         1.68416
LJ          -0.59754       -0.169627         1.91247
LJ           1.44465       -0.300781          1.4557
LJ         0.0519884        -1.58254        0.910377
LJ           -1.2147      -0.0128112       -0.835257
LJ           2.42322        -2.25564          1.8844
LJ          -1.22028         1.86065         1.83108
LJ          -2.52793        -2.13274       0.0132836
LJ         -0.165731         1.70296        -1.49026
LJ          0.815088       -0.763625         2.24424
