108
#Comment!
LJ          0.158085        -1.51726        -1.05249
LJ            2.4349        -1.87704         1.13479
LJ          0.284016         1.79373      -0.0305089
LJ          -1.25629        -1.76347        -2.56067
LJ          -2.43071       -0.797879         1.92021
LJ         0.0819669        -1.92305         1.13518
LJ        -0.0977519      -0.0063304          0.2612
LJ         -0.162922        -1.69718        -2.43346
LJ         -0.164563       0.0843474        -1.79734
LJ          0.975152         2.15929        -2.54949
LJ        -0.0104514        -2.28324       -0.307883
LJ         -0.497315        -1.35726         1.76281
LJ         -0.733164         2.03455        0.230909
LJ          -1.90296        0.149501         1.41944
LJ           1.19449      -0.0970076         2.50475
LJ          0.932133        -1.86996       -0.270331
LJ           2.45974         1.76804       -0.306368
LJ           2.15822        0.793652       -0.803973
LJ         -0.862757         1.50464          1.9734
LJ           1.39662        0.793282         1.96311
LJ          0.894874        -1.90452         2.41524
LJ          0.334856         1.62281        -1.69445
LJ         -0.470745       -0.877678        -1.76222
LJ           1.86805      -0.0938013         1.51874
LJ          0.772442        -2.10315         -1.6585
LJ           1.91179         2.37228        0.786965
LJ           1.40327         -1.4971         1.16266
LJ         -0.875492        0.103776         2.14661
LJ          0.280227         1.55531          2.0233
LJ           2.54348        -1.40363       -0.632786
LJ          -1.12538         1.41689         1.00763
LJ         -0.905529        -2.29093        0.955484
LJ           1.89474        -2.20173        -1.03353
LJ          -1.48299         1.44316        -1.90831
LJ          -2.02213        -1.69287        0.381358
LJ          -2.31868         1.59189         1.22841
LJ         -0.484357        -2.47424         1.95703
LJ           2.14353       -0.682896        -2.22799
LJ          0.735334         2.35014       -0.725968
LJ          0.917086        0.900195        0.209447
LJ         -0.958726       -0.550273       -0.643574
LJ          -1.01799        0.193452        0.399914
LJ         -0.815949        -1.79983        -1.32435
LJ          -2.45214        -1.64679        -2.56194
LJ          0.747457         2.50356        0.528485
LJ          -2.08453        -2.35155       -0.364222
LJ          -2.00497       -0.773428        -2.04086
LJ           1.08311         2.47014         1.54136
LJ         -0.936767        -1.44849        0.128852
LJ        -0.0788907       -0.320795         1.43818
LJ          -1.98245         1.13617        0.249855
LJ           2.43152        -2.45553         2.07031
LJ          0.297273          0.3845         2.21941
LJ          -1.75523         2.35515         1.70393
LJ           1.45046         1.81364       0.0751255
LJ         -0.170793         1.06724        -2.22745
LJ          -2.22371         2.29511        -2.08555
LJ        -0.0971156         2.54334        -1.32592
LJ           -1.2469       -0.206154        -1.71027
LJ         -0.514965        0.438577       -0.542123
LJ           1.53488        -1.01902         2.17536
LJ          -1.52977        -1.50388         1.61864
LJ          0.922083         1.47173         1.16584
LJ            1.4463       -0.857366       -0.972992
LJ         -0.282232         1.10632        0.322141
LJ          0.452482        0.999708       -0.833134
LJ           0.62652       -0.840232        0.715986
LJ           1.68793        0.364599         -1.7764
LJ          -1.24888       -0.645382         0.93166
LJ          -2.43859         1.08197        -1.82982
LJ           2.48492        0.791873         1.87021
LJ          0.497086        -1.14068         1.77449
LJ          -1.71573        0.111573       -0.758876
LJ           2.15121         -2.0236       0.0623444
LJ          0.931317        0.930954           -2.19
LJ          -2.11362         2.40927        0.521438
LJ          0.200363       -0.379234       -0.899805
LJ           2.45723       -0.209618       -0.351759
LJ         -0.790121        0.816251        -1.46326
LJ          -2.33227       -0.693307        0.893321
LJ          -1.86442       -0.624549       0.0570487
LJ         -0.161868        0.800546         1.35993
LJ          -1.18046         2.43823       -0.935743
LJ           2.50369      -0.0368687        -1.38445
LJ           1.31415        0.225211       -0.546788
LJ         -0.357986         2.25301        -2.21043
LJ           2.15218        -1.41274        -1.61067
LJ         -0.190449       -0.598918         2.48365
LJ          -1.24524         2.32456         2.50582
LJ         -0.441164         1.58271         -0.9158
LJ           1.84333        -1.06176       0.0309323
LJ          -1.89087        -1.98359        -1.34923
LJ           1.82792         -2.3083        -2.02577
LJ          -2.46711        0.243404        0.610303
LJ          0.634418        -1.03932        -1.86549
LJ          0.990422         0.30755         1.09484
LJ           1.75972         1.38546        -2.37056
LJ           1.66365      -0.0801207        0.487932
LJ        -0.0906973       -0.949978       -0.117179
LJ          -1.87552         1.31147         2.14534
LJ        -0.0808849         2.07654         1.02405
LJ          -1.86733         1.19719       -0.953099
LJ           1.51125         1.57217        -1.32656
LJ           1.95602         1.09205        0.696927
LJ          -1.94495        0.351762        -2.50163
LJ           1.93291         1.83174         1.73455
LJ            2.5623         2.15462        -1.21543
LJ           -1.6835        -1.04738        -1.06945
