108
#Comment!
LJ          -2.47491        -2.27178         2.41531
LJ          -1.68419        -1.59389          2.3983
LJ          -2.25322        -1.56436         -1.6637
LJ           -1.5825        -2.42732        -1.80058
LJ         -0.802348         2.45877         2.54427
LJ         -0.143136        -1.71847         2.54736
LJ          -1.08089        -1.53893         -1.8027
LJ          0.145519         2.38097        -1.89998
LJ          0.938081        -2.54378         2.49199
LJ           1.71129        -1.58531         2.40739
LJ          0.989944         -1.8417        -1.68439
LJ           1.97497         2.36619        -1.85213
LJ          -2.48491       -0.791158         2.48792
LJ          -1.77014      -0.0496576         2.43978
LJ           -2.4945       0.0567024        -1.77795
LJ          -1.70869       -0.650222        -1.62066
LJ          -1.12085       -0.839983        -2.51137
LJ        0.00650859       -0.188654        -2.34412
LJ          -1.02072       0.0819505        -1.85324
LJ         0.0703214        -1.08978         -1.6878
LJ          0.905248       -0.908073        -2.54076
LJ           1.68024       0.0203209         -2.4679
LJ          0.874913        0.162228        -1.75355
LJ           1.62533         -0.6563        -1.68193
LJ          -2.47393         1.00791        -2.46335
LJ          -1.68632         1.96587         2.40612
LJ          -2.47828         1.56533        -1.55236
LJ           -1.7418        0.736505        -1.89872
LJ         -0.450465        0.776321         2.45198
LJ          0.198076         1.60343         2.33235
LJ          -1.28482         1.64221        -1.78706
LJ         0.0165058         1.08176        -1.79158
LJ           1.05333        0.929449         2.41957
LJ           1.90037         1.73146        -2.55116
LJ          0.945913         1.77084        -1.90314
LJ           1.62119        0.890429        -1.68941
LJ           2.55364          2.3844       -0.857008
LJ          -1.43203        -1.70963       -0.852163
LJ          -2.23005        -1.75745      -0.0429932
LJ          -1.66691         2.56384        0.130731
LJ         -0.526524        -2.49469         -1.0876
LJ         0.0416708        -1.69817        -0.78654
LJ         -0.778273        -1.96599     -0.00513489
LJ        -0.0515761          2.2633       0.0896762
LJ          0.782079         2.55935       -0.882322
LJ           1.96679        -1.70598       -0.932594
LJ           0.82606        -1.81023        0.374588
LJ           1.74399        -2.51196       0.0224086
LJ          -2.34196       -0.876564       -0.832002
LJ           -1.9058     -0.00491544       -0.912804
LJ          -2.46857      0.00263809        0.100727
LJ          -1.63502       -0.668308       0.0753262
LJ         -0.668685       -0.846689        -0.84126
LJ          -0.20095      -0.0603089        -1.07721
LJ         -0.732572       0.0277581     -0.00827944
LJ         0.0390302       -0.792952        0.103507
LJ           1.01861        -1.25458       -0.915222
LJ             1.844       -0.193857       -0.657486
LJ          0.966763       0.0993238        0.122343
LJ           1.91948       -0.962525      -0.0208517
LJ           2.43481        0.890637       -0.808145
LJ          -1.60702         1.72082       -0.862589
LJ           2.30733         1.58617        0.108552
LJ           -1.8132         1.01861        0.380269
LJ          -1.08641        0.747671       -0.953696
LJ          0.169591         1.69963       -0.843275
LJ         -0.830362         1.58569       -0.223924
LJ        -0.0373309        0.816611       -0.237117
LJ            1.0129        0.773788       -0.793837
LJ           1.65728         1.65186       -0.775179
LJ          0.886942         1.72173       -0.169198
LJ           1.64892        0.836855      -0.0444082
LJ           2.52505         2.41672        0.666517
LJ          -1.35648         -1.8094        0.826643
LJ           -2.5206        -1.52444         1.62374
LJ          -1.98005        -2.30607         1.53797
LJ          -0.77589         2.44635        0.934976
LJ         -0.123769        -1.56012         0.91542
LJ         -0.876125        -1.72987         1.96698
LJ         0.0718955        -2.30281         1.74769
LJ          0.839876         2.45487        0.989283
LJ           1.64725        -1.53673        0.872074
LJ          0.866145        -1.66425         1.75713
LJ           1.79532        -2.47294         1.60614
LJ          -2.51766       -0.887621        0.747949
LJ          -1.48465       -0.020362        0.775087
LJ           2.51958      -0.0521184         1.67888
LJ          -1.77591       -0.719176         1.65219
LJ         -0.895566       -0.890408         1.12137
LJ          0.202285       -0.127745        0.979658
LJ         -0.923399       0.0264028         1.78491
LJ          0.205885       -0.793615         1.77259
LJ          0.828829       -0.883104        0.704056
LJ           1.73023       -0.264135        0.762331
LJ          0.693173        0.035538         1.83272
LJ           1.60363       -0.840416         1.65484
LJ           2.23312        0.887099        0.919265
LJ          -1.72771         1.81202        0.977422
LJ           2.44048         1.81932         1.69797
LJ          -1.95326         0.83479         1.46191
LJ         -0.861996        0.904616        0.599881
LJ          0.396296         1.53557        0.779788
LJ           -0.8809         1.38245         1.68733
LJ         0.0784767        0.941486         1.55098
LJ           1.13374          0.6606         1.01485
LJ           1.48947         1.61662        0.613945
LJ           1.11604         1.72567         1.76147
LJ            1.8043         0.99991         1.84893
