108
#Comment!
LJ           2.52017         2.52599         2.51319
LJ           -1.7345        -1.81852        -2.55203
LJ          -2.46666         -1.7831        -1.69715
LJ          -1.82569         2.54457        -1.73082
LJ          -0.86328         2.45012         2.49368
LJ         -0.229995        -1.77698        -2.49456
LJ         -0.851281        -1.65389        -1.55764
LJ        -0.0612926        -2.50517        -1.64028
LJ          0.906352         2.50458         2.50677
LJ           1.60965        -1.81342         2.55798
LJ          0.873665        -1.58187        -1.62721
LJ           1.83417        -2.51266        -1.70951
LJ           2.41292       -0.878366         2.54945
LJ           -1.5431       0.0643938          2.5305
LJ           2.53249       0.0418844        -1.75529
LJ           -1.7354       -0.889226        -1.72964
LJ          -1.07391       -0.942023        -2.53697
LJ         0.0563308       -0.118328         2.50853
LJ         -0.902729        0.148514         -1.7281
LJ         0.0591734       -0.920134        -1.71283
LJ           0.85069       -0.940416         -2.4753
LJ           1.80989        0.133228        -2.51835
LJ          0.761773        0.127541        -1.68498
LJ            1.6596       -0.881994        -1.69652
LJ           2.50943        0.811025         2.51889
LJ          -1.76816         1.65724         2.55382
LJ          -2.51953         1.53942        -1.75022
LJ          -1.77863         0.89737        -1.66881
LJ         -0.824289         1.02519         2.30409
LJ           0.13805         1.64805         2.41431
LJ         -0.804278         1.73028         -1.6242
LJ        -0.0316275        0.913487        -1.86927
LJ          0.850886        0.903777        -2.38225
LJ           1.80602         1.76758        -2.53096
LJ           1.01731         1.82429         -1.7079
LJ           1.69458        0.824969         -1.6947
LJ          -2.55362        -2.48762       -0.910768
LJ          -1.51499        -1.73073       -0.774068
LJ           2.50194        -1.78834      0.00415808
LJ          -1.66149          2.4739       0.0512384
LJ          -0.79532         2.56351       -0.883546
LJ        0.00409587        -1.69209       -0.865802
LJ         -0.831331         -1.7376       0.0832463
LJ          -0.11645         2.47125       0.0345878
LJ          0.904706         2.54421       -0.806298
LJ           1.64062        -1.77905       -0.740835
LJ          0.815977         -1.8762        0.175545
LJ           1.69939        -2.51093      -0.0869843
LJ          -2.50193       -0.875984       -0.781093
LJ            -1.925        0.117523       -0.778841
LJ           2.42822      -0.0304056      -0.0505422
LJ          -1.70453       -0.897952      -0.0601247
LJ         -0.943272       -0.739523        -0.81452
LJ        -0.0804531      -0.0511714       -0.864442
LJ         -0.947273      -0.0436171      -0.0439342
LJ        -0.0633755       -0.707447       0.0136196
LJ          0.893642        -0.88537       -0.792787
LJ           1.66903       -0.162618       -0.875523
LJ          0.934482      -0.0692967       -0.141735
LJ           1.69237       -0.957816       -0.177162
LJ          -2.43258        0.976203       -0.835382
LJ          -1.80786          1.7713       -0.982446
LJ          -2.49567         1.77568        0.107536
LJ          -1.69525        0.927344         0.14877
LJ         -0.869796        0.788846       -0.688943
LJ         -0.115966         1.72373       -0.932436
LJ         -0.913995         1.74946       -0.166369
LJ        -0.0750567        0.922071       0.0624405
LJ          0.694183        0.889005       -0.878748
LJ           1.67272         1.90138       -0.879813
LJ          0.663788         1.75609       -0.192928
LJ           1.71852         0.71428       0.0325682
LJ           2.50523          2.5207        0.981083
LJ           -1.6409        -1.74617         1.00933
LJ           2.30553        -1.71644         1.70944
LJ          -1.85091         -2.5399         1.67567
LJ         -0.859509          2.3879        0.833569
LJ         0.0703828        -1.82374        0.901863
LJ         -0.881913        -1.65475          1.7545
LJ         0.0826057        -2.52014         1.84595
LJ           1.03979         2.44793        0.912461
LJ           1.71969        -1.79606        0.788196
LJ          0.991341        -1.64824         1.64323
LJ           1.69037        -2.48033         1.75577
LJ           2.37705       -0.615829         0.95766
LJ           -1.7308      -0.0285307        0.792916
LJ          -2.49598     -0.00766852         1.91876
LJ          -1.78287       -0.931552         1.78161
LJ         -0.780899       -0.886277        0.817113
LJ         0.0676033        0.014101        0.851613
LJ          -0.71707      -0.0192591         1.72732
LJ        -0.0235903       -0.900904         1.64942
LJ          0.804008       -0.914165          0.7709
LJ           1.60333      -0.0274405        0.792125
LJ          0.868294         -0.1548         1.69837
LJ           1.70107       -0.857695         1.73068
LJ           2.50942        0.922237        0.769393
LJ          -1.79629         1.69695        0.829456
LJ           2.55508         1.74888         1.76464
LJ          -1.68142        0.803118         1.79118
LJ         -0.874358         0.67234        0.790429
LJ        -0.0549765         1.63111        0.939536
LJ         -0.843704         1.80096         1.73137
LJ         0.0423931        0.795379         1.53642
LJ          0.884195        0.725958        0.812114
LJ           1.74009         1.64596         0.74436
LJ          0.830212          1.5939         1.66275
LJ           1.67893         1.01335         1.68427
