108
#Comment!
LJ         -0.275984        -2.15324        -2.39856
LJ           2.49429        0.298315        0.264111
LJ         -0.778515         0.90437       0.0784886
LJ          -2.26743        -2.44377         2.00346
LJ           1.84219         -2.4912       -0.978638
LJ         -0.265679         1.70082         2.44139
LJ         -0.824994        0.200665        0.819849
LJ          -1.96017       -0.342807         2.30885
LJ          -1.35474        -2.42295        -1.70079
LJ         -0.297938        -2.40716        -1.48438
LJ           -1.9778       -0.531146        0.230353
LJ          -1.34798        0.411946         -2.3529
LJ         -0.912628         2.52814       -0.501806
LJ           2.48405          1.0398         2.39639
LJ           1.55611        -1.51095        -1.94182
LJ           1.77343         1.06603        0.286307
LJ          0.100693         2.33591        -0.59734
LJ          0.620885       -0.573971       -0.958376
LJ           2.56447         2.07537        -2.15562
LJ         -0.324731       -0.351655        -1.29862
LJ          0.436683        -1.28584        -1.67795
LJ          -1.77055        0.734162         1.71815
LJ          -2.22479         1.29412        -1.49085
LJ           1.30239        0.312191         2.11951
LJ            0.3754       0.0503464        -1.93287
LJ           1.96047          2.0264       0.0627938
LJ           1.12416          2.4633         1.72218
LJ          -1.10624       -0.269179       -0.440931
LJ          0.692156          1.0399        -2.23861
LJ           1.36793        -1.43644       -0.728499
LJ          0.525721        0.966433         1.01191
LJ         -0.623435         1.21266         1.62625
LJ          -1.16708         -1.5352       -0.713972
LJ          -1.71466         0.66908       -0.411313
LJ           2.13106        -2.34349         1.11229
LJ           2.19838       -0.164258         2.06681
LJ          -2.36432        -1.52183       -0.672684
LJ           1.64847        -1.66145         1.79797
LJ          -2.16716        -1.40999         2.17254
LJ          -0.12918        -1.48898        0.911748
LJ          -1.13057        -1.46749         1.63505
LJ          -0.36996       -0.699423         1.78955
LJ           -1.7174         2.06461        0.400758
LJ           1.05871         1.89044        0.601798
LJ           1.14727        -2.49035       -0.146136
LJ          0.128712        -1.76885        -0.44507
LJ         -0.758142         -1.3067        -1.65432
LJ           0.99553         1.36885         1.85683
LJ             1.353       0.0793942       -0.643072
LJ           1.96564        0.862285         1.46883
LJ          0.167536        0.293304         2.08551
LJ           2.12375        -1.83722       0.0821129
LJ          -1.65823         1.70931         2.27943
LJ         -0.910176         1.60771        -1.82433
LJ          -1.82112        -1.79885        0.227008
LJ          -2.39518         -2.1807        -1.53798
LJ          -1.98639         2.36663       -0.609814
LJ          0.118043        0.281851        0.189252
LJ           2.32898        -0.78475         1.19131
LJ         -0.917038        0.206099         1.82328
LJ          0.167094        -2.42402        0.744255
LJ           1.69136         -2.3931         2.55668
LJ           1.40939      -0.0870832        0.920332
LJ           2.54301        0.382333         -1.1874
LJ           2.45449         1.80156        0.940615
LJ          0.490325        -1.19065         1.74265
LJ         -0.446365       -0.381719        -2.35752
LJ          -0.34751        0.713973        -1.80798
LJ           2.05797         1.59882        -1.11891
LJ         0.0310981        0.428432       -0.816661
LJ           1.51362         1.69831         -2.0182
LJ           2.08163       -0.543419       -0.152321
LJ          -2.46212        0.202064         1.18634
LJ           -0.6443         1.81829        0.574257
LJ          -1.40506         1.53619       -0.817473
LJ           1.07925         1.75786       -0.650455
LJ          0.652796       -0.707898        -2.51583
LJ          -1.00581        -1.12472        0.640439
LJ           -1.6779       -0.442559         1.27633
LJ           2.35631       -0.986839        -2.31372
LJ           2.17642       -0.634736        -1.25338
LJ          -1.75557       -0.367027        -1.38422
LJ           -0.8551         -2.0459        0.296852
LJ          0.894802       -0.492023       0.0446911
LJ          0.304356         1.71814        -1.46053
LJ          -1.32974        -2.09863         2.47808
LJ          -2.33484         1.36314       -0.123326
LJ          0.760301        -1.46992        0.369763
LJ          0.858606         2.45499        -1.40769
LJ          0.483165       -0.434902        0.962099
LJ         -0.975442         2.30441         1.63174
LJ           2.16998         1.86637         1.99593
LJ          0.532292         2.10112        -2.41604
LJ          0.101343         1.92761         1.38937
LJ          0.730443        -1.84833         2.42976
LJ          -1.55721         1.00295        0.745474
LJ          -1.17911        0.583962        -1.29117
LJ          0.268307         1.29893       0.0239142
LJ         -0.113612       -0.873072       -0.186767
LJ           1.35487       -0.191993        -1.61044
LJ          -1.87586        -2.07981         1.17343
LJ          0.899885        0.833763        -1.25351
LJ        -0.0972592        -2.15019         1.74509
LJ           1.38119       -0.647124         1.85318
LJ          -2.48264         0.12502         -2.1427
LJ           1.78386        0.743348        -2.06376
LJ         -0.373371         1.32543       -0.798054
LJ          -1.92171        -1.33604        -1.83392
