108
#Comment!
LJ          -2.42294        -2.38124          2.3906
LJ          -1.73897        -1.64453         2.53959
LJ          -2.26856        -1.50813        -1.77614
LJ          -1.57033        -2.46421        -1.80535
LJ          -0.74253         2.43674         2.54575
LJ         -0.116039        -1.50238         2.42986
LJ          -1.02969        -1.54703         -1.8103
LJ          0.061403         2.44381        -1.89074
LJ          0.895707        -2.49668         2.53914
LJ           1.74486        -1.63215         2.40619
LJ           1.05243        -1.78282        -1.65824
LJ           1.89968         2.38173        -1.63778
LJ           2.53915       -0.694351         2.50772
LJ          -1.84763     -0.00474366         2.35222
LJ          -2.45296      -0.0444408         -1.8114
LJ           -1.6664        -0.63461        -1.63403
LJ          -1.05989       -0.759151        -2.55097
LJ         0.0352041       -0.150615        -2.31084
LJ         -0.896522       0.0244954        -1.78556
LJ         0.0664549        -1.11217        -1.72374
LJ          0.836879        -0.95375         2.55161
LJ           1.72345      -0.0405877        -2.40631
LJ          0.801186        0.161747        -1.69475
LJ           1.56771       -0.744041        -1.67485
LJ          -2.48845        0.983068        -2.46951
LJ          -1.79268         1.96581         2.30787
LJ          -2.43699         1.63533        -1.54379
LJ           -1.6314         0.75681         -1.8918
LJ          -0.52823        0.685919         2.53533
LJ           0.14991          1.6657         2.33204
LJ          -1.19912         1.60228        -1.62113
LJ        -0.0466551         1.19411        -1.70015
LJ           1.11716         0.95372         2.46886
LJ            1.8207         1.72179         2.53205
LJ          0.941147         1.81165        -1.99381
LJ           1.59863         0.82534        -1.68773
LJ          -2.51452         2.34734       -0.767831
LJ           -1.4681        -1.68536       -0.884017
LJ          -2.29645        -1.66882      -0.0494746
LJ          -1.55344         2.51098        0.163812
LJ         -0.645163        -2.47293        -1.13602
LJ         0.0185003        -1.69961       -0.823373
LJ         -0.803595        -1.83709      -0.0508354
LJ        -0.0695799         2.28959         0.11295
LJ          0.735382        -2.45593       -0.967722
LJ           1.94336        -1.70774       -0.915392
LJ          0.836228        -1.87829        0.247009
LJ           1.62215        -2.48212       0.0543857
LJ          -2.44589        -0.83153       -0.805285
LJ          -1.96848        0.123949       -0.940636
LJ          -2.46807       0.0732309       0.0723239
LJ           -1.6051       -0.746539       0.0332571
LJ         -0.806296       -0.849517       -0.846392
LJ         -0.228171      -0.0700887        -1.00858
LJ         -0.723027     -0.00680241       0.0250704
LJ         -0.023963       -0.782322       0.0843435
LJ          0.945056        -1.28636       -0.784195
LJ           1.82818       -0.184206       -0.641811
LJ          0.894358        0.119623       0.0663829
LJ           1.98237       -0.992184      -0.0351178
LJ           2.50745        0.877824       -0.868507
LJ          -1.69912         1.67553       -0.799969
LJ           2.38649         1.54095       0.0540763
LJ          -1.77045         1.11146        0.239394
LJ          -1.11689        0.721286       -0.976215
LJ          0.125376         1.72585        -0.82513
LJ         -0.853911         1.62727       -0.130617
LJ         0.0572591        0.906556       -0.160465
LJ          0.994038        0.942925       -0.842447
LJ           1.72653         1.70347       -0.720059
LJ          0.962101         1.61064       -0.143447
LJ           1.58975        0.808885       0.0565953
LJ          -2.54213         2.38337        0.666193
LJ          -1.40426        -1.81883        0.838861
LJ          -2.49218        -1.46974         1.56759
LJ          -1.93187        -2.28403         1.51287
LJ         -0.876283         2.34259        0.945779
LJ         -0.110874        -1.51979        0.949963
LJ         -0.954152        -1.62157         1.86322
LJ         0.0886085        -2.29812         1.70977
LJ          0.827509         2.45104         1.00197
LJ           1.66019         -1.5419        0.974479
LJ          0.917732        -1.58779         1.74394
LJ           1.80197        -2.55823         1.62211
LJ          -2.43363       -0.960188        0.775255
LJ           -1.5495      -0.0111367        0.726173
LJ           2.45244      -0.0257651         1.63075
LJ          -1.74029       -0.840176          1.6271
LJ         -0.866518        -0.93106         1.07883
LJ          0.206387      -0.0900877        0.933404
LJ         -0.946785     -0.00634895         1.71869
LJ          0.180786        -0.79471         1.70885
LJ          0.886195       -0.926199        0.632902
LJ           1.71905       -0.289186         0.81547
LJ           0.80998       0.0216329         1.81042
LJ            1.5821       -0.778596         1.80086
LJ           2.26816        0.935307        0.996881
LJ           -1.6997         1.77755          1.0641
LJ           2.53933         1.84411         1.66376
LJ          -1.88646        0.844252         1.48602
LJ         -0.893767        0.860338        0.580486
LJ          0.457299         1.54401        0.790808
LJ          -0.88762         1.39929         1.66288
LJ        0.00930425        0.946969         1.49819
LJ           1.20314        0.709018         1.02923
LJ           1.53586         1.72623         0.71767
LJ           1.09556         1.70232         1.73733
LJ           1.83123         1.02099         1.85091
