108
#Comment!
LJ           2.51831         1.68426       -0.287174
LJ         -0.165044        0.609212         0.59709
LJ          -2.46723       -0.732233         1.80894
LJ          0.263676        -2.09262        -2.46826
LJ            0.3265        -2.23819        0.376109
LJ          -2.55128        -1.73448         -1.3342
LJ           1.07408        -1.61458        0.885763
LJ          -1.89764        0.081615         1.38633
LJ          0.981735        -1.60282        -1.87916
LJ           2.27731        -1.42557       -0.268098
LJ          -2.08077         2.46677        -0.93178
LJ          0.556683         -2.1815         1.57732
LJ          -1.66684        0.707692        -2.47126
LJ          0.999634        -1.67207       -0.566948
LJ          -1.02874       -0.346655       -0.699621
LJ         -0.376423         2.28012         -1.9227
LJ          0.659634       -0.615267         1.48413
LJ          0.262853         1.00627       -0.481632
LJ           1.47708       -0.209921         2.15358
LJ         -0.756578        0.460174         1.83981
LJ          -2.26473         1.54462         1.66505
LJ             1.646         1.15031         1.86066
LJ           1.81605       -0.173293        -1.27481
LJ           1.63894        -2.40663        -1.54217
LJ           1.14177        0.426085        -2.11838
LJ        0.00278458        -2.02745        -1.16744
LJ         -0.476418         1.78052       -0.552009
LJ          0.764867       0.0576163        0.487988
LJ            1.5883        0.363631       -0.190944
LJ          0.471864        0.364558         1.45496
LJ          -1.49752      -0.0553753        -1.63524
LJ           1.39304        -2.30325         2.55452
LJ          -1.43767        -1.66746        0.784017
LJ          -2.05359        0.523968        0.220368
LJ           2.08345         1.35472        0.943919
LJ        -0.0975118       -0.137507       -0.287511
LJ          -1.77741         1.37652        0.720621
LJ          -1.59287         -1.6627       -0.953014
LJ           2.31793         2.10966        -2.46806
LJ           1.99192        -1.87753         0.72276
LJ           2.29338        0.402617         1.93938
LJ         -0.659527        -1.84222      -0.0310074
LJ           1.01307         1.03662        0.693638
LJ           1.64624       -0.530745        0.281052
LJ         -0.734902         1.57953        0.407358
LJ           1.74652         2.55035       -0.567183
LJ           1.67485        -1.12191        -1.20197
LJ          0.251828         -1.0346        0.500138
LJ          0.775841       -0.710853        -1.53323
LJ          0.894731       -0.664819       -0.458107
LJ          -2.50472       -0.917682        0.771972
LJ          -1.29314       -0.774984         1.22082
LJ         -0.643544        0.130329        -2.28311
LJ          -2.56339       -0.352055       -0.263148
LJ          -0.46867        -1.52534         1.10492
LJ          -1.10955         0.31284        0.745865
LJ            2.4523         2.31695        0.512029
LJ          0.424799         1.22194        -1.79018
LJ           2.39911          1.0069         -2.1508
LJ           1.31148        -1.45084         1.94186
LJ          0.161813        0.177623        -1.74611
LJ         -0.803316        -1.79458         -2.2107
LJ        -0.0962511       -0.969761        -2.05126
LJ         -0.332951         2.37445         1.27774
LJ         -0.487939        0.809837        -1.24341
LJ           -1.5036       -0.520387         2.38295
LJ          -1.81349        -1.05206        -1.91875
LJ          -1.25297         2.07144        -1.48513
LJ          0.487807         2.21137       -0.808976
LJ         0.0755422         1.33972         1.33197
LJ          -1.66129         2.34427         1.01081
LJ           1.41234         2.35988        0.702413
LJ           1.48916         1.62165        -2.02511
LJ           -1.2008        -1.91674         1.80202
LJ           1.78223       -0.857872        -2.16785
LJ          -1.24671        0.600871       -0.351973
LJ         -0.714486        -1.11661        -1.27231
LJ           2.07284         2.30812         1.59065
LJ           1.34406         1.56346        -0.29551
LJ           0.33991       -0.171803         2.43467
LJ          -2.19983       -0.854181       -0.943431
LJ           1.40888         0.98453        -1.10011
LJ          -1.52656         1.74672       -0.360755
LJ           2.50098        0.700983       -0.661252
LJ          -1.79159          1.6989        -2.48951
LJ         -0.947332         1.60297         1.62451
LJ           2.02108        0.273788         0.84955
LJ          0.377711        0.850026         2.35266
LJ         -0.847499       -0.705588         0.35069
LJ         0.0163041        -1.08419       -0.521497
LJ           2.26725         1.66439        -1.40075
LJ           1.00063         1.91737         1.54809
LJ          0.341288         1.84421        0.437411
LJ          -2.19467        -1.74982         1.63259
LJ         -0.003554         1.85228         2.27175
LJ           1.71106        -0.88076         1.24552
LJ           2.55653       -0.121488        -2.07322
LJ          -1.78459        0.964259        -1.46354
LJ          -1.87716        -2.26462        0.123006
LJ         -0.852548          1.2517        -2.40998
LJ          -1.77069        -2.10828        -2.02681
LJ         -0.998178         2.39037          2.3579
LJ          0.682483         2.31326        -1.80561
LJ          -2.02502          2.5008         2.24511
LJ          0.851434        0.200211       -0.878188
LJ          -1.76177        -1.11245       0.0286004
LJ         -0.303655       -0.416228         1.75449
LJ           2.23259         -1.6934         2.40078
