108
#Comment!
LJ           2.48744        -2.48413         2.55584
LJ          -1.77509        -1.69236         2.43804
LJ           2.51616        -1.72474        -1.76698
LJ          -1.77296        -2.55366        -1.56993
LJ         -0.872641         2.49865        -2.55325
LJ         0.0421373        -2.04198        -2.45685
LJ          -1.19261         -1.4819        -1.72058
LJ        -0.0395726         2.23588        -1.80964
LJ          0.873775         2.49713         2.46451
LJ           1.76407        -1.72218         2.56398
LJ           0.87156        -1.86459        -1.77535
LJ           1.89885         2.53387         -1.6869
LJ           2.52021       -0.911352         2.55667
LJ          -1.85158       0.0512045         2.54058
LJ           2.51448        0.127966        -1.99339
LJ          -1.80515       -0.567912        -1.60818
LJ          -1.20482       -0.778151        -2.45119
LJ      -0.000853891       -0.222744        -2.47696
LJ         -0.695443     -0.00926825        -1.79359
LJ         -0.149833        -1.14735        -1.87468
LJ          0.915844         -1.1438        -2.52086
LJ            1.7533       0.0412877         2.51221
LJ          0.934712        0.081701        -1.80877
LJ           1.67202       -0.622759         -1.7415
LJ          -2.52842        0.931914         2.44657
LJ          -1.72022         1.97641         2.48118
LJ          -2.47094         1.64002        -1.60249
LJ          -1.59513        0.780003        -1.78167
LJ         -0.596486         1.04992         2.51143
LJ          0.178349         1.75546         2.45845
LJ           -0.9698         1.64489        -1.75614
LJ          0.106959         1.02996        -1.79934
LJ          0.886129        0.836444         2.46557
LJ           1.85521          1.8339         2.50418
LJ          0.907793         1.85525         -1.6211
LJ           1.58384        0.937731        -1.64521
LJ           2.45539         2.37014       -0.737193
LJ           -1.5085        -1.72468       -0.768742
LJ           -2.4377        -1.92054      -0.0639782
LJ          -1.65261         2.54152      -0.0311617
LJ         -0.840021         2.55746        -1.03542
LJ          0.192805         -1.7297       -0.910063
LJ          -0.59243        -1.87542       0.0265361
LJ         -0.199805         2.35938       0.0950548
LJ          0.842395        -2.48664       -0.892617
LJ           1.84087        -1.71463        -0.94669
LJ          0.811858        -2.02972        0.235103
LJ           1.69235        -2.43006      0.00953802
LJ          -2.56391       -0.924883       -0.684581
LJ          -1.88576        0.174318       -0.822338
LJ          -2.51944       0.0995136       0.0439724
LJ          -1.76002       -0.959295       0.0161093
LJ          -0.59393       -0.868476       -0.680848
LJ         -0.102662        0.320775       -0.966712
LJ         -0.717998      -0.0288713      -0.0145651
LJ         0.0928665       -0.785293        0.267239
LJ           0.78022       -0.955927       -0.589467
LJ           2.00303       -0.156027       -0.817171
LJ          0.733035      -0.0201625       -0.024224
LJ           1.73395        -1.07727       -0.117143
LJ          -2.53595        0.968259       -0.887285
LJ          -1.57729         1.84607       -0.810083
LJ           2.37343         1.68845    -0.000780921
LJ          -1.96266         1.08061        0.173451
LJ          -1.06546         0.71516       -0.965701
LJ          0.156777         1.86513       -0.899776
LJ         -0.763969         1.60491       -0.114277
LJ         0.0414102        0.893127       -0.102298
LJ          0.752298         1.01495       -0.772327
LJ           1.68791         1.71739       -0.847268
LJ          0.752265         2.07789      -0.0297348
LJ           1.76737        0.850188       -0.135527
LJ            2.3941         2.32601        0.835036
LJ          -1.41215        -1.90042        0.695535
LJ             2.545        -1.55322         1.71045
LJ          -2.01896        -2.40081         1.49324
LJ         -0.602363         2.52614         1.11031
LJ         0.0934695        -1.62815        0.940661
LJ         -0.917783        -1.88022         1.74894
LJ         0.0867511        -2.33583         1.71169
LJ          0.797703         2.33564        0.946273
LJ            1.9805        -1.64848        0.701595
LJ          0.987106        -1.77345         1.72938
LJ            1.6655         2.55793         1.68043
LJ           2.48698       -0.705258        0.947206
LJ          -1.75747       0.0817853        0.861727
LJ           2.51957      0.00677905         1.73396
LJ          -1.88765       -0.750015           1.771
LJ         -0.718298       -0.919157         1.02222
LJ         0.0326285        -0.10942         1.02294
LJ         -0.895802        0.215642         1.87153
LJ          0.235837       -0.983252         1.78802
LJ           1.08617        -1.00465         0.68084
LJ           1.62879       -0.159225        0.777234
LJ          0.841088       -0.047178         1.90105
LJ           1.58738       -0.845806         1.82302
LJ           2.38099        0.858674        0.880989
LJ          -1.44358         1.94798        0.868115
LJ           2.42839         1.64081         1.56738
LJ          -1.83705        0.973732         1.58848
LJ         -0.905766        0.649512        0.856094
LJ          0.197029          1.4719        0.669811
LJ         -0.788157         1.59272         1.61744
LJ         0.0650341        0.804874         1.57992
LJ           1.08632        0.783109        0.911994
LJ           1.55603         1.71243        0.576069
LJ           0.81235         1.56848         1.68407
LJ           1.76389         0.78457         1.81875
