108
#Comment!
LJ           -2.5532        -2.45635         2.50582
LJ           -1.6981        -1.68365         2.39849
LJ          -2.50193        -1.67979        -1.62216
LJ          -1.71018        -2.40268        -1.76865
LJ         -0.837851         2.46451         2.47689
LJ         0.0378927        -2.03062        -2.47773
LJ          -1.05644         -1.4983        -1.61043
LJ         0.0610744         2.22493        -1.65143
LJ          0.984001         2.38036        -2.49165
LJ           1.86734        -1.68504         2.53122
LJ           1.04801         -1.8083          -1.665
LJ           1.92785         2.54134        -1.55736
LJ           2.42623       -0.822802         2.52106
LJ          -1.74623        0.029509         2.52763
LJ          -2.53309        0.157311        -1.86705
LJ          -1.67909       -0.463796        -1.47396
LJ          -1.15071       -0.886347        -2.44811
LJ       -0.00461476        -0.19768        -2.38773
LJ         -0.812084        0.031277        -1.70688
LJ        -0.0959163       -0.984219        -1.83198
LJ          0.941856        -1.09519        -2.46601
LJ           1.71309       0.0811604        -2.53973
LJ          0.762316       0.0178343        -1.67443
LJ           1.64638       -0.796416        -1.74639
LJ          -2.39416         1.09668         2.42526
LJ           -1.7798          1.8413         2.48709
LJ          -2.48381         1.68918        -1.64665
LJ          -1.51127        0.869367        -1.66146
LJ         -0.670607         1.10439        -2.50972
LJ          0.106874         1.80736         2.55799
LJ         -0.832795         1.73011        -1.70974
LJ         0.0303961         1.00821        -1.73849
LJ           1.01466        0.822395        -2.40963
LJ           1.84626          1.8855         2.54183
LJ          0.950919         1.70633        -1.61834
LJ           1.83307        0.869767        -1.76715
LJ           2.50116         2.35794       -0.605296
LJ          -1.58005        -1.88484       -0.717901
LJ          -2.42067        -1.80908       -0.136469
LJ          -1.72526         2.42879      -0.0931489
LJ          -0.68882        -2.49288       -0.984541
LJ          0.102041        -1.75759       -0.911032
LJ         -0.513747        -1.73221      -0.0201463
LJ          -0.27066         2.36467         0.21983
LJ          0.768599        -2.51404       -0.968125
LJ           1.77745        -1.62293       -0.945873
LJ          0.623913        -2.02965       0.0956507
LJ           1.67839        -2.28516      -0.0433408
LJ           -2.3582       -0.864606       -0.728239
LJ          -1.83499       0.0171953       -0.608681
LJ           2.45043       0.0788549       0.0348176
LJ          -1.63428        -0.88405       0.0442217
LJ          -0.60497       -0.816344       -0.778481
LJ       -0.00149262        0.252852       -0.884071
LJ         -0.955701      -0.0982161      -0.0382693
LJ          0.103436       -0.828832         0.20627
LJ          0.899585       -0.975869       -0.769971
LJ           1.91499         -0.1399       -0.837751
LJ          0.812703       0.0242763    -0.000674559
LJ           1.70001       -0.924094       -0.145314
LJ          -2.38071        0.910241       -0.951855
LJ           -1.6195         1.74578       -0.867405
LJ           2.51123         1.62841        0.134386
LJ          -1.94931        0.969767        -0.04091
LJ          -0.98908         0.74014       -0.810127
LJ        -0.0433571         1.63491        -0.80966
LJ         -0.835543         1.48881      -0.0758234
LJ        -0.0617491        0.863074       0.0662802
LJ          0.825811        0.930305       -0.611301
LJ           1.68253         1.64614       -0.943675
LJ          0.828156         2.00131      -0.0113518
LJ           1.72216        0.782712       -0.163881
LJ           2.38155         2.53002        0.846428
LJ          -1.44594        -1.70628        0.668559
LJ           2.46322        -1.50635          1.7137
LJ          -1.96977         2.48237         1.62063
LJ         -0.745284        -2.50124         1.19205
LJ           0.12964        -1.58444        0.882032
LJ         -0.868402        -1.66195         1.69598
LJ         0.0907253        -2.33548         1.73801
LJ          0.957909         2.42915        0.864483
LJ           2.02331        -1.54093        0.696056
LJ           0.97135        -1.73452           1.661
LJ            1.6715        -2.53962         1.61513
LJ           2.53487       -0.637997        0.957244
LJ          -1.71104      -0.0696025        0.914071
LJ           2.50649       0.0697479          1.9161
LJ          -1.72053       -0.982872         1.57721
LJ         -0.719604       -0.939619        0.962096
LJ         0.0739655      0.00971187         1.08842
LJ         -0.883422        0.141267         2.07269
LJ         0.0881808       -0.916738         1.84787
LJ           1.02875       -0.994543         0.74415
LJ            1.6526       -0.128364        0.703993
LJ           0.75198      -0.0369433           1.827
LJ           1.62115       -0.838969         1.70381
LJ           2.48297        0.758197        0.972469
LJ          -1.46069         1.86858        0.778409
LJ           2.44066         1.65849         1.55082
LJ          -1.65343        0.980324         1.59182
LJ         -0.988735        0.623851        0.810268
LJ          0.243416         1.50198        0.796438
LJ         -0.788514          1.5963         1.61933
LJ        -0.0787981        0.851937            1.57
LJ          0.895629        0.690644        0.833919
LJ           1.70229         1.76784        0.734966
LJ          0.874323         1.57945         1.79546
LJ           1.80332         0.83588         1.74211
