108
#Comment!
LJ           2.55997         -2.4509        -2.56251
LJ          -1.73202        -1.67602         2.48214
LJ           2.55976        -1.64745        -1.67934
LJ          -1.75631        -2.36759        -1.76389
LJ         -0.817897         2.48063         2.53535
LJ         0.0131308        -2.02605        -2.51153
LJ          -1.11054        -1.40897        -1.59425
LJ         0.0705598         2.25665        -1.62292
LJ          0.974921         2.33055        -2.52802
LJ            1.8158        -1.74863         2.55362
LJ           1.00894        -1.82283        -1.67665
LJ           1.95474         2.51008        -1.57528
LJ           2.43388       -0.779306         2.50899
LJ          -1.74395        0.085124         2.53035
LJ           2.54324        0.191112        -1.84389
LJ          -1.64985       -0.509907        -1.55164
LJ           -1.1544       -0.864235        -2.40442
LJ          0.040923       -0.227254        -2.43565
LJ         -0.825571      -0.0183074          -1.648
LJ         -0.090666       -0.993741        -1.88521
LJ          0.953876        -1.09802        -2.46172
LJ           1.69964      0.00310537        -2.48889
LJ          0.785833       0.0255632        -1.69311
LJ           1.62722       -0.734975        -1.68932
LJ          -2.42396         1.10752         2.45293
LJ          -1.78683         1.87813         2.53496
LJ           -2.5125          1.6449        -1.63752
LJ          -1.53759        0.907972         -1.7723
LJ         -0.663884         1.07199        -2.54956
LJ          0.126159         1.80493         2.51457
LJ          -0.81386         1.73328        -1.66156
LJ         0.0718716         1.07059        -1.73077
LJ           1.00901        0.850238         -2.5462
LJ           1.84072         1.86708         2.51641
LJ          0.892444         1.77785        -1.62578
LJ           1.78919          0.9004         -1.7997
LJ           2.53346         2.35154       -0.652179
LJ          -1.53459         -1.9345       -0.752858
LJ          -2.41808        -1.77208       -0.104461
LJ          -1.78406         2.42552      -0.0135836
LJ         -0.676899        -2.49694        -1.03912
LJ          0.142089         -1.7102         -0.8899
LJ         -0.459857        -1.74734       0.0223965
LJ          -0.32544         2.35694         0.17234
LJ          0.799644        -2.56403       -0.954908
LJ           1.73557        -1.65578       -0.991573
LJ          0.614451        -2.10306      0.00318114
LJ           1.69754        -2.32111      -0.0179208
LJ          -2.40163        -0.90464       -0.693199
LJ          -1.85058       0.0497784        -0.63699
LJ           2.48692       0.0707601       0.0144768
LJ          -1.54213       -0.923795       0.0323995
LJ          -0.57923       -0.875248       -0.791925
LJ        -0.0493828        0.292978         -1.0057
LJ         -0.900786      -0.0756665      -0.0891863
LJ        0.00659977       -0.792724        0.231604
LJ          0.832513        -1.00723        -0.74163
LJ           1.87704        -0.14857        -0.87005
LJ          0.731755       0.0381582      -0.0777076
LJ           1.65102       -0.905249       -0.151917
LJ          -2.44015        0.916717       -0.943151
LJ          -1.59672         1.72454       -0.861336
LJ           2.44713         1.67877        0.108147
LJ          -1.94967         1.00218      -0.0211465
LJ          -1.05632        0.664042       -0.864231
LJ         0.0471917         1.65572       -0.784511
LJ         -0.829265         1.56659        -0.18501
LJ        -0.0342864        0.864277       0.0695959
LJ          0.801115         0.92504       -0.645135
LJ           1.63526          1.6417       -0.990992
LJ          0.878872         2.01019      0.00490556
LJ            1.7634        0.779026       -0.219754
LJ           2.46562         2.45389        0.826159
LJ          -1.39717        -1.71292        0.621312
LJ            2.5018        -1.54862         1.76012
LJ          -1.99939          2.5166         1.68672
LJ         -0.731613        -2.44166         1.09015
LJ          0.149848        -1.61404         0.86722
LJ         -0.898937        -1.70591         1.65221
LJ         0.0683261        -2.34773         1.76582
LJ          0.930159         2.44306        0.905265
LJ            2.0167        -1.52254        0.698777
LJ          0.984637        -1.82098         1.64609
LJ            1.6653         2.55068         1.71969
LJ            2.5383       -0.622491         1.00344
LJ          -1.73457      -0.0796399          0.9064
LJ           2.52996      0.00145704         1.81713
LJ          -1.73374       -0.897106         1.57809
LJ         -0.705812       -0.868994        0.970384
LJ         0.0679675       0.0158999         1.03595
LJ         -0.893297        0.176795         2.01976
LJ          0.133104       -0.877308         1.87616
LJ            1.0173        -1.00455        0.696807
LJ             1.693       -0.171548        0.706937
LJ          0.762513     -0.00435869         1.87799
LJ           1.66692       -0.868099         1.68536
LJ           2.53641        0.814688        0.952625
LJ          -1.43623           1.897        0.726691
LJ            2.4294         1.71999         1.54792
LJ          -1.66066        0.967596         1.56591
LJ         -0.911161        0.688156        0.867199
LJ          0.241637         1.42618        0.895309
LJ         -0.858726         1.58344         1.57338
LJ        0.00501013        0.852447          1.6191
LJ          0.968431        0.670135        0.840405
LJ           1.62221         1.73544        0.693298
LJ          0.894694         1.48993         1.86452
LJ           1.73571        0.840493         1.79154
