108
#Comment!
LJ          -2.55763         -2.2721         2.32143
LJ          -1.69604        -1.60459          2.3816
LJ          -2.20832        -1.56158        -1.70648
LJ          -1.67445        -2.43265        -1.77015
LJ           -0.7949         2.40829         2.44239
LJ        -0.0760693        -1.80828         -2.4947
LJ          -1.18137        -1.49482        -1.85165
LJ          0.117264         2.37331        -1.90222
LJ          0.953632        -2.52933         2.52619
LJ           1.77819        -1.61008         2.44956
LJ          0.906906        -1.90324         -1.6831
LJ           1.99281         2.45777          -1.861
LJ          -2.52457       -0.857719         2.39815
LJ          -1.80017       0.0274953         2.49363
LJ            2.5615       0.0271995         -1.7833
LJ          -1.76988       -0.516937        -1.60945
LJ          -1.11845       -0.838228        -2.51797
LJ         -0.039334       -0.160163        -2.39534
LJ          -0.92562      -0.0265762        -1.75498
LJ         0.0604053        -1.04253        -1.75793
LJ          0.970816       -0.983175        -2.56165
LJ           1.66436     -0.00457144        -2.48192
LJ          0.934132        0.168237        -1.75228
LJ           1.57919       -0.651317        -1.74848
LJ          -2.50107         1.05575        -2.51058
LJ          -1.67482         1.95087          2.3896
LJ          -2.55858         1.55035        -1.60063
LJ          -1.73297         0.79107        -1.83325
LJ         -0.510166        0.849458         2.43169
LJ          0.228236         1.64314         2.37185
LJ          -1.20227         1.68818        -1.84883
LJ          0.029978         1.14298        -1.83567
LJ          0.971298        0.928263         2.52383
LJ           1.82849         1.73592         2.51736
LJ          0.975681         1.80274        -1.89207
LJ           1.69084        0.970996        -1.66423
LJ          -2.55132         2.29789       -0.809673
LJ          -1.41135        -1.76719       -0.792804
LJ          -2.20081        -1.72435      -0.0774779
LJ          -1.63178         2.49901        0.133687
LJ         -0.570497        -2.50761        -1.02961
LJ         0.0604506        -1.62458       -0.811438
LJ         -0.773688         -2.0267      -0.0806568
LJ        -0.0926354         2.33957       0.0376202
LJ          0.835244        -2.55339       -0.806589
LJ           2.03822        -1.77124       -0.935677
LJ          0.788914        -1.72106        0.330177
LJ           1.70953          2.5604      -0.0505516
LJ          -2.29422        -0.94887       -0.792144
LJ          -1.94398      0.00197536       -0.776968
LJ          -2.44434       0.0484653        0.163627
LJ          -1.61691       -0.723857      0.00647732
LJ         -0.680874       -0.797351       -0.848271
LJ          -0.16062      -0.0317663        -1.10834
LJ         -0.728059      0.00324078      -0.0515859
LJ         0.0719038       -0.698112       0.0405436
LJ           1.01691        -1.17805       -0.902816
LJ           1.93896       -0.148259       -0.632914
LJ          0.956503       0.0913584         0.13447
LJ           2.04815       -0.960225      -0.0574279
LJ           2.47527        0.971286        -0.77803
LJ          -1.60892         1.75005       -0.823818
LJ           2.30419         1.60134       0.0400303
LJ          -1.80411         1.01328        0.316383
LJ          -1.08679        0.733628       -0.855932
LJ         0.0337401          1.6858       -0.934568
LJ         -0.833201         1.56366       -0.278639
LJ         -0.058107        0.750553       -0.191399
LJ           1.11029        0.794799       -0.880931
LJ           1.66887         1.70871       -0.714177
LJ          0.879847         1.75347       -0.157612
LJ           1.70442        0.864069      -0.0704759
LJ           2.49633         2.43639        0.751965
LJ          -1.29453        -1.85294        0.766258
LJ          -2.53102        -1.50277         1.52259
LJ          -1.86627         -2.2966         1.54318
LJ         -0.726584         2.44399         0.97982
LJ        -0.0180073        -1.54717        0.923495
LJ         -0.854073        -1.75139         1.91824
LJ         0.0727338         -2.2988         1.65523
LJ          0.821619         2.53003         1.03564
LJ           1.73781        -1.63499        0.880513
LJ          0.943934         -1.6554         1.69775
LJ           1.80301        -2.47799         1.59569
LJ          -2.46607       -0.822775        0.718087
LJ          -1.53298      -0.0571975        0.851899
LJ            2.4696      -0.0324023          1.7412
LJ          -1.77417       -0.664977         1.56917
LJ         -0.834419       -0.865599         1.06082
LJ          0.212822       -0.091132         1.01239
LJ         -0.941695        0.123537         1.83139
LJ          0.196679        -0.81798         1.73641
LJ          0.906005       -0.840232        0.764965
LJ           1.73454       -0.201806        0.696385
LJ          0.690416       0.0255424         1.94429
LJ           1.53501       -0.858965         1.60898
LJ           2.16712        0.816751        0.951587
LJ          -1.72184         1.91381         1.02061
LJ           2.36676         1.76009         1.62426
LJ          -1.87859        0.758799         1.42674
LJ         -0.827626        0.865756        0.645749
LJ          0.406394         1.51634        0.825536
LJ         -0.889694         1.44626         1.59168
LJ         0.0711825        0.872548         1.54194
LJ           1.12229        0.698541         1.08517
LJ           1.47112         1.70243        0.617024
LJ           1.13275         1.59615         1.69555
LJ           1.77473        0.946912         1.88701
