108
#Comment!
LJ          -1.16403        -2.51928      -0.0610335
LJ           1.66389        0.519756        -1.11981
LJ         -0.568049        0.444455        0.410647
LJ          -2.06794         -1.4253         2.08034
LJ           1.88195        -2.55621        0.163645
LJ          -1.71748         1.09645       -0.835353
LJ           2.16193       -0.859238         1.95946
LJ          -1.91782         1.47047         1.42545
LJ           2.38437        -1.84688        -1.37561
LJ          -1.63783        -1.94905       -0.745947
LJ          -2.30042        -2.34184        0.150344
LJ           1.83231        0.202659         1.89525
LJ           2.55073         1.30455         -1.4133
LJ          0.730456          1.9163         1.92113
LJ         0.0235902       -0.924869        -1.01845
LJ          0.901447         1.30804        -1.18638
LJ          -1.54353         -0.8966       -0.310283
LJ          0.559964        0.440742       -0.441755
LJ           2.19087         2.23227        -1.77083
LJ         -0.539684        0.263423       -0.748633
LJ         -0.927004        -1.85783          1.5957
LJ          -2.04417        0.807362         2.15564
LJ            2.3362         1.74033        0.751497
LJ          0.956698        0.840143         1.91987
LJ          0.664216        -0.34215        -1.81344
LJ          0.324479        -2.28626        -1.03069
LJ        -0.0899504        -2.53672         1.61117
LJ          -1.84569        0.568191        0.557255
LJ         -0.512371         1.86508        -1.67518
LJ           2.10439       -0.670607         1.03142
LJ          0.258378      -0.0511007         2.42716
LJ         -0.615002       -0.465162         2.01539
LJ           -1.1277       -0.445984        0.539065
LJ          -2.55118        -1.98118          1.0571
LJ           1.67418        -1.78869         1.65875
LJ           1.18424       -0.963304         2.53509
LJ          -2.25234       -0.986321        0.508091
LJ          0.826214         -1.6926        -1.73107
LJ         -0.994978        -1.40084        -2.44225
LJ           -1.5325        -1.75309        0.642762
LJ          -1.32902         1.47826         2.32297
LJ         -0.487481        -1.31126        0.609158
LJ          -1.91081         1.87135      -0.0976797
LJ          -1.23173         1.11506      0.00442745
LJ         -0.411021         1.57761        0.477384
LJ          -0.16492         2.29626       -0.469394
LJ           -2.5598       -0.902093       -0.698533
LJ          -1.13809        0.467719         2.47899
LJ           1.90458       -0.213411        -2.20453
LJ           0.66774         2.12149        0.867877
LJ         -0.893834       -0.985318        -1.36073
LJ           0.71082        -1.52761        0.093118
LJ         0.0516247         1.09544         2.44164
LJ           -2.0226        -2.28135        -2.19445
LJ           1.62106        -1.67842        0.633607
LJ           1.75426        -1.62191       -0.324692
LJ           1.38512        -0.55721       -0.046036
LJ            1.3739         1.14433        0.964782
LJ          -2.38437         1.75482         2.49051
LJ          -2.15456        -1.22845        -1.93235
LJ         -0.627331         1.36027         1.59704
LJ           1.30359         2.53626        -1.28813
LJ           1.01339       -0.996569         1.16549
LJ           2.07128         1.47843         1.77834
LJ           1.45216        0.687943      -0.0451842
LJ         -0.147995        -2.01167         2.51744
LJ          -1.41615       -0.540165        -2.28867
LJ         -0.493894       -0.235024        -1.86094
LJ           1.66585         1.80184       -0.572922
LJ       -0.00920035       -0.468975        0.158919
LJ           0.99256        0.612786        -2.15572
LJ           2.28358        0.449071        0.913329
LJ           2.21217        -1.82513         2.48535
LJ          -1.39979         2.35929         1.09609
LJ           2.55433        0.914234        -0.22969
LJ         -0.747446         -2.1271        -1.48952
LJ          0.149884        -1.09119        -2.28515
LJ          -1.37683       -0.947075         1.66801
LJ          -2.06423        -0.17749         1.19841
LJ           1.07971        0.138697        0.741452
LJ          -2.34367         0.26665        -2.03381
LJ            1.9811        0.973452         -2.3875
LJ           2.53913         2.34074       -0.776916
LJ         -0.144411         1.21241       -0.577904
LJ          -1.61525         2.05625        -1.78844
LJ          -2.02559        -2.53372         1.85179
LJ           2.40302       -0.188846      -0.0617435
LJ          0.700998        -1.97482         1.31182
LJ         -0.516479        -1.76411       -0.428763
LJ        -0.0237429        -1.28209         1.84246
LJ          -1.64754        0.237682       -0.341491
LJ           1.84727         2.39165         2.34785
LJ           1.74652         2.45421         1.28234
LJ          0.018836       -0.237091         1.11319
LJ          0.300417         2.30969        -2.22838
LJ          -1.13388        0.376844         1.32048
LJ          -1.56891     -0.00695703        -1.35033
LJ          0.819604         1.58077       0.0266324
LJ         -0.231657        -2.32826        0.505746
LJ           1.31549         1.75166        -2.16588
LJ          -1.14907         2.48228         2.42582
LJ         0.0410707        0.632302        -1.63387
LJ          0.217343         0.79788         1.02686
LJ          0.809629        -2.04127         2.42356
LJ           1.49531       -0.588098        -1.14845
LJ           -2.5106        0.326096       -0.933233
LJ          -1.56914        0.950643        -1.92822
LJ          -2.16456        -0.24162         2.27673
