108
#Comment!
LJ          -2.53482        -2.42004         2.50404
LJ          -1.69243        -1.71009         2.42411
LJ          -2.48188        -1.69532        -1.64993
LJ          -1.68062        -2.40757        -1.75818
LJ         -0.871861         2.44801          2.4783
LJ         0.0520467        -1.95178        -2.48866
LJ         -0.984279        -1.48508        -1.59068
LJ          0.077488         2.19584        -1.68965
LJ           1.00315         2.38118        -2.47521
LJ           1.82955        -1.70536         2.54566
LJ           1.05875        -1.84911        -1.68753
LJ           1.94256         2.56342        -1.56978
LJ           2.43761       -0.908378         2.55048
LJ           -1.7628       0.0566163         2.55132
LJ          -2.50234        0.158452        -1.85887
LJ          -1.68502       -0.465331        -1.46701
LJ          -1.15359       -0.878522        -2.41842
LJ        -0.0426873       -0.182935        -2.35896
LJ         -0.817009       0.0375486        -1.69382
LJ         -0.142907        -1.02119        -1.81694
LJ          0.952143        -1.11167        -2.46946
LJ           1.66859       0.0369924        -2.55316
LJ          0.722068      -0.0161703        -1.70587
LJ           1.67469       -0.839393        -1.73597
LJ            -2.373         1.10522         2.42487
LJ           -1.7478         1.86633         2.52003
LJ          -2.50059         1.71324        -1.64375
LJ          -1.54873        0.854257          -1.633
LJ         -0.647847         1.09056        -2.50108
LJ          0.150699         1.79613        -2.54769
LJ         -0.843378         1.70514         -1.7349
LJ         0.0530057          1.0098        -1.71558
LJ           1.00195        0.849366        -2.42947
LJ           1.85375         1.90168         2.51286
LJ          0.942836         1.71034         -1.6393
LJ            1.8299        0.887139        -1.80479
LJ           2.53615         2.37911       -0.666673
LJ          -1.56516        -1.88956       -0.710443
LJ          -2.39436        -1.78811       -0.147021
LJ          -1.72349         2.42515       -0.085538
LJ         -0.656934        -2.50418       -0.939721
LJ          0.106806        -1.72725        -0.88582
LJ         -0.521033        -1.68143      -0.0207525
LJ         -0.258511         2.38325        0.198414
LJ          0.761401         -2.5072       -0.934326
LJ           1.76335        -1.63781       -0.951285
LJ          0.585965        -2.03668        0.105466
LJ           1.73761        -2.32054       -0.050176
LJ          -2.38657        -0.91278       -0.723032
LJ          -1.81263       0.0294151       -0.606791
LJ           2.48638       0.0111542        0.060941
LJ          -1.64868        -0.87924       0.0745082
LJ         -0.584391       -0.818075       -0.752091
LJ         0.0401462        0.242879       -0.875441
LJ         -0.913636      -0.0842767      -0.0447255
LJ         0.0875508       -0.823077        0.211866
LJ          0.848754       -0.975582       -0.752559
LJ           1.87035       -0.110923       -0.838305
LJ          0.808341        0.055895     -0.00654772
LJ           1.65861        -0.90989       -0.113464
LJ          -2.42895        0.881303       -0.933509
LJ          -1.61319         1.79503        -0.87123
LJ           2.49873         1.67057        0.143634
LJ          -1.93651        0.967008       -0.028157
LJ         -0.948077        0.735443       -0.808152
LJ        -0.0508771         1.61892       -0.819748
LJ         -0.811559         1.48237      -0.0686945
LJ        -0.0574386        0.857444       0.0907434
LJ          0.839216        0.932423       -0.647683
LJ           1.69499         1.65558       -0.870357
LJ          0.816957         2.04177      0.00725844
LJ           1.69401        0.774691       -0.139214
LJ           2.42049        -2.54609        0.852362
LJ           -1.4886        -1.67585        0.704064
LJ           2.48805        -1.51735         1.72056
LJ          -1.99069         2.48483         1.60714
LJ         -0.756789        -2.51799         1.20253
LJ          0.159917        -1.58751         0.91749
LJ         -0.877746        -1.63746         1.71895
LJ          0.104204        -2.31931         1.68952
LJ           0.94425         2.44479        0.877057
LJ           1.95076        -1.52846        0.702205
LJ           0.96698        -1.72912         1.69936
LJ           1.66538        -2.52301         1.66507
LJ           2.52213       -0.644704         1.00104
LJ          -1.67857      -0.0958679        0.926106
LJ           2.51285       0.0529721         1.89058
LJ          -1.67546       -0.973299         1.57584
LJ         -0.697085       -0.894373        0.977419
LJ         0.0439144      0.00553951         1.05456
LJ         -0.886466        0.162144         2.07159
LJ         0.0634116       -0.945748         1.83311
LJ           1.04234        -0.99601        0.767487
LJ           1.65638       -0.123313        0.697386
LJ          0.756665       -0.049528         1.82966
LJ           1.59076       -0.865328         1.71597
LJ           2.49439        0.729091        0.991299
LJ          -1.49456         1.85925        0.771302
LJ           2.48158         1.64917         1.55229
LJ          -1.64593        0.969165         1.58047
LJ         -0.984164        0.610081        0.797905
LJ          0.227618         1.54622        0.811476
LJ         -0.796564         1.61638         1.61731
LJ        -0.0813503        0.831627         1.54126
LJ           0.87951        0.670105        0.877478
LJ           1.71252         1.75872        0.720552
LJ          0.876695         1.58591         1.79639
LJ           1.82512        0.836328          1.7709
