108
#Comment!
LJ          -2.56063         -2.5122         2.42829
LJ          -1.74577        -1.68749         2.45228
LJ          -2.47392         -1.6462        -1.81064
LJ          -1.80144          2.5201        -1.70231
LJ         -0.845547         2.56074        -2.49716
LJ       -0.00699958        -2.02871        -2.44319
LJ          -1.11036         -1.4479        -1.77835
LJ        -0.0219688         2.28633        -1.80302
LJ           0.81632        -2.56305         2.44697
LJ           1.73988        -1.69753        -2.55163
LJ          0.754007        -1.89649        -1.80468
LJ           1.91575         2.43473        -1.70265
LJ           2.49883       -0.845491         2.53735
LJ          -1.73582      0.00434493          2.5627
LJ           2.52254       0.0871258        -1.91861
LJ          -1.73526       -0.589308        -1.64651
LJ          -1.11915       -0.695456        -2.48584
LJ         -0.116345       -0.259957        -2.53083
LJ         -0.817081       0.0367042        -1.82548
LJ         -0.128345        -1.17486        -1.92369
LJ          0.920251        -1.18196         -2.4857
LJ           1.65477      -0.0131939         2.51933
LJ          0.884884        0.146969        -1.85893
LJ           1.72304       -0.598912        -1.84968
LJ            2.5587        0.884356         2.47604
LJ          -1.67315         1.95443         2.50016
LJ          -2.37579         1.58029        -1.63083
LJ          -1.65675        0.817421        -1.84208
LJ         -0.608926        0.949717         2.48572
LJ          0.130856         1.75489         2.40079
LJ          -1.05199         1.64135        -1.79398
LJ         0.0929495         1.05797        -1.82158
LJ          0.819149        0.895086         2.45166
LJ           1.78358         1.84226         2.32341
LJ          0.988825         1.94448        -1.83565
LJ           1.59721         0.99436        -1.66741
LJ           2.47431         2.40324       -0.734682
LJ            -1.377        -1.71082       -0.796654
LJ          -2.42062        -1.87738       -0.174274
LJ          -1.66625         2.40716      -0.0214744
LJ          -0.88124        -2.52023        -1.12536
LJ          0.168586         -1.6609       -0.794381
LJ         -0.627257        -1.92656      -0.0928938
LJ         -0.143296         2.35974       0.0233928
LJ          0.765374        -2.44122        -0.89701
LJ           1.93164        -1.81352        -1.04865
LJ          0.745337        -1.90258        0.273464
LJ            1.6647        -2.43918       -0.123511
LJ           -2.5473       -0.872013       -0.774481
LJ          -1.89525        0.107152       -0.841584
LJ          -2.47804        0.139483     -0.00732168
LJ          -1.77433       -0.850261        0.086138
LJ         -0.566128       -0.815465       -0.653713
LJ         -0.143118        0.321135       -0.957588
LJ         -0.666821       0.0417571       0.0912572
LJ        0.00230352       -0.756432        0.253303
LJ          0.767475       -0.846393       -0.614634
LJ           1.89076        -0.10391       -0.689997
LJ          0.603406     -0.00137905       0.0432581
LJ           1.81279        -1.22942       -0.250207
LJ           2.55676        0.991311        -0.80136
LJ           -1.5751         1.78519       -0.788702
LJ           2.49946         1.67507       -0.067773
LJ          -1.91152         1.05011          0.2696
LJ          -1.12267        0.812003       -0.830376
LJ          0.167302         1.78967       -0.990976
LJ         -0.745723         1.54947      -0.0520502
LJ          0.116251         0.95657      -0.0851457
LJ          0.899678        0.933185       -0.848386
LJ           1.70993         1.73652       -0.835776
LJ          0.809356         1.98476      -0.0487892
LJ           1.65913        0.846944       -0.130719
LJ           2.46403         2.35925        0.717329
LJ          -1.41732        -1.78979        0.731419
LJ           2.50228        -1.57826         1.67195
LJ          -2.09637        -2.40444         1.40085
LJ         -0.657253         2.45939         1.10533
LJ          0.108813        -1.55165        0.924076
LJ          -1.02533        -1.84974         1.84633
LJ         0.0313076        -2.34347         1.71745
LJ           0.86613         2.37327        0.981306
LJ           1.94482         -1.6949        0.821862
LJ           1.02489        -1.81315         1.77849
LJ           1.67509        -2.53782          1.6252
LJ           2.51987        -0.72023        0.941479
LJ          -1.70978       0.0775661        0.759567
LJ           2.51939       0.0411996         1.74874
LJ          -1.79404       -0.735315          1.8013
LJ         -0.710104        -1.06499         1.04764
LJ         0.0932276        -0.12748         1.04797
LJ         -0.885458         0.18374         1.97698
LJ          0.126317        -1.01927         1.88336
LJ           1.08329        -1.05219         0.69833
LJ           1.55478       -0.083365        0.615449
LJ          0.798371       -0.010864         1.92733
LJ            1.6492       -0.793711          1.8422
LJ            2.3572        0.806757          0.7466
LJ          -1.63875         1.93967        0.858612
LJ            2.4172         1.56813         1.50436
LJ           -1.7957         1.06049         1.60114
LJ         -0.898566        0.775809         0.87702
LJ           0.11466         1.42888        0.822288
LJ         -0.782424         1.53646          1.5838
LJ          0.179467        0.815773         1.60177
LJ           1.02439        0.757444         1.01195
LJ           1.59708           1.673        0.610056
LJ          0.797694         1.56988         1.66958
LJ           1.68023        0.874964         1.83839
