108
#Comment!
LJ           -2.5564        -2.29097         2.33345
LJ          -1.73656        -1.64027         2.49126
LJ          -2.26872        -1.53773         -1.6799
LJ          -1.74884        -2.52739          -1.608
LJ         -0.722389          2.4028         2.50752
LJ         0.0251352        -1.82956         -2.4942
LJ          -1.17618        -1.52461        -1.74425
LJ         -0.068046         2.25594         -1.8454
LJ          0.822056        -2.54174         2.50764
LJ           1.77507        -1.60497          2.4707
LJ          0.870946        -1.89514        -1.67434
LJ           1.97891         2.39635        -1.86459
LJ           2.55502       -0.889214         2.33664
LJ          -1.81669        0.128294         2.53219
LJ           2.42152        0.117108         -1.7853
LJ          -1.84518       -0.572926        -1.64083
LJ          -1.04729       -0.796751        -2.39583
LJ         -0.024237       -0.312462        -2.43712
LJ          -1.04215       0.0533692         -1.7342
LJ        -0.0587431        -1.08033        -1.67911
LJ          0.846209       -0.990929        -2.55843
LJ           1.64268      0.00776406        -2.55238
LJ          0.924122        0.183685        -1.73473
LJ           1.61386       -0.748143        -1.66077
LJ          -2.49902        0.917431        -2.49964
LJ          -1.67302         1.95637         2.41845
LJ          -2.54051         1.65042         -1.6177
LJ          -1.71703         0.90959         -1.7874
LJ         -0.539512        0.927153        -2.54292
LJ          0.146936         1.59206         2.40616
LJ          -1.14231         1.61879        -1.81761
LJ          0.174817         1.12832        -1.76656
LJ          0.900739        0.916945          2.5248
LJ            1.7805         1.69436         2.47283
LJ           0.96371          1.8184        -1.88074
LJ           1.73709         1.11615        -1.69001
LJ           2.51837         2.34771       -0.688825
LJ          -1.48885        -1.78358       -0.746747
LJ          -2.34192        -1.74257      -0.0643273
LJ           -1.7318         2.37203       0.0919148
LJ         -0.655086        -2.48831        -1.05666
LJ         0.0419503        -1.60004       -0.765151
LJ         -0.826216        -2.04501       -0.114106
LJ          -0.15249         2.26565       0.0460643
LJ          0.883921        -2.50548       -0.818906
LJ           2.02103        -1.73085        -1.02022
LJ          0.786547        -1.82553         0.36944
LJ           1.72646         2.54911       -0.106625
LJ          -2.33696       -0.903917       -0.776421
LJ          -1.86273      0.00844387       -0.734169
LJ          -2.47233        0.165333        0.140624
LJ           -1.5702       -0.660558       0.0974906
LJ         -0.753352       -0.870481       -0.787451
LJ         -0.126363       0.0656819        -1.02835
LJ         -0.729867       0.0120023      -0.0673796
LJ          0.051077        -0.65997       0.0199485
LJ           1.03622        -1.25784       -0.835869
LJ           1.87204       -0.154667       -0.591466
LJ          0.872355       0.0522659        0.135047
LJ           2.02235        -1.07207      -0.0436991
LJ           2.48659        0.930097       -0.785657
LJ          -1.63218         1.74483        -0.88206
LJ           2.35373         1.64126      -0.0613475
LJ          -1.86445        0.994792        0.225163
LJ          -1.06244         0.71397       -0.854365
LJ         0.0303019         1.69166       -0.894951
LJ         -0.877697         1.60142       -0.275354
LJ        -0.0823089        0.864796       -0.216767
LJ           1.03532        0.840569       -0.820167
LJ           1.66803         1.70298       -0.728979
LJ          0.771082         1.88658       -0.184242
LJ            1.7622        0.758738      -0.0738803
LJ           2.44472         2.40185        0.722463
LJ          -1.26411        -1.81146        0.770069
LJ           2.51552         -1.3594          1.4918
LJ          -1.92457        -2.34332         1.47788
LJ         -0.805667         2.47334        0.925484
LJ         0.0839218        -1.47391        0.982509
LJ         -0.855323        -1.81673         1.88614
LJ         0.0462909        -2.42312         1.79739
LJ          0.692387         2.38034         1.06208
LJ           1.69984        -1.68549        0.909356
LJ          0.968509        -1.74359         1.68568
LJ           1.75268        -2.45511         1.61654
LJ          -2.47347       -0.705715        0.706663
LJ          -1.54379      0.00785728        0.809485
LJ           2.45503      -0.0316679         1.70941
LJ          -1.79547       -0.720659         1.73228
LJ         -0.845224       -0.984066         1.05979
LJ          0.186098       -0.262649        0.939973
LJ         -0.966864        0.169481         1.88336
LJ          0.218511       -0.934564         1.80608
LJ           0.96523        -0.84538        0.768206
LJ           1.74959       -0.130842        0.722171
LJ          0.600179       0.0437892         2.01318
LJ           1.50003         -0.8021         1.74575
LJ           2.25151        0.896008        0.817257
LJ          -1.61089         1.86219        0.984863
LJ           2.41424         1.72087         1.57881
LJ          -1.87096         0.85693         1.45602
LJ         -0.760537         0.77923        0.632299
LJ          0.327451         1.50178         0.79302
LJ         -0.918859         1.37687         1.59891
LJ         0.0210082        0.873805         1.55986
LJ           1.15609        0.649025         0.99882
LJ            1.4893         1.69636         0.61526
LJ          0.980816         1.54838         1.68997
LJ           1.73247        0.875823          1.9209
