108
#Comment!
LJ           2.53294          2.5383         2.49694
LJ          -1.78029        -1.73166          2.4732
LJ          -2.51924         -1.7482        -1.58933
LJ          -1.76745        -2.45689        -1.83894
LJ         -0.955697          2.4239         2.50241
LJ        -0.0124027          -1.998        -2.47779
LJ         -0.937521        -1.51321        -1.62894
LJ         0.0516534         2.27882        -1.65349
LJ           1.00819         2.46537        -2.34401
LJ           1.79748        -1.68818         2.52489
LJ          0.983855        -1.69359         -1.6486
LJ           1.98951        -2.48043        -1.50754
LJ           2.46567       -0.788202        -2.45923
LJ          -1.77504       0.0528883         2.54378
LJ          -2.49678        0.174004        -1.67751
LJ          -1.61973       -0.590741        -1.34954
LJ          -1.21314       -0.900366        -2.45049
LJ         -0.147618       -0.226604        -2.46134
LJ         -0.818818        0.110348        -1.80499
LJ        -0.0497393        -0.92935        -1.75357
LJ          0.987393        -1.09161        -2.43619
LJ           1.62414       0.0735698        -2.54664
LJ            0.7207      -0.0837962        -1.56302
LJ           1.72311       -0.824406        -1.73985
LJ          -2.48912         1.01402           2.332
LJ          -1.81614         1.78825         2.54682
LJ          -2.55952         1.63118        -1.72279
LJ          -1.71517        0.916801        -1.89495
LJ         -0.734913         1.12108         2.51217
LJ         0.0457066         1.84381         2.51732
LJ         -0.788662         1.68777        -1.81353
LJ         0.0483118        0.831312        -1.90288
LJ          0.840394         0.81241        -2.50776
LJ           1.76979         1.89569         2.42489
LJ          0.897238         1.70196        -1.56869
LJ           1.82354        0.786578        -1.74828
LJ          -2.45416         2.45149       -0.709193
LJ          -1.47297        -1.81285       -0.657847
LJ           2.52434        -1.77627       -0.186288
LJ          -1.65597         2.38636      -0.0640281
LJ         -0.752571         2.50577       -0.932464
LJ         0.0292703        -1.72565       -0.964244
LJ         -0.615098        -1.80176       0.0766783
LJ         -0.196648         2.32787       0.0457878
LJ          0.834082         -2.4548       -0.903839
LJ            1.7921          -1.645       -0.852655
LJ          0.700095        -1.92174        0.109668
LJ           1.58498         -2.3309        -0.10083
LJ          -2.51236       -0.859743       -0.763499
LJ          -1.93957        0.144091        -0.71391
LJ           2.37806      -0.0272914     -0.00172739
LJ           -1.6523       -0.917003      0.00219105
LJ         -0.673891       -0.838776       -0.831358
LJ         0.0188236         0.19153        -0.93327
LJ          -0.75398      -0.0672386      -0.0406456
LJ         0.0820305        -0.78986        0.185632
LJ          0.791565        -0.84446       -0.795871
LJ           1.80681       -0.172777        -0.85341
LJ           0.75412       0.0476674       -0.105835
LJ           1.65398       -0.955493      -0.0930726
LJ          -2.41629         1.00051       -0.936055
LJ          -1.66375         1.68679        -1.04593
LJ           2.53723         1.58202       0.0574595
LJ          -1.93464        0.814427       0.0440542
LJ         -0.973035        0.737004       -0.892095
LJ        -0.0525204         1.51188       -0.827656
LJ         -0.850658         1.46864      -0.0571591
LJ           0.06276         1.00853       0.0606693
LJ          0.841935         1.10246       -0.744744
LJ           1.76608         1.67093       -0.932338
LJ          0.889145         1.96438       0.0483601
LJ           1.85468        0.834291       -0.137891
LJ           2.48218        -2.53449        0.785592
LJ          -1.52423        -1.68893        0.714612
LJ          -2.54125        -1.42843         1.69941
LJ          -1.99538         2.49627         1.52435
LJ         -0.738121        -2.51451         1.00225
LJ          0.150913        -1.78762        0.902226
LJ         -0.953144        -1.70126         1.76055
LJ         0.0967995        -2.43221         1.74021
LJ           1.05496        -2.56382        0.931332
LJ           1.78609        -1.52194        0.769033
LJ           0.85864        -1.66815          1.7091
LJ           1.57303        -2.49392         1.83114
LJ            2.5543       -0.543653         1.05195
LJ          -1.82689       0.0140902        0.809762
LJ           2.54741        0.135679          1.8461
LJ          -1.62843       -0.942077         1.47678
LJ         -0.775132       -0.881903        0.904369
LJ          0.109714      -0.0823829         1.03098
LJ          -0.85053        0.154156         2.10145
LJ          0.106047       -0.933775         1.64766
LJ          0.947749       -0.829376        0.821097
LJ           1.61031       -0.108233         0.59354
LJ          0.724128       -0.105131         1.93292
LJ            1.6991       -0.822809         1.69148
LJ           2.48098        0.665767        0.776724
LJ          -1.43597         1.90368         0.78027
LJ          -2.53806         1.56124         1.45466
LJ          -1.52946        0.888739         1.61968
LJ         -0.845947        0.739655        0.636237
LJ            0.2139         1.63303        0.940564
LJ           -0.7537          1.6621         1.52278
LJ        0.00253191        0.947944         1.61768
LJ          0.776886        0.629655        0.942915
LJ           1.76104         1.66477        0.763293
LJ          0.935477         1.68529         1.71528
LJ           1.67579        0.759717         1.64949
