108
#Comment!
LJ            2.3379         2.54509         2.54967
LJ           -1.6539        -1.88845         2.49404
LJ           2.56388        -1.70506        -1.79669
LJ          -1.86947         2.51275        -1.78911
LJ         -0.923472          2.4858         2.49391
LJ         -0.130401        -1.90345         -2.4325
LJ         -0.864769        -1.55255        -1.57736
LJ         0.0192175         2.47475        -1.75953
LJ          0.875592         2.49154        -2.44965
LJ           1.64368        -1.76782        -2.48771
LJ          0.800658        -1.49548        -1.54088
LJ           1.91495        -2.47565         -1.6231
LJ           2.43482         -0.9471         2.54084
LJ          -1.65616       0.0462861        -2.55076
LJ          -2.43384        0.149059        -1.78004
LJ          -1.81483        -0.88054        -1.58247
LJ          -1.16774       -0.894418         2.48672
LJ        -0.0279352      -0.0352583         2.50697
LJ         -0.749538        0.186602        -1.68789
LJ          0.110724        -0.79469        -1.76823
LJ          0.947741        -0.92195        -2.52089
LJ           1.72168       0.0669009         2.54611
LJ          0.737615        0.174439        -1.68148
LJ           1.64883        -0.84743        -1.76756
LJ          -2.51299        0.852838         2.50647
LJ          -1.80681         1.86846         2.42043
LJ          -2.52534          1.6823        -1.81171
LJ          -1.74947        0.982543        -1.72947
LJ          -0.58968         1.01909         2.33004
LJ          0.194849         1.73165         2.41969
LJ         -0.816313         1.69725        -1.68627
LJ         -0.094964        0.942583        -1.71806
LJ          0.813233         0.82217        -2.42391
LJ           1.76041         1.80013        -2.51683
LJ          0.948736         1.72396        -1.59787
LJ           1.73203        0.803535         -1.6374
LJ          -2.48183        -2.54804       -0.811682
LJ          -1.51576        -1.78378       -0.689663
LJ           2.47418        -1.79838      -0.0545706
LJ          -1.78433         2.50273      -0.0998311
LJ         -0.808893         2.50265       -0.789106
LJ        -0.0638454         -1.7014       -0.868189
LJ         -0.820942         -1.8073       0.0566134
LJ         -0.160462         2.34907       0.0361076
LJ          0.915605         2.45742        -0.86511
LJ           1.57562        -1.70898       -0.858446
LJ          0.768004        -1.80733        0.161991
LJ           1.68711        -2.46255      -0.0682627
LJ          -2.42653        -0.95792       -0.790083
LJ          -1.87904        0.101523       -0.797715
LJ           2.49523       0.0707961      -0.0694674
LJ          -1.72174       -0.775675      -0.0750726
LJ         -0.839869       -0.707808       -0.806856
LJ        -0.0346452        0.113222       -0.726181
LJ         -0.909938      -0.0104831       0.0154029
LJ        -0.0358571       -0.721054      -0.0824986
LJ          0.901858       -0.795505       -0.853797
LJ           1.81863       -0.103951       -0.815618
LJ          0.942043      -0.0359126      -0.0363621
LJ           1.66537        -1.04428       -0.117855
LJ          -2.52012         1.09243       -0.728746
LJ          -1.66065         1.71623       -0.994175
LJ           2.51721         1.72825        0.178362
LJ          -1.82791        0.901242       0.0225488
LJ         -0.801034        0.755027       -0.867511
LJ        -0.0149623         1.69603       -0.924949
LJ         -0.917419         1.65587       -0.178608
LJ        -0.0655163         1.08953      -0.0360178
LJ          0.694731        0.912799       -0.780638
LJ           1.83604         1.86369       -0.909073
LJ          0.692784         1.80106      -0.0800119
LJ           1.67838        0.912319      -0.0484063
LJ           2.48186         2.52956        0.937822
LJ           -1.5251        -1.77988        0.911953
LJ           2.46698        -1.67571         1.67904
LJ           -1.8205        -2.54485         1.65125
LJ         -0.863168         2.51147        0.811549
LJ        -0.0510519        -1.64534        0.792152
LJ         -0.845761        -1.64974         1.70406
LJ          0.207189        -2.47267         1.80591
LJ           1.09456        -2.54729        0.965061
LJ           1.86094        -1.71286        0.796857
LJ          0.872973        -1.60763         1.54985
LJ           1.63573        -2.51428         1.81711
LJ           2.43315       -0.669596        0.825951
LJ           -1.8476      -0.0213385        0.932904
LJ          -2.50263      -0.0478323         1.97563
LJ          -1.85929       -0.896283         1.66198
LJ         -0.661296       -0.817703        0.739208
LJ         0.0818185      -0.0712895        0.814677
LJ         -0.725473       0.0602854         1.69851
LJ        -0.0311255       -0.892925         1.68931
LJ          0.792742       -0.933852        0.832554
LJ           1.55593     -0.00959842         0.76669
LJ          0.797434        -0.11174         1.81897
LJ           1.72985       -0.830334         1.65973
LJ           2.42279        0.759748        0.761557
LJ          -1.74829         1.73213        0.786165
LJ           2.54079         1.72861         1.73503
LJ          -1.75904        0.764045         1.63628
LJ         -0.918698        0.729199        0.819423
LJ         0.0611692         1.65537        0.867423
LJ         -0.870075           1.674         1.56175
LJ         0.0351644        0.869979         1.55331
LJ          0.910361         0.80911         0.97381
LJ           1.69919          1.7151        0.839201
LJ          0.963635         1.66343         1.75549
LJ           1.65362         1.03517          1.7177
