108
#Comment!
LJ            2.5561        -2.23603          2.3337
LJ           -1.6976        -1.66164         2.52633
LJ          -2.29015        -1.56823        -1.74581
LJ          -1.71008        -2.50489        -1.75776
LJ         -0.724404         2.31832         2.52505
LJ        -0.0132698        -1.82094        -2.47325
LJ          -1.18009        -1.51479         -1.8056
LJ        -0.0198371         2.29851        -1.87265
LJ           0.83945        -2.48042        -2.55651
LJ           1.67032        -1.65877          2.5112
LJ          0.907187        -1.84384        -1.67681
LJ           1.91888         2.45534        -1.79992
LJ           -2.5579       -0.851038         2.32322
LJ          -1.81531        0.030416        -2.53327
LJ           2.47545       0.0729378         -1.8241
LJ          -1.78583       -0.633949        -1.68431
LJ          -1.12675       -0.765576        -2.40278
LJ        -0.0676377       -0.186793        -2.40585
LJ          -1.03416      0.00916765        -1.72273
LJ         0.0262065        -1.01746        -1.75686
LJ          0.933855       -0.999293        -2.56386
LJ           1.60568       -0.021812        -2.52495
LJ          0.994426        0.135539        -1.69686
LJ           1.61756       -0.654746        -1.68408
LJ          -2.44362         1.01805        -2.55872
LJ          -1.71157         1.96888         2.33203
LJ          -2.50137         1.57665        -1.61859
LJ          -1.72793         0.78967        -1.79349
LJ         -0.560365        0.915696         2.44986
LJ          0.182222         1.67399         2.42867
LJ          -1.20473         1.63508        -1.86572
LJ         0.0631119         1.16598        -1.88495
LJ          0.906832        0.952219          2.5173
LJ           1.81597         1.77248         2.54438
LJ          0.967994         1.78071        -1.89363
LJ            1.7034        0.959676         -1.6687
LJ            2.5637         2.37883       -0.807326
LJ            -1.473        -1.71263       -0.833249
LJ          -2.22311        -1.80233       -0.122096
LJ          -1.73824         2.45516         0.10647
LJ         -0.580278        -2.51689        -1.05576
LJ         0.0577765        -1.64081       -0.796996
LJ         -0.765714        -2.03074      -0.0912202
LJ         -0.100894         2.31892       0.0774519
LJ          0.845676        -2.51001       -0.817485
LJ           2.05975        -1.70066       -0.983464
LJ          0.792405        -1.80122        0.322081
LJ           1.70205         2.54055      -0.0261406
LJ          -2.28815        -0.98585       -0.760503
LJ          -1.94872      -0.0371941       -0.802872
LJ          -2.43064       0.0975533        0.121983
LJ          -1.65232        -0.70547       0.0766108
LJ         -0.759426       -0.793862       -0.795538
LJ         -0.100983       0.0539899        -1.05745
LJ         -0.740181       0.0172748        -0.10298
LJ         0.0367746       -0.647978       0.0164707
LJ           1.02351        -1.22838       -0.835264
LJ           1.89835       -0.127672       -0.613229
LJ          0.875754       0.0684739         0.14825
LJ           2.00995         -1.0015       -0.025261
LJ           2.41342        0.931898       -0.799198
LJ          -1.57467         1.77385       -0.832182
LJ           2.35897         1.69186      -0.0303509
LJ          -1.83457        0.982251        0.284343
LJ          -1.02878        0.727888       -0.836524
LJ         0.0563511         1.69845       -0.960117
LJ         -0.852948          1.5119        -0.28579
LJ         -0.101557        0.849906        -0.16889
LJ           1.13788        0.792788       -0.883843
LJ            1.6137         1.73767       -0.690835
LJ           0.74411         1.83232       -0.144785
LJ           1.74386        0.824132      -0.0692694
LJ           2.36559         2.35101        0.738049
LJ          -1.28601        -1.82067        0.691408
LJ           2.56266        -1.50476         1.50601
LJ          -1.89128        -2.37148         1.48712
LJ         -0.748753         2.46693        0.953731
LJ        -0.0489075        -1.50733        0.966299
LJ         -0.833153        -1.78862         1.89668
LJ         0.0808807        -2.34859         1.76993
LJ          0.687191          2.4924        0.999256
LJ           1.71587        -1.59396        0.896386
LJ          0.947694        -1.72225         1.68055
LJ           1.79325         2.55271             1.6
LJ          -2.45091       -0.825343        0.732102
LJ          -1.50155      -0.0291745        0.825264
LJ           2.44471      0.00236605         1.70565
LJ          -1.75298       -0.729113         1.60967
LJ         -0.865523       -0.960012         1.06055
LJ          0.233007       -0.229659         1.00199
LJ         -0.964057        0.109848         1.83858
LJ          0.211759       -0.896517         1.80386
LJ          0.878085       -0.834062        0.777256
LJ           1.83273       -0.190409        0.629292
LJ          0.681561       0.0301157         1.96174
LJ           1.54778       -0.860284         1.62919
LJ           2.21966        0.858964        0.854493
LJ          -1.64216         1.89344        0.981512
LJ           2.41889         1.68953         1.61104
LJ           -1.8793        0.784109         1.42434
LJ         -0.737484        0.829259        0.611178
LJ          0.404108         1.51793        0.861974
LJ          -1.01045         1.42629         1.61263
LJ         0.0921824         0.82357         1.49502
LJ           1.13133        0.656275         1.02421
LJ           1.45255         1.71872        0.630903
LJ           1.02587         1.54399         1.72464
LJ           1.83092        0.917043         1.87199
