108
#Comment!
LJ            2.5188        -2.42735         2.55567
LJ          -1.75631        -1.67474         2.42459
LJ           2.50735        -1.72153        -1.70865
LJ          -1.81848          -2.429         -1.6727
LJ         -0.814122         2.51728         2.49458
LJ        0.00330759        -2.05001        -2.48141
LJ          -1.08307        -1.49139        -1.59593
LJ         0.0240294         2.28433        -1.76162
LJ          0.939113         2.47174         2.51015
LJ           1.74814        -1.80177         2.53961
LJ          0.912294        -1.78272         -1.7487
LJ           1.89583        -2.56285        -1.69571
LJ             2.456       -0.851314         2.56223
LJ          -1.88704      -0.0356911         2.55759
LJ           2.49518        0.138593        -1.99361
LJ          -1.74332       -0.524439        -1.49599
LJ          -1.19465       -0.803162        -2.45928
LJ         0.0082253       -0.177479        -2.48662
LJ          -0.71046       0.0512188        -1.81174
LJ         -0.112626        -1.14006        -1.90543
LJ          0.845967         -1.1526        -2.54553
LJ           1.63076     -0.00554935        -2.51698
LJ          0.811863        0.107025        -1.78634
LJ            1.6844       -0.743144        -1.71116
LJ          -2.44817         1.00193          2.4702
LJ          -1.70144         1.91516         2.56289
LJ          -2.50919         1.70452        -1.66272
LJ          -1.55287        0.827267        -1.83294
LJ         -0.632107          1.0579         2.50176
LJ          0.162526         1.80718          2.5027
LJ         -0.915928         1.63656        -1.74187
LJ         0.0592384          1.0336        -1.83146
LJ          0.944903        0.949219        -2.54934
LJ           1.89431         1.84449         2.47161
LJ           0.91732         1.83945        -1.63349
LJ           1.67821        0.909487        -1.67985
LJ           2.33759         2.36189       -0.739814
LJ          -1.53357        -1.78252       -0.761364
LJ          -2.44038        -1.83955      -0.0765523
LJ          -1.61513         2.52683      -0.0163186
LJ         -0.849274          -2.553        -1.09165
LJ          0.134642         -1.7489       -0.893361
LJ         -0.536648        -1.79772      -0.0246166
LJ         -0.223762         2.41257        0.055823
LJ          0.890645         -2.5225       -0.881993
LJ           1.75356        -1.72874       -0.964907
LJ          0.654915          -1.976        0.123608
LJ            1.6718        -2.37324      -0.0278828
LJ          -2.53209       -0.934476       -0.692605
LJ          -1.90866        0.138874       -0.755592
LJ          -2.54783       0.0901005       0.0516066
LJ          -1.69098       -0.951853         -0.0274
LJ         -0.588372       -0.890377       -0.643568
LJ        -0.0943795        0.269316        -1.00034
LJ         -0.763321      -0.0519463       -0.100517
LJ          0.147864         -0.7256        0.249104
LJ          0.800948       -0.954962       -0.634984
LJ           2.04754       -0.109108       -0.873519
LJ          0.681783       0.0997122      -0.0289135
LJ           1.74071         -1.0085       -0.126145
LJ          -2.47648         1.05191       -0.867804
LJ          -1.54219            1.81       -0.829828
LJ           2.38084         1.77812       0.0333204
LJ          -1.96082        0.973353        0.116084
LJ           -1.0657        0.662995       -0.952627
LJ         0.0467273          1.8442       -0.883143
LJ         -0.780885         1.56171      -0.0711285
LJ        -0.0231544        0.868705     -0.00138058
LJ          0.755516        0.960904       -0.688931
LJ             1.617         1.61913       -0.894597
LJ          0.795542         2.00715       -0.117568
LJ           1.69395        0.834065       -0.201734
LJ           2.46336         2.37314        0.858527
LJ          -1.42049        -1.86635         0.73331
LJ           2.55571        -1.62525          1.8062
LJ          -2.00023         -2.4881         1.63996
LJ          -0.68573         2.53422         1.12262
LJ           0.12469        -1.60834        0.931516
LJ         -0.890122         -1.7898         1.72552
LJ         0.0949736         -2.3658          1.7301
LJ          0.889705         2.29805        0.947709
LJ           1.99719        -1.56868        0.717488
LJ          0.976533         -1.7917         1.73276
LJ           1.67977        -2.50609         1.67223
LJ           2.50033       -0.606513        0.933587
LJ          -1.72965       0.0543784        0.806515
LJ           2.50724      -0.0431869         1.74825
LJ          -1.88583       -0.813745         1.73398
LJ         -0.726851       -0.881245         1.00981
LJ        -0.0220647      -0.0799656        0.978177
LJ          -0.83968        0.191837         1.94063
LJ          0.245819       -0.952002         1.84073
LJ           1.03544        -1.04706        0.685644
LJ           1.60447       -0.199232        0.730255
LJ           0.84231       0.0407517         1.93876
LJ           1.55098       -0.888172         1.77506
LJ             2.351        0.703186        0.809729
LJ           -1.4316         1.99278        0.804275
LJ           2.45797         1.66743         1.58545
LJ          -1.78394        0.940853         1.60755
LJ         -0.852471        0.651841        0.863582
LJ          0.247234         1.49004        0.711829
LJ         -0.860137          1.6255         1.59493
LJ        -0.0232725        0.812042         1.55946
LJ          0.997518        0.773977        0.842169
LJ           1.58471         1.69325        0.576106
LJ           0.85803         1.61067         1.72086
LJ           1.86538        0.820075         1.80533
