108
#Comment!
LJ           2.36811        -2.51103         2.55145
LJ          -1.59176        -1.84386         2.43159
LJ          -2.50979        -1.75806         -1.7308
LJ           -1.8731         2.52707        -1.69926
LJ         -0.884188         2.51558          2.4733
LJ         -0.151842        -1.90948        -2.48143
LJ         -0.846089        -1.57936        -1.63897
LJ        0.00887597         2.42455        -1.72291
LJ          0.904038           2.465        -2.38872
LJ              1.66        -1.74452        -2.49843
LJ          0.803634        -1.49598        -1.54367
LJ            1.9168        -2.49754        -1.65645
LJ           2.46327       -0.925101        -2.52555
LJ          -1.62527      0.00931513         -2.5546
LJ           -2.4282        0.199508        -1.78011
LJ          -1.81833       -0.918558        -1.59436
LJ          -1.09586       -0.892534         2.51195
LJ        -0.0592887      -0.0395648          2.5216
LJ         -0.749269        0.137325        -1.72347
LJ         0.0384269       -0.764696        -1.81803
LJ          0.977368       -0.934495        -2.54473
LJ           1.78811        0.133376        -2.55914
LJ          0.681747        0.150649        -1.65367
LJ           1.61415       -0.875978        -1.69915
LJ          -2.52566        0.877443         2.52873
LJ          -1.81409         1.89408         2.43019
LJ          -2.53647         1.60196        -1.79958
LJ          -1.71301        0.865823        -1.75494
LJ         -0.623785         1.03174         2.27741
LJ          0.176286         1.68616          2.4354
LJ         -0.798973         1.62531        -1.71581
LJ         -0.133167        0.913861        -1.70792
LJ          0.741699        0.794004        -2.43201
LJ           1.72367         1.74648        -2.51292
LJ          0.918941         1.69882        -1.56516
LJ            1.7394        0.844286        -1.68426
LJ          -2.50855         2.55364       -0.778475
LJ          -1.56137         -1.7813       -0.689995
LJ           2.50533        -1.78383      -0.0150369
LJ          -1.75406         2.44241      -0.0472596
LJ         -0.793712         2.48097       -0.784477
LJ        -0.0450832        -1.68759       -0.873274
LJ          -0.78851        -1.78164         0.10158
LJ         -0.183138         2.40144       0.0351284
LJ          0.940947         2.50795       -0.871574
LJ           1.61005        -1.76257       -0.860421
LJ          0.771724        -1.82381        0.165741
LJ           1.65085        -2.40717      -0.0829461
LJ          -2.50385       -0.964666       -0.768253
LJ          -1.91056         0.11399       -0.734062
LJ           2.53843       0.0366692      -0.0439103
LJ          -1.73251       -0.721338        -0.10411
LJ         -0.817126       -0.738025       -0.779784
LJ        -0.0341869        0.108402       -0.741059
LJ         -0.879629      -0.0399311       0.0398734
LJ         -0.116241        -0.71648       -0.124428
LJ          0.858933       -0.767404       -0.854398
LJ           1.81106        -0.13153       -0.858037
LJ          0.931564       0.0377297      -0.0934246
LJ           1.72132       -0.966763      -0.0850123
LJ          -2.53639         1.04902       -0.689504
LJ          -1.66191         1.72618       -0.978487
LJ           2.48306         1.74071        0.188231
LJ          -1.86441        0.925678       0.0769008
LJ         -0.833286        0.756274       -0.878921
LJ       0.000635728         1.69856       -0.856559
LJ         -0.901402         1.61874       -0.134517
LJ        -0.0415945          1.0116      -0.0896742
LJ          0.714831        0.946986       -0.807308
LJ           1.89989         1.82706       -0.933362
LJ          0.741599         1.87191      -0.0693465
LJ           1.70709        0.879557       -0.032324
LJ           2.45319         2.53698         1.00248
LJ          -1.55069        -1.86221        0.929009
LJ           2.50972        -1.66443         1.69592
LJ          -1.77587         2.54859          1.6486
LJ         -0.832152         2.51429        0.789937
LJ        0.00221885        -1.71704        0.814442
LJ         -0.845675         -1.6657         1.70609
LJ          0.164526        -2.45501          1.7594
LJ            1.0791        -2.51349        0.968053
LJ           1.89389        -1.71499        0.772091
LJ          0.906323        -1.58778         1.58067
LJ           1.62645         2.55878         1.80802
LJ           2.45298       -0.668761        0.884951
LJ          -1.94457      0.00423684        0.924391
LJ          -2.53192     -0.00662368         1.91485
LJ          -1.78904       -0.822713         1.67948
LJ         -0.682494       -0.797595         0.73614
LJ         0.0659972      -0.0874045        0.800167
LJ         -0.779051        0.125898         1.76024
LJ         0.0145105       -0.963906          1.6723
LJ          0.825037       -0.920892         0.82241
LJ           1.59195     -0.00428485        0.731286
LJ          0.781736      -0.0872115         1.82818
LJ           1.74697       -0.869974         1.69552
LJ           2.42334        0.767355        0.759993
LJ          -1.69242         1.76908         0.77375
LJ           2.52576         1.71167          1.7272
LJ          -1.76952        0.755672         1.57856
LJ         -0.896196        0.717587         0.79967
LJ         0.0915305         1.70629        0.867261
LJ         -0.833117         1.67173          1.5122
LJ         0.0282767        0.874622         1.52366
LJ          0.893621        0.911486         1.05368
LJ           1.70014         1.77188        0.852409
LJ          0.980108         1.70272         1.78752
LJ           1.70739         1.02001          1.7256
