108
#Comment!
LJ          -2.41932        -2.39766         2.47199
LJ          -1.75974        -1.62631         2.53694
LJ          -2.33691        -1.54513        -1.78344
LJ          -1.53504        -2.46846        -1.82791
LJ         -0.764934         2.43456        -2.56402
LJ         -0.153019        -1.58706         2.46449
LJ          -1.02166        -1.60122        -1.82313
LJ         0.0894343         2.44349        -1.91037
LJ          0.866176        -2.43474         2.56016
LJ           1.76424        -1.64913         2.41743
LJ           1.09241        -1.79113        -1.71756
LJ           1.87364         2.42387        -1.57411
LJ           2.49454        -0.67156         2.50779
LJ          -1.84039      -0.0294039         2.37594
LJ          -2.52144       -0.106118        -1.84766
LJ          -1.61366       -0.608527        -1.66384
LJ          -1.03295       -0.692352        -2.54687
LJ       0.000871381       -0.226987        -2.38105
LJ         -0.839709       0.0013563        -1.77615
LJ         0.0735973        -1.02602        -1.78345
LJ          0.865577       -0.972354         2.55731
LJ           1.74275      -0.0742427         -2.4133
LJ          0.811012        0.185117        -1.60863
LJ           1.55818        -0.78661        -1.65131
LJ          -2.51109        0.968408        -2.48669
LJ          -1.80911         1.94264         2.32291
LJ          -2.48374         1.66819        -1.50141
LJ          -1.66871          0.7389        -1.96585
LJ         -0.479981        0.694562         2.51842
LJ          0.103996          1.6793          2.3801
LJ          -1.17358         1.59214         -1.6417
LJ        -0.0152865         1.08982         -1.6768
LJ           1.15517        0.923204         2.54871
LJ           1.78597         1.75983        -2.53627
LJ           1.02136         1.80126        -1.93898
LJ           1.63411        0.871933        -1.71703
LJ          -2.52505         2.42635       -0.778567
LJ          -1.47197        -1.69561       -0.872381
LJ          -2.33589         -1.6952      -0.0507128
LJ          -1.57558         2.53309        0.146428
LJ         -0.626378        -2.46195        -1.12068
LJ         0.0266035         -1.7621       -0.742318
LJ         -0.786787        -1.79281       -0.065508
LJ        -0.0845968         2.27719        0.164437
LJ          0.629572         -2.4917        -0.92826
LJ           1.94103        -1.70049       -0.963707
LJ           0.77372        -1.90852         0.19478
LJ           1.61755        -2.46875      0.00507889
LJ          -2.49105       -0.846056       -0.855497
LJ          -1.97804        0.105373       -0.919364
LJ          -2.43634       0.0536943      0.00502263
LJ          -1.67637       -0.706906       0.0053057
LJ         -0.819683       -0.822479       -0.859759
LJ         -0.212041      -0.0173219       -0.977255
LJ         -0.698843      -0.0572313       0.0616259
LJ        0.00978936        -0.79586       0.0583002
LJ          0.918039        -1.25378       -0.803356
LJ           1.84827       -0.162108       -0.678844
LJ          0.909136         0.14657        0.111134
LJ           1.93617        -1.05724      -0.0134821
LJ            2.5487         0.92138       -0.789472
LJ          -1.78008         1.70312       -0.818707
LJ           2.41222         1.50845       0.0969788
LJ          -1.80399         1.08757        0.223723
LJ          -1.07973        0.708959       -0.971103
LJ          0.148701         1.71026       -0.831963
LJ         -0.830416         1.68624       -0.141603
LJ         0.0680959        0.873574       -0.150925
LJ           0.93939        0.942429       -0.856169
LJ           1.74113         1.69145       -0.763895
LJ           1.02462         1.59892       -0.141405
LJ           1.61723        0.782675       0.0777737
LJ           -2.5301         2.42572        0.625532
LJ          -1.42632        -1.81281         0.84488
LJ          -2.50621        -1.50086         1.56779
LJ          -1.96494        -2.30913         1.53381
LJ         -0.811804         2.35369        0.955398
LJ        -0.0468068        -1.46098         1.00262
LJ         -0.993917        -1.68143         1.83863
LJ           0.18393        -2.33455         1.73693
LJ          0.838967         2.41937        0.986922
LJ           1.65127         -1.4801        0.996069
LJ          0.919662        -1.60313         1.73168
LJ            1.8439        -2.49266         1.63914
LJ          -2.50348       -0.922144         0.76635
LJ           -1.5632     -0.00366534        0.761471
LJ           2.46413      -0.0305963         1.65756
LJ          -1.64839       -0.843606         1.60665
LJ         -0.852036        -0.88782         1.05316
LJ          0.174837       -0.125208        0.880462
LJ         -0.956407      -0.0214593         1.75506
LJ          0.196491        -0.79772         1.70952
LJ          0.886672       -0.931117        0.617004
LJ           1.78775       -0.303814        0.849736
LJ          0.835885       0.0614286         1.79595
LJ           1.53927       -0.805834         1.87426
LJ           2.28682        0.960729        0.980767
LJ          -1.75912         1.83642         1.08677
LJ          -2.56058         1.90194         1.59888
LJ          -1.85524        0.803716         1.55194
LJ         -0.959793         0.89846        0.599234
LJ           0.35541         1.53707         0.81055
LJ          -0.86839         1.45428          1.6529
LJ         0.0356386        0.939908         1.49601
LJ           1.19629        0.726611        0.999591
LJ           1.52457         1.74392        0.763932
LJ           1.06349         1.66807          1.7308
LJ           1.90512         1.09185         1.83059
