108
#Comment!
LJ         -0.408566        -1.58955        -0.64896
LJ          -1.88558        -1.63587          1.5667
LJ          0.359288         1.24885       -0.599694
LJ          -1.29377        -1.77494        -1.61357
LJ          -2.28473       -0.128676         2.11928
LJ         0.0639136        -1.32966         1.56208
LJ           1.16084       -0.892607       -0.821181
LJ         0.0213055        -1.48158        -2.54031
LJ          0.535265        0.455563        -2.15213
LJ           1.36203         2.08592        -2.35361
LJ         -0.189207        -1.94436        0.594578
LJ         -0.978177        -1.31201         2.11026
LJ          -1.79046         2.21437       -0.528406
LJ         -0.563607        0.525658         1.58755
LJ           1.18189       0.0472333         2.46091
LJ          0.739938        -1.89474       -0.515182
LJ          -1.52475          1.5247        0.141269
LJ           2.06273         1.34852       -0.533701
LJ         -0.186289         1.65866         1.58425
LJ           1.65728        0.835625           1.198
LJ           1.39799        -2.08623         2.34445
LJ          0.150329         2.02529        -1.34221
LJ         -0.773324       -0.740979        -1.26238
LJ           1.87915       -0.129248         1.52154
LJ           1.07633        -2.10306        -1.70699
LJ          -1.62349         2.38252         1.15928
LJ           1.14539        -1.88489         1.41271
LJ           -1.2637       -0.436728         2.52122
LJ           1.11508         1.92892        0.952507
LJ           2.34568       -0.763058        -1.20021
LJ         -0.940513         1.12938       -0.557396
LJ          -0.55209        -2.55961         1.51412
LJ           1.77651        -1.55135        -1.14415
LJ          -1.91712         2.51392        -1.60435
LJ          -2.30801        -1.30999        0.276744
LJ          -1.40976        0.993258        0.940901
LJ          0.589585         2.30991         1.74597
LJ           2.23679       -0.329375        -2.20909
LJ          0.221272         2.35218       -0.243518
LJ          0.922496        0.193414       -0.509143
LJ          0.215176        -0.68617        -0.52744
LJ           -0.5822       0.0102082        0.699044
LJ           -1.5642        -1.84563        -0.22364
LJ          -2.11392        -2.07489         2.55478
LJ           1.09996        -1.99075        0.371955
LJ           2.51876        -2.21763      -0.0941956
LJ          -1.91743       -0.207951        -1.74731
LJ           1.74793         1.69773         1.74319
LJ          -1.21072        -1.82188        0.817536
LJ          0.165575        -0.19203          1.9358
LJ          -2.29371         0.76636        0.145722
LJ           2.29112        -2.41685         1.87257
LJ          0.709267         1.16817         1.72571
LJ          -1.42647         1.43502         1.86367
LJ           1.51698         2.20426      -0.0172222
LJ         -0.731676         1.51047        -2.51584
LJ          -1.99695         1.67571        -2.38226
LJ        -0.0200312        -2.13327        -1.59918
LJ          -1.00484        0.218211        -1.36515
LJ         -0.118014        0.767435        -1.30729
LJ           2.05621        -1.07625          1.8876
LJ          -1.99725        -1.04678         2.42729
LJ           2.54751         1.71877        0.520133
LJ           1.41505       -0.813381        -1.82494
LJ        -0.0982482        0.363437       -0.173319
LJ           1.02657         1.05308        -1.41237
LJ          0.983376       -0.602574        0.188063
LJ          0.725738       -0.184058        -1.39613
LJ           -1.2339       -0.302601         1.47897
LJ           2.30283         1.26012        -1.61618
LJ          -2.40254         0.35641         1.22581
LJ          0.914297       -0.767486         1.46477
LJ          -1.32503      -0.0317455       -0.393053
LJ           2.08571         2.53598        0.850184
LJ          0.431808         1.57632        -2.37696
LJ         -0.975354         2.34526        0.181092
LJ           0.47595        -1.28459        -1.63743
LJ           -2.5397       -0.437618       -0.294725
LJ         -0.945384         1.30213        -1.53808
LJ          -2.31801       -0.759247         1.23103
LJ          -1.14118       -0.825091        0.447216
LJ         0.0403801        0.931521        0.851508
LJ         -0.904103         2.39137        -1.93112
LJ          -2.18586        0.405932       -0.922072
LJ           1.83084        0.195538       -0.952468
LJ         -0.113949         2.48384         2.51166
LJ           2.21027         -1.3103        -2.31167
LJ         -0.326537       -0.546927        -2.24336
LJ          -1.19685        -2.46061           2.271
LJ         -0.713923          2.5294       -0.813622
LJ            1.9052        -1.24917       -0.101874
LJ          -2.36161          -1.708        -1.46444
LJ           2.21945        -2.47074        -1.96197
LJ          -1.91988        -0.12413        0.475623
LJ           1.05814        -1.05407         2.40437
LJ          0.719688        0.166689        0.893403
LJ           1.43681         0.99503         -2.4084
LJ           2.00087       -0.161468        0.525606
LJ         0.0589504       -0.729743        0.517853
LJ          -1.34687        0.513548        -2.30692
LJ          0.152271         2.03004        0.734583
LJ          -1.81778         1.42691        -1.13502
LJ           1.10061         2.24277         -1.0028
LJ           1.24646         1.08454        0.171382
LJ          -2.55938        0.652415        -2.33947
LJ          -2.40229         1.62213         1.68911
LJ             2.382         2.32593       -0.959436
LJ          -1.65335        -1.00444       -0.799068
