108
#Comment!
LJ          0.643211       -0.347313        -1.45952
LJ           1.69618       -0.444317        -2.01275
LJ          -2.18969         1.00769         1.47257
LJ          -1.48883         2.43234         -1.7215
LJ           1.65518        -2.21312        -1.02297
LJ           1.60027         1.67418        -1.13058
LJ           1.38326       -0.501283         1.73106
LJ           2.26157       -0.571141        0.623367
LJ          0.842923        0.611223       -0.744255
LJ         -0.300959           2.007        0.385437
LJ           1.89787        -1.52455       -0.103401
LJ           2.11342          2.2738         1.50117
LJ          0.998996        -1.14129         0.34701
LJ         -0.982271        -1.83203        -2.15113
LJ          -1.40059         2.22198         1.26849
LJ          0.649191        -2.26994       -0.666431
LJ         -0.790009        -2.16008          0.3373
LJ          0.692487        0.874908        0.355641
LJ          -1.83777         1.20236      -0.0346996
LJ           2.53941        0.405984        0.118862
LJ          -1.60396         1.66178          2.1152
LJ         -0.764258         1.42757         1.11984
LJ           1.02866        -1.38247       -0.595666
LJ          -1.26461         2.05125         0.18093
LJ         -0.879083       -0.677006        -0.23215
LJ          0.761366        -1.14795         2.51304
LJ           1.81742        -2.38263         0.49667
LJ         -0.881072        -1.38223         2.09224
LJ           1.63844        0.852894       0.0018535
LJ          -2.33064        -2.41963        -1.36058
LJ           2.30384        -1.00713         1.79419
LJ          0.776976         0.64841        -1.74828
LJ          0.606541         1.83865         -1.1724
LJ          -1.93291        -1.65814        -2.53877
LJ          0.714965        -2.49961        -1.92103
LJ         -0.564603        -2.32141         1.62736
LJ           1.68956        -2.07723         2.02818
LJ         -0.280812         2.52769        -1.75506
LJ          0.801054         2.19782         1.87465
LJ          0.701514         2.46495        0.500962
LJ            0.4988         1.75008       -0.207212
LJ          0.456878       -0.256442       -0.320646
LJ          0.734063        0.276387         1.38115
LJ           2.36257          1.1791         2.27576
LJ           1.78764        0.361997        0.955063
LJ          -2.26282        -0.15958        -1.93467
LJ          -1.82914        -2.29561        0.532747
LJ          0.260765          1.7292        -2.16321
LJ           1.11162       -0.211529        0.480565
LJ          -1.32386        -2.47178         2.24041
LJ         -0.321958       -0.203893         -1.1334
LJ          -2.14238         1.65032         -1.7097
LJ        -0.0735899        -1.37828       -0.607759
LJ          -1.11102        -1.36708         1.04488
LJ           2.55867         1.16476       -0.740677
LJ         -0.965672         1.40206        -2.16728
LJ           2.04156        0.109722         2.33376
LJ          -1.33448        -1.99532       -0.713451
LJ          -1.56671       -0.374687        -1.03954
LJ          0.184915        -1.31558         1.60069
LJ           1.30212          -1.508        -1.67565
LJ          -1.69516        0.734765        -2.34594
LJ         -0.682537        0.317994         -2.0303
LJ          -2.48595         1.62156        0.736186
LJ           1.47466         1.64497        0.824072
LJ          -1.79455       -0.426935        0.159601
LJ          0.883458       0.0267645         2.43852
LJ          -1.36394        0.678769        -1.37405
LJ          0.240484        0.863027         2.21847
LJ          -1.42982       -0.906558        -2.10262
LJ          -1.32999       -0.361158         2.07638
LJ          -2.13178        -1.40134        0.556475
LJ           1.94972       -0.963769       -0.973902
LJ         -0.282749        0.402987        0.678343
LJ          -2.14158       -0.168778         1.41154
LJ          0.201692        -1.37091        -1.81014
LJ          0.115823       -0.656117        0.584314
LJ           1.53316         1.77077        -2.31074
LJ           2.28964        0.800296         -1.8532
LJ          -1.15195         1.70695       -0.754012
LJ           1.93994        -1.53137         1.01579
LJ           2.29092       0.0935964          -1.009
LJ           1.94011        -2.43364        -1.99138
LJ           0.41282         1.34266         1.12185
LJ          -1.07235        0.467309       -0.320594
LJ         -0.360586         1.83098         1.96986
LJ         -0.183807        0.958301        -0.20501
LJ          -1.85246        -1.18883         1.65945
LJ           1.38654         1.15302         2.00676
LJ         -0.292931         2.37154       -0.624912
LJ          -2.20394         2.35189       -0.403602
LJ         -0.873768        -1.21722        -1.25464
LJ          -2.25235        -2.10368         1.57578
LJ           1.54262       -0.220868       -0.400535
LJ          0.172815        -1.68704        0.377537
LJ         -0.908911        0.720906         1.80044
LJ         -0.181429        0.731495         -1.3144
LJ        -0.0734259        -1.80737          2.4511
LJ         -0.439196       -0.618167        -2.37443
LJ            2.1288         -1.4468        -2.32113
LJ          0.954161        -1.92948         1.18846
LJ          -2.17459        -1.45232       -0.438692
LJ          -1.42804        0.483969        0.775539
LJ          -2.33557        -1.37072         -1.4701
LJ          -2.26743           2.416         2.53301
LJ         -0.812482       -0.383698         1.20955
LJ           1.70219         2.00078        -0.21737
LJ        -0.0107993        -0.29089         1.92352
