108
#Comment!
LJ         -0.788291         -1.8517        -2.54299
LJ           0.21206         1.27817        -1.86222
LJ           1.15995         0.65836         2.42692
LJ          -1.11675         2.32183         2.05482
LJ          -1.00037       -0.954594       -0.141493
LJ          -1.29705         1.28677         2.50231
LJ          0.258396        0.325648         1.93952
LJ          -2.41115        -0.58966       -0.670152
LJ           1.49486        0.834628     -0.00671581
LJ          -2.15748         1.10015         0.41683
LJ          0.477377        -2.35663       -0.215135
LJ           1.04958        0.707323        -1.05442
LJ          0.117115        -1.84521        -1.80657
LJ          0.328567       -0.704454         1.28071
LJ          0.324235        -0.21447       -0.794623
LJ          -1.40489         1.38058         1.44473
LJ           -2.1226        -0.26193        -2.19831
LJ           1.52031         1.62496        0.741666
LJ         -0.311748       -0.341122        -1.72786
LJ           2.45508         1.95449        0.880278
LJ          -2.35354        -1.20492        -1.75631
LJ          0.898431         1.02018         1.46088
LJ          -1.74011       0.0976462       -0.156501
LJ         -0.375756         1.87915       0.0136704
LJ         -0.391146        -1.24539        0.848152
LJ           1.87436         2.24445       0.0270052
LJ          -1.33711         1.66807        -0.33084
LJ          -1.81134        -1.53816         2.17794
LJ           1.01567        -2.48211        0.734178
LJ          -1.23306        -1.78912        -1.53242
LJ          0.122955        -2.24044        0.723618
LJ           2.01167        0.142247       -0.943927
LJ          -2.32783        -2.48964         1.66531
LJ          0.763358        -1.17071       -0.800029
LJ             2.185          0.1759         2.40603
LJ          -0.42753         1.62977         1.15366
LJ           0.58841       -0.934335        -1.82148
LJ          0.531307         2.21185         1.60013
LJ           2.39695        -1.95696       -0.079998
LJ          -2.15201        0.385484        -1.22232
LJ           1.55842       -0.333781        -1.89067
LJ          -1.47938         1.39692        -1.52129
LJ          -2.18372         2.20165        -2.27149
LJ         -0.525491        0.550632        -2.51168
LJ          -1.11555       -0.840959        -2.32156
LJ         -0.116941         1.46294         2.16378
LJ         -0.746739         2.01302        -2.06158
LJ          -2.26801        0.574067         1.65832
LJ           1.88994        -1.29778       -0.891486
LJ           1.86393         2.26374         1.77783
LJ         -0.280931       -0.180358         0.25787
LJ          0.726732         -1.6762         1.41971
LJ          0.533977        0.346757        -2.00863
LJ           1.92709        0.729175        -1.82482
LJ          0.901029         1.82417       -0.281275
LJ          -1.58295        -2.49993       -0.781058
LJ         -0.233212        -1.29052         -1.0144
LJ           2.28731         0.36526        0.216953
LJ          -1.00924       -0.419814          1.2131
LJ         -0.717763       -0.193314       -0.768255
LJ           1.93497       -0.800515        0.167811
LJ          0.513739         1.58041        0.780447
LJ          -2.41404         1.53791         2.06193
LJ         -0.420162        -2.17752         1.56844
LJ           2.52874        -2.14681        -1.44745
LJ         -0.652652         2.55006        -1.20986
LJ          0.836031         2.02294        -2.41121
LJ        -0.0932677         1.72896       -0.976311
LJ           1.69415        -2.54181        -2.13623
LJ          -1.26198        0.339227        -1.81646
LJ          -1.04512        0.836742       -0.767669
LJ          -2.05598         2.27231       0.0449225
LJ          0.815678         -0.9624        0.238024
LJ           1.03895         1.92601        -1.39425
LJ           1.98057        -1.93967         1.00964
LJ           2.20337         1.69831        -1.65008
LJ           1.70313         1.34535       -0.901856
LJ          -1.46859        -1.68308         1.05832
LJ          -2.08075        -1.21516        0.287631
LJ           2.15304       -0.162986          1.3357
LJ          -1.87933       -0.565448         1.92236
LJ         -0.971988         0.92758        0.387455
LJ          0.958229       -0.962552         2.22247
LJ           1.54607        -0.97318          1.1311
LJ           1.34117        -1.83953       -0.132865
LJ          -1.51497       -0.586514        -1.35788
LJ           1.72454         1.51613         2.39596
LJ          0.883111        -1.98042        -2.39376
LJ           1.30576       -0.108035        -0.31845
LJ          -1.98764        -1.47591       -0.738563
LJ         0.0915721        -2.38291         2.42341
LJ         0.0844896        0.614024        0.860435
LJ           1.20872        0.250906        0.804333
LJ          -2.20535        0.844273        -2.17937
LJ         -0.494234        -2.00038       -0.247392
LJ           1.91641        0.897465         1.57166
LJ          -2.27861         1.79635       -0.897649
LJ           2.55192        -1.95157        -2.51303
LJ          0.465266        0.643296       -0.180087
LJ       -0.00788147        -1.12593         2.21908
LJ           2.35866       -0.833337         2.32526
LJ           1.72605        -1.28172        -2.03359
LJ         -0.197546        0.577514        -1.17474
LJ          -2.49011        -1.19274         1.30347
LJ          -1.39139        0.330481         2.08222
LJ           1.78474        -1.69816         2.02324
LJ           1.05245        -2.13747        -1.14078
LJ          -1.85739       0.0645986        0.814131
