108
#Comment!
LJ           2.44295        -2.54537         2.53523
LJ           -1.7105        -1.90586        -2.55629
LJ          -2.48948         -1.6898        -1.80244
LJ          -1.80031         2.50378        -1.68364
LJ         -0.934223         2.35227         2.45344
LJ         -0.170875        -1.85027         -2.4726
LJ         -0.824593        -1.62706        -1.58195
LJ       -0.00037486         2.56486         -1.6587
LJ          0.907351         2.53799        -2.53116
LJ           1.63302        -1.82308        -2.50993
LJ          0.851307        -1.50111        -1.63364
LJ           1.88285        -2.42179        -1.72035
LJ           2.42064        -0.88467         2.51252
LJ          -1.60565       0.0449845         2.51177
LJ          -2.54303         0.14617        -1.79596
LJ          -1.83352       -0.947701         -1.7337
LJ          -1.15367       -0.816956         2.54465
LJ         0.0224354       -0.095378         2.46806
LJ         -0.820953       0.0679111        -1.75694
LJ         0.0299192       -0.811258         -1.6667
LJ          0.870552       -0.945594        -2.54746
LJ           1.81473        0.128848        -2.53037
LJ          0.739271        0.218163        -1.62835
LJ           1.69883       -0.806449        -1.68299
LJ          -2.56228        0.844556         2.54591
LJ          -1.77015         1.78212         2.52001
LJ          -2.54779         1.60605        -1.76004
LJ          -1.75432        0.941659        -1.68517
LJ         -0.673554        0.977789         2.31072
LJ          0.173067         1.76876         2.40459
LJ         -0.880717         1.63719          -1.646
LJ        -0.0932054        0.923829         -1.8596
LJ          0.770384        0.927239        -2.35691
LJ           1.76467         1.67558        -2.49242
LJ          0.926771         1.78961        -1.61417
LJ           1.76099        0.881618        -1.73224
LJ          -2.46428         -2.4045       -0.826855
LJ          -1.48514        -1.71026       -0.741387
LJ           2.48783        -1.79328       -0.019856
LJ          -1.58809         2.52042     -0.00827856
LJ         -0.808349        -2.54069       -0.800919
LJ        -0.0736987        -1.73598       -0.950981
LJ         -0.855535        -1.77084        0.136688
LJ         -0.101612         2.41514      -0.0298707
LJ          0.849368         2.53367       -0.869039
LJ           1.57218        -1.81227       -0.806233
LJ          0.732829        -1.77316        0.146484
LJ           1.64071        -2.50639      -0.0573647
LJ          -2.46122       -0.922525       -0.793945
LJ          -1.95755        0.201669       -0.808565
LJ           2.47344       0.0362947      -0.0420873
LJ          -1.64017        -0.87844      -0.0382537
LJ         -0.903401       -0.713701       -0.811687
LJ        -0.0484781     -0.00889135       -0.746124
LJ         -0.842922      -0.0154072      -0.0582465
LJ       -0.00920515       -0.690337      -0.0150689
LJ          0.967376        -0.83682       -0.758508
LJ           1.73883       -0.186739       -0.828377
LJ           0.86266      -0.0581215      -0.0901515
LJ           1.73285        -1.04313       -0.145047
LJ          -2.52264         1.07983       -0.864238
LJ          -1.72996          1.7668       -0.989542
LJ          -2.55227         1.81878        0.138106
LJ          -1.77133        0.931366       0.0970981
LJ          -0.80336        0.752336       -0.815045
LJ         -0.116841         1.66953       -0.983065
LJ         -0.865942         1.73186       -0.164462
LJ         -0.133002        0.959641       -0.037808
LJ          0.666436         0.92777       -0.840662
LJ           1.73889          1.9198       -0.898447
LJ            0.6939           1.777      -0.0591659
LJ           1.62345        0.794428        0.069942
LJ           2.53084         2.51042        0.895705
LJ           -1.5863        -1.69859         0.92901
LJ            2.3574        -1.70189         1.72212
LJ          -1.83687         2.49585         1.63962
LJ         -0.834996         2.49135        0.748249
LJ         0.0465828        -1.75239        0.871231
LJ         -0.918219        -1.73256          1.7354
LJ          0.125007        -2.45801         1.90265
LJ           1.07772         2.50818        0.976666
LJ           1.72111        -1.80589        0.859945
LJ          0.928547        -1.58712         1.63273
LJ            1.6671        -2.52738          1.8188
LJ           2.47746       -0.579282        0.885309
LJ           -1.8111       0.0187014        0.868829
LJ           -2.4352      -0.0107662         1.95991
LJ          -1.79431       -0.814126         1.69902
LJ         -0.678841       -0.871639        0.802373
LJ         0.0334919     -0.00113688         0.81789
LJ         -0.639576       0.0953343         1.73813
LJ         0.0174302       -0.862235         1.58078
LJ          0.802021       -0.948749        0.812645
LJ           1.59765      -0.0176369        0.730355
LJ          0.823114       -0.162564         1.78311
LJ           1.64483       -0.884228         1.68667
LJ           2.38471        0.945168         0.85647
LJ          -1.79659         1.72821        0.777637
LJ          -2.52872         1.68794         1.80072
LJ          -1.78951        0.792489         1.66621
LJ         -0.854988        0.686048        0.851899
LJ        -0.0201548         1.63909        0.896763
LJ         -0.823626          1.7344           1.661
LJ         0.0513375        0.808163         1.56235
LJ          0.837374        0.748542        0.815493
LJ           1.77905         1.78001        0.800889
LJ          0.876755         1.61829         1.69382
LJ           1.67118         1.03852         1.60981
