108
#Comment!
LJ          -2.51701        -2.53232         2.41925
LJ          -1.76685        -1.65274         2.44751
LJ          -2.48639        -1.64647        -1.84496
LJ          -1.74428          2.5214        -1.71186
LJ           -0.8734          2.5541        -2.47609
LJ        0.00123806        -2.01058        -2.45716
LJ          -1.16069        -1.48598        -1.75967
LJ         -0.040185         2.28105        -1.79218
LJ          0.805763         2.55511         2.46671
LJ           1.75935        -1.72085         2.56429
LJ          0.733712        -1.91195        -1.78581
LJ           1.90249         2.42978        -1.70149
LJ           2.48744       -0.850459         2.55106
LJ          -1.71013      0.00159154          -2.559
LJ           2.49114       0.0994696        -1.89054
LJ          -1.69752       -0.598696        -1.65479
LJ          -1.09567       -0.689805        -2.45432
LJ          -0.15511       -0.265216        -2.50867
LJ         -0.861181       0.0367305        -1.84025
LJ         -0.122469        -1.18185        -1.94459
LJ          0.909982        -1.17433        -2.49631
LJ           1.68598      -0.0242954         2.53138
LJ          0.892206        0.131715        -1.86042
LJ           1.69628       -0.631563        -1.84518
LJ           2.56105        0.864384         2.50756
LJ          -1.69712         1.95021          2.5175
LJ          -2.39458         1.57118        -1.65381
LJ          -1.68626         0.86201        -1.83653
LJ         -0.629769        0.996226          2.4975
LJ          0.146385         1.73843         2.34205
LJ          -1.10581         1.64207        -1.77961
LJ          0.127647         1.06728        -1.84161
LJ          0.835641         0.91418          2.4627
LJ           1.76882         1.86733         2.34366
LJ          0.981008         1.92627        -1.88859
LJ           1.61687         1.00932        -1.66276
LJ           2.48547         2.42586       -0.744232
LJ          -1.35596        -1.70991       -0.805241
LJ          -2.39503        -1.88335         -0.1589
LJ          -1.66487         2.38734       -0.035255
LJ         -0.849376        -2.55696        -1.13086
LJ          0.175403        -1.63064       -0.834295
LJ         -0.669503        -1.93061       -0.106961
LJ         -0.141865         2.35335       0.0282934
LJ          0.740624        -2.46221       -0.916867
LJ           1.95983        -1.80722        -1.06994
LJ          0.775509        -1.91592        0.239324
LJ           1.65111        -2.41651       -0.120248
LJ          -2.54768        -0.83646       -0.760128
LJ          -1.90607        0.109444       -0.811302
LJ           -2.4846        0.138366       0.0144574
LJ          -1.80789       -0.873904         0.10477
LJ         -0.613121       -0.842061       -0.609444
LJ        -0.0780618        0.267982       -0.977718
LJ          -0.69365        0.082753        0.105286
LJ        -0.0278166       -0.732716        0.220866
LJ          0.793683       -0.900141       -0.631974
LJ           1.93096      -0.0700157       -0.727903
LJ          0.606121    -0.000386046       0.0357661
LJ           1.81916        -1.26569       -0.196243
LJ          -2.55508         1.02401       -0.806106
LJ          -1.59579         1.75076       -0.764661
LJ            2.5101         1.64447      -0.0711155
LJ          -1.87445         1.09342         0.27445
LJ          -1.08569        0.812547       -0.840846
LJ          0.104023         1.71281       -0.989884
LJ         -0.775771         1.53146      -0.0509055
LJ          0.140388         0.92435      -0.0854071
LJ          0.912583        0.937155       -0.835067
LJ           1.71445         1.73423       -0.823155
LJ          0.789568         1.97372      -0.0465249
LJ           1.64253        0.821071       -0.115545
LJ            2.4435         2.35302        0.713503
LJ          -1.41058        -1.77386         0.68382
LJ           2.50785        -1.60667         1.65407
LJ          -2.05283        -2.41806         1.39196
LJ         -0.670726         2.44887         1.12068
LJ          0.146025        -1.57698        0.942285
LJ          -1.00623         -1.8749         1.85083
LJ         0.0553012        -2.36131          1.7179
LJ          0.830135         2.33196        0.990992
LJ           1.98099        -1.64625        0.806731
LJ          0.993266        -1.81679         1.75956
LJ           1.69861        -2.56309         1.59979
LJ           2.51705       -0.693514        0.946867
LJ          -1.68699       0.0612834        0.740067
LJ           2.53335       0.0681216          1.7579
LJ          -1.76696       -0.727172         1.80009
LJ         -0.732106        -1.06587         1.01696
LJ         0.0655874       -0.136361         1.06814
LJ         -0.865706        0.188359          1.9659
LJ          0.154941        -0.98772         1.86011
LJ           1.09588        -1.06897        0.734589
LJ           1.52848        -0.10276        0.585699
LJ          0.775507       -0.018817         1.97001
LJ           1.65383       -0.787363          1.8519
LJ           2.32398        0.823701          0.7808
LJ          -1.61077         1.88961        0.862365
LJ           2.44756          1.5939         1.51837
LJ          -1.84491         1.04613         1.58057
LJ         -0.880829        0.795104        0.827086
LJ          0.134086         1.40645        0.809641
LJ         -0.788021         1.55068         1.57776
LJ          0.196322        0.885127         1.64392
LJ           1.00803        0.760374         1.01856
LJ           1.59292         1.63375        0.583524
LJ           0.85053          1.5563         1.64104
LJ           1.65629         0.87624          1.8276
