108
#Comment!
LJ          -1.06226         1.82854         0.73559
LJ           1.77996         2.23239        -1.51754
LJ          -1.67802        0.721814        -2.34832
LJ         -0.442748         -2.4649        0.408204
LJ         -0.408492         -1.1164        0.582357
LJ          -2.35703         1.89924        -2.22191
LJ          -2.49194       -0.547171         1.11563
LJ          0.484129       -0.494389          1.0772
LJ          -2.25605         2.54458        0.340987
LJ           1.05162        0.702127         1.29034
LJ           1.86353       -0.884635       -0.416304
LJ          -2.40302       -0.946142         2.05672
LJ          -2.05686        -1.59336         1.21383
LJ            1.3224       -0.361759        0.423768
LJ           2.55725       -0.347387       0.0067603
LJ          0.704042          2.1148         0.45051
LJ         -0.218611        -1.10587         1.61003
LJ          0.960926        0.762963         2.33441
LJ           1.65508       -0.740771        -1.66014
LJ          -1.80271         1.31361         1.94131
LJ          -1.00204      -0.0822666        -2.46573
LJ          0.492736        0.776903         -1.1343
LJ          -2.39431         1.24361         1.01136
LJ          -2.52798         -2.2559        -1.98461
LJ           0.58657       -0.233556        -1.94605
LJ          -2.32631        -1.42805       -0.320244
LJ          0.344219        -1.31726        -1.84446
LJ          0.470065       -0.683029       0.0354947
LJ           1.99783        0.181793       -0.665213
LJ         -0.429943       -0.932136        -2.45346
LJ         -0.460057        -2.04237        -1.99682
LJ          -1.98264         1.52225        -1.18408
LJ         -0.168871         -2.1473         1.33077
LJ          -2.44666        0.822394       -0.412751
LJ         -0.859821        -1.93156         2.19229
LJ           1.94837         -2.4245       0.0542632
LJ          -1.69529        -1.45971        -2.40791
LJ         -0.199463         2.05722        -2.21367
LJ          -1.85894       -0.354082        -0.79524
LJ          -1.50722        -0.82099        0.782752
LJ           1.72036         1.18471          -1.048
LJ          -1.19318         1.94118        -2.01724
LJ          -1.03446         2.19652         1.93981
LJ         -0.610314       -0.112945        0.383559
LJ          -0.91015        0.947229         1.63245
LJ           1.64572         1.47233        -2.24113
LJ      -0.000923821        0.183574         2.49055
LJ         -0.844009       -0.860094       -0.433652
LJ           1.18539        -1.33417        0.140878
LJ          0.547315        -1.03468       -0.841443
LJ          0.010166        0.361228         1.45454
LJ          0.536623        -1.98536         0.54926
LJ           2.20511         0.50284        0.394919
LJ         -0.759783         1.48715        -1.07195
LJ          -1.82846         1.36045        0.188383
LJ           2.24201         1.77737       -0.244445
LJ          0.748795         2.47629        -2.27843
LJ          -1.53257        0.607158       -0.560772
LJ           1.00445         1.68034         1.70036
LJ          0.466879          1.2547        -2.12146
LJ          -1.10318        -1.82134         0.11875
LJ            1.1502        -2.45415         1.20218
LJ         -0.429253        -2.37231       -0.972413
LJ          -1.97696         2.19877         1.51883
LJ          -1.32779       -0.791237        -1.61288
LJ           1.81771         2.42732         2.51012
LJ           2.25172         1.57395         1.85653
LJ          -2.36139        0.318571        -1.46939
LJ          0.243251        -1.90112         2.19208
LJ           1.15941         1.78923       -0.453803
LJ           2.34519        0.773867        -2.39444
LJ          -1.22578         2.31548       -0.195978
LJ          0.997561        -2.29207       -0.359279
LJ          -2.28407        -2.07762         2.12307
LJ        -0.0634168        -1.64075       -0.262183
LJ         -0.472555        0.801885        -1.85607
LJ          -2.26536         2.45467       -0.730763
LJ           1.10018        -1.04427         2.43712
LJ            1.2137        0.607169       -0.281353
LJ          -1.27156        -2.21527         1.20609
LJ           -1.2421       -0.961719         1.89579
LJ        -0.0337022       0.0844106        -0.54262
LJ           1.97465        -1.41156         -2.2754
LJ           1.48514       -0.507467         1.59036
LJ           1.38523        0.382159          -1.986
LJ          0.112804         1.37597       -0.375143
LJ           2.00054        0.380941         1.36513
LJ           2.18186        -2.50986         1.34063
LJ           1.93347        -0.37614         2.50418
LJ         -0.797122        0.888945        0.171342
LJ          -1.25968        0.168196        -1.47955
LJ          0.174232         2.27907          1.9688
LJ         -0.152891         1.53853         1.12692
LJ          0.413426        0.542388        0.391318
LJ           1.12977        -2.13625        -1.43328
LJ          -1.78886        0.423459        0.598745
LJ         -0.361559       -0.686896        -1.37494
LJ           1.91652        -1.77556       -0.873287
LJ           1.60964         1.37703        0.711466
LJ         -0.153265         1.28601         2.21795
LJ           1.68227        -1.66662         1.71211
LJ          -2.06172       -0.368302        -2.39745
LJ          0.529669         2.08416         -1.3136
LJ          -1.41484        -1.75481       -0.967945
LJ          -1.58646       0.0606772         1.63859
LJ          -2.40857          -1.009         -1.4532
LJ           2.28527        -1.34453        0.550088
LJ          0.935692       -0.154218        -1.01352
