108
#Comment!
LJ           2.49302        -2.50195         2.44986
LJ          -1.78658        -1.79374         2.43801
LJ           -2.4654        -1.70467        -1.53409
LJ           -1.7784        -2.50679        -1.86923
LJ          -1.02551         2.43954         2.49531
LJ        -0.0827924         -1.9695        -2.52121
LJ         -0.897282        -1.52785        -1.66232
LJ          0.108948         2.35709        -1.65531
LJ          0.974208         2.44685        -2.37029
LJ           1.77417        -1.67123         2.50838
LJ          0.935682        -1.65286        -1.61126
LJ           2.03171        -2.50771        -1.54871
LJ           2.49656       -0.818024        -2.49695
LJ          -1.83134       0.0565771         2.46255
LJ          -2.49026        0.121196        -1.73496
LJ          -1.65192       -0.649476         -1.3598
LJ          -1.15712       -0.907001        -2.50399
LJ         -0.116989       -0.224208        -2.54315
LJ         -0.818926       0.0981234        -1.78685
LJ        -0.0601448       -0.944842        -1.74661
LJ           1.00642        -1.09639        -2.45152
LJ           1.66659        0.077943         2.53659
LJ          0.758406      -0.0172416         -1.5761
LJ           1.77086       -0.820058        -1.71641
LJ          -2.52646         1.04778         2.38661
LJ          -1.77207         1.84643         2.51651
LJ          -2.53538         1.69513        -1.79144
LJ          -1.69763        0.946985        -1.91108
LJ         -0.749727         1.05318         2.56106
LJ         0.0299652         1.82739         2.51635
LJ         -0.762721          1.6592        -1.77567
LJ         0.0245754        0.851935         -1.8853
LJ          0.851684        0.842236        -2.47455
LJ           1.82976         1.84879         2.44777
LJ          0.932022         1.74048        -1.53308
LJ           1.82598        0.786496        -1.74933
LJ          -2.43628         2.43705       -0.678277
LJ          -1.55297        -1.83717       -0.621835
LJ           2.49184         -1.7161      -0.0718916
LJ          -1.60475         2.38452       -0.122667
LJ         -0.761452         2.44999       -0.947069
LJ         0.0535661        -1.70037       -0.883869
LJ         -0.675719        -1.82206       0.0820905
LJ         -0.225522         2.37993      -0.0244052
LJ          0.861607        -2.47651       -0.894508
LJ           1.77968        -1.63585       -0.892924
LJ          0.742586        -1.99204        0.114997
LJ           1.63351        -2.35964       -0.143355
LJ          -2.54857           -0.86       -0.767501
LJ          -1.82094        0.177136        -0.73369
LJ           2.44383      -0.0520249        0.046755
LJ          -1.72765       -0.877504       0.0356967
LJ         -0.655489       -0.811245       -0.833336
LJ        -0.0056425        0.242863       -0.920575
LJ         -0.750422       -0.124333      -0.0822431
LJ         0.0429148       -0.785342        0.183076
LJ          0.821765       -0.841247       -0.739291
LJ           1.75285       -0.114783       -0.862689
LJ          0.753041       0.0257619        -0.05981
LJ           1.62109       -0.933152       -0.102272
LJ           -2.4426        0.978001       -0.911604
LJ          -1.67096          1.7339        -1.07793
LJ          -2.52553         1.59242       0.0792273
LJ          -1.91025        0.810126       0.0949027
LJ          -1.01074        0.747757       -0.821562
LJ         -0.107508         1.53942       -0.833804
LJ         -0.796249         1.50512      -0.0366355
LJ         0.0847581        0.948288       0.0356584
LJ          0.844106         1.04596       -0.720205
LJ           1.79568         1.65849       -0.964757
LJ          0.851247         1.93808       0.0277915
LJ            1.7603        0.866486       -0.134187
LJ           2.38531         -2.4999        0.840974
LJ          -1.51007        -1.67302        0.758919
LJ          -2.55825        -1.44158         1.76606
LJ          -2.02702         2.52354         1.55428
LJ         -0.701275        -2.48681         1.01627
LJ          0.136012        -1.80027        0.967557
LJ         -0.962852        -1.67774         1.73612
LJ         0.0575333        -2.38997         1.70677
LJ           1.09393        -2.55765         0.91886
LJ           1.72241        -1.46742        0.776486
LJ          0.863666        -1.65994         1.66926
LJ           1.52037        -2.46371         1.85417
LJ          -2.56423         -0.5836         1.09384
LJ          -1.78644       0.0370643        0.868052
LJ           2.53806        0.116739         1.85457
LJ          -1.66698       -0.901123         1.52242
LJ         -0.779101       -0.904008        0.923454
LJ          0.110395       -0.114298         1.05526
LJ         -0.854987        0.199625         2.06649
LJ          0.154915       -0.936833         1.62962
LJ          0.973357        -0.81306        0.839111
LJ             1.598       -0.113437        0.551509
LJ          0.701469       -0.117518         1.88562
LJ           1.71968       -0.794691         1.74219
LJ           2.45869        0.702452        0.710418
LJ          -1.46175         1.94967        0.804636
LJ           2.54916         1.60185         1.45561
LJ          -1.49884         0.88654         1.61012
LJ         -0.879202        0.748464        0.699676
LJ          0.128451         1.67075        0.925915
LJ         -0.803229         1.66958         1.46937
LJ         0.0547901        0.901392         1.64135
LJ          0.815422        0.633171        0.934028
LJ           1.83066         1.67826         0.78833
LJ          0.972564          1.6624         1.72396
LJ           1.71447        0.763778          1.5917
