108
#Comment!
LJ          -2.03878         1.83781       -0.641692
LJ          0.942693         1.47738        0.306233
LJ         -0.818296       -0.149861         1.66428
LJ           2.29547       -0.706174         1.54397
LJ           1.43537        -2.22794        0.107076
LJ           2.55847        -1.03584       -0.727978
LJ           2.50206        -1.67795         1.30525
LJ          -1.35125         1.03966        0.632428
LJ           1.95215         2.32312        -1.87663
LJ           1.87424        -2.48226       -0.841442
LJ           2.32202         1.64738        -1.28756
LJ           1.16436       -0.590521         1.54966
LJ           -2.5402        0.676201        -2.06337
LJ          0.557912         2.10114        -1.61977
LJ         -0.201136       -0.703499       -0.560622
LJ          -1.23121         2.08563        -1.42199
LJ            2.0755       -0.512737         0.39505
LJ          0.342631         1.03316        -1.08284
LJ           2.16682         1.10518         2.27591
LJ         -0.455053        0.306382        0.852991
LJ          -1.80335         1.46468          2.4711
LJ           1.29349        0.650881        -2.41778
LJ           1.78589      -0.0997415       -0.553868
LJ            1.0593         2.55383        -2.38281
LJ           1.47255       -0.572688         2.53302
LJ         -0.997904         2.54149       -0.432319
LJ         -0.680432          1.4852         1.44396
LJ           1.36391        0.307362         0.45557
LJ          -2.22336        0.263293         0.27298
LJ            1.6516         1.24396         1.10396
LJ         -0.322574        0.319585       -0.817842
LJ            1.2922        -1.80321        -1.95138
LJ          -1.14184         -1.0335         1.12165
LJ          -2.44962          1.3434         0.41714
LJ           2.47575         1.68444          1.5314
LJ           0.56519       -0.398329        -1.83381
LJ          -2.41412         2.48351         0.22705
LJ           2.21311        -1.47179        -1.62362
LJ          -2.16725         -1.9126        -2.26868
LJ            -1.871        -1.75971        0.747506
LJ          -2.12703        0.848345         1.52086
LJ         -0.624803         -2.1031        0.569647
LJ           2.33742        0.795404       -0.444783
LJ          -2.01501       -0.733281        0.255143
LJ          -0.49297         2.00088        0.552257
LJ           0.67574        -1.97754        -1.00329
LJ           1.53299          -1.352       -0.623603
LJ          0.136162        -1.29238         -1.3422
LJ           1.45304       -0.674303        -1.50837
LJ          0.186168        -1.85995       -0.117894
LJ           -1.1155        -0.17978        0.160766
LJ          0.309933        0.234497        0.237013
LJ         -0.808237        0.550347         2.39414
LJ          -1.77964       -0.812517        -1.68228
LJ          0.636702        -1.57707        0.770274
LJ          0.940187       -0.632993        0.373612
LJ           2.23793        -1.66846         0.28119
LJ          0.216186         1.65457         2.51834
LJ           2.50428         2.53341         2.19333
LJ           2.48768       0.0986294         2.21371
LJ          -0.63134       -0.571978        -1.78607
LJ         -0.239973        -2.42457         -1.2787
LJ         0.0691284       -0.483685         1.15455
LJ           1.48304         2.54049         1.11281
LJ         0.0115272         1.24098       0.0325299
LJ         -0.498985       -0.999884         2.41885
LJ          -1.12792        -1.78738        -2.03875
LJ          -1.79392         1.10415        -1.43024
LJ          0.873034         2.24529       -0.525611
LJ          0.287005         1.14643            1.13
LJ         -0.742771         2.41492         1.78162
LJ            1.8048         1.87968       -0.168227
LJ           1.35616         1.40345        -1.71221
LJ         0.0546441        -1.38999         1.69162
LJ           2.32847       -0.373987        -1.94304
LJ          -1.40046       -0.611845       -0.663636
LJ          -0.72532         -1.5338       -0.932591
LJ          -1.65288        -2.26497         1.62584
LJ           1.09955        0.769541       -0.411443
LJ          0.110338       -0.198653         2.19228
LJ          -1.49228         -0.1712         2.45345
LJ           1.77541        0.544297        -1.37999
LJ         -0.177348         1.85706       -0.713924
LJ          -1.30219         0.76354       -0.520711
LJ          -2.19314         2.35792        -1.85084
LJ          -1.69257         1.76568         1.34968
LJ           2.30792         0.28263         1.15789
LJ          0.474049        -2.41017         1.55918
LJ         -0.367519       -0.985361        0.378865
LJ           0.43743        -1.19981        -2.47873
LJ          -2.41926      -0.0567415        -0.98765
LJ            1.2124         1.74036         1.78171
LJ           0.46151         2.45558        0.551303
LJ          -1.46741        -1.41483         2.13769
LJ         -0.268377         -2.0539         2.52952
LJ          -1.78587       -0.145159         1.17934
LJ          -1.48138        0.143561        -1.47226
LJ         -0.801361         1.13407        -1.44858
LJ          -1.46014         2.35675        0.552147
LJ         -0.786936         1.73007        -2.46657
LJ          -1.75758        -2.21649        -1.10564
LJ          -1.47737         2.43226        -2.54616
LJ         0.0173836        0.733733        -1.97295
LJ           2.04635        -1.68769         2.31361
LJ           0.63626       -0.141746       -0.807097
LJ          -1.54507        -1.63886       -0.218326
LJ           1.48789        0.274018         1.71643
LJ          -2.30834       -0.897214          2.3631
