108
#Comment!
LJ           2.55475         -2.4232        -2.55386
LJ           -1.7313        -1.67685         2.48891
LJ           2.50278        -1.68912        -1.71038
LJ          -1.71481        -2.36703        -1.74144
LJ         -0.836562         2.54235          2.5273
LJ         0.0288179        -2.03163        -2.51661
LJ          -1.08533        -1.43279        -1.59672
LJ         0.0443608         2.24533        -1.65852
LJ          0.966501         2.31701        -2.48053
LJ           1.80092        -1.78086         2.51936
LJ           1.03191        -1.74934        -1.68732
LJ           1.92019         2.49383        -1.56782
LJ           2.42242       -0.800443         2.50701
LJ          -1.80778        0.120715          2.5081
LJ          -2.56105        0.155698        -1.88188
LJ          -1.63886       -0.556736        -1.56269
LJ          -1.10654       -0.863312        -2.44264
LJ        0.00336379       -0.215949        -2.45105
LJ          -0.82914      -0.0451128        -1.67265
LJ         -0.111854        -1.02763         -1.8763
LJ           1.02492        -1.05694        -2.46621
LJ           1.70896       0.0229551        -2.47577
LJ          0.780423        0.019916        -1.77464
LJ           1.63474       -0.707401        -1.73532
LJ           -2.4449            1.08         2.45628
LJ          -1.78137         1.86479        -2.55731
LJ          -2.49346         1.63533        -1.64665
LJ          -1.51767        0.879188         -1.8018
LJ         -0.659861         1.06783         -2.5607
LJ           0.10452         1.77334         2.49106
LJ         -0.802366         1.72287        -1.67557
LJ         0.0403853         1.07017        -1.72313
LJ            1.0241        0.842304        -2.53231
LJ           1.82827         1.82647         2.51883
LJ          0.879912         1.73886        -1.64949
LJ           1.76347        0.893479         -1.8242
LJ           2.45118         2.38773       -0.665571
LJ          -1.49289        -1.92592       -0.760165
LJ          -2.46375        -1.79183      -0.0942355
LJ          -1.78342         2.40084      -0.0443507
LJ         -0.657023        -2.47652        -1.03137
LJ          0.108172        -1.67416       -0.893626
LJ         -0.448958        -1.73233      -0.0267857
LJ         -0.277831         2.40864        0.128108
LJ          0.824277        -2.53169       -0.969505
LJ           1.76696        -1.68658        -0.96047
LJ          0.616525        -2.10596       0.0163003
LJ           1.73342        -2.34624      -0.0435492
LJ          -2.40585       -0.913314       -0.652893
LJ           -1.8324       0.0752824       -0.661994
LJ           2.48412       0.0677841     0.000303928
LJ          -1.53147        -0.96081      -0.0274232
LJ         -0.618558       -0.889226       -0.763546
LJ        -0.0593732        0.264532       -0.973444
LJ         -0.927332       -0.100643       -0.107769
LJ         0.0158914       -0.765976        0.243981
LJ           0.88282         -1.0464       -0.737918
LJ           1.92575       -0.185329        -0.87868
LJ          0.770996     -0.00804886      -0.0702049
LJ           1.63623       -0.921829       -0.118519
LJ          -2.40499        0.895449        -0.97148
LJ          -1.59373         1.69986       -0.818426
LJ            2.4262         1.68786        0.117794
LJ          -1.93164        0.988952      0.00707436
LJ          -1.08271        0.707651       -0.854811
LJ         0.0132112         1.68476       -0.793042
LJ         -0.794266          1.5511       -0.158616
LJ        -0.0461835        0.872447       0.0471934
LJ          0.761236        0.992357       -0.630003
LJ           1.57619         1.64746       -0.979871
LJ           0.89516         2.05595      -0.0382425
LJ           1.71108        0.823034       -0.240724
LJ             2.449         2.50597        0.846375
LJ          -1.41162        -1.73896         0.62849
LJ           2.48924        -1.58027         1.81001
LJ          -2.01726         2.53744         1.67822
LJ         -0.720133        -2.44483         1.09315
LJ          0.111713        -1.65615         0.91962
LJ         -0.923684        -1.69781         1.68737
LJ         0.0764386        -2.35336         1.75125
LJ          0.912526         2.46466        0.887314
LJ           1.93644        -1.51487        0.713419
LJ          0.980663        -1.85286         1.66195
LJ           1.71303         2.52616         1.72544
LJ            2.5306       -0.631824         1.02005
LJ          -1.69688      -0.0799419        0.887418
LJ           2.53653      0.00728729         1.87785
LJ          -1.67974       -0.939157           1.597
LJ         -0.718983       -0.841713        0.937635
LJ         0.0626289     -0.00999552        0.988467
LJ         -0.873224        0.233363         1.99354
LJ          0.141739       -0.868729         1.88714
LJ           1.04196       -0.991465        0.671599
LJ           1.69541       -0.162849        0.752164
LJ          0.789877     -0.00897299         1.94431
LJ           1.68551       -0.852425         1.67522
LJ             2.516        0.839311        0.907132
LJ          -1.46964         1.86566        0.770506
LJ           2.40933         1.72585          1.5797
LJ          -1.71186        0.975976         1.56199
LJ         -0.882783        0.663483        0.846387
LJ          0.253277         1.45793        0.876078
LJ         -0.873658         1.57168         1.56914
LJ         0.0028331        0.860876         1.62204
LJ           1.01574        0.683229        0.828472
LJ           1.61237         1.69419        0.666011
LJ          0.898431         1.53446         1.82981
LJ           1.73498        0.833753          1.7891
