108
#Comment!
LJ           1.68492        -1.07097        -1.10258
LJ           -2.2572       -0.409386       -0.775569
LJ          0.161928         2.38032         2.10401
LJ         -0.716119        -2.00452         2.41657
LJ         -0.591772         1.28701        -1.44925
LJ           2.35276      -0.0798176        -1.62204
LJ          -1.43964        -1.42012        -2.17653
LJ           2.32414        0.621076        0.562613
LJ           1.91713         1.40764         2.41605
LJ           1.61278        -2.44627      -0.0407064
LJ          -1.30232        -2.33323        0.534084
LJ         -0.548532        -1.00426         2.25839
LJ           -2.1831         -1.9497        -1.87539
LJ          0.372739        0.043515         1.06812
LJ          0.663581         2.26428       -0.230556
LJ           2.32172         2.37701         2.48052
LJ           1.82755        -2.25141        -1.90976
LJ         0.0184004        -1.03254        0.124958
LJ         -0.323321         2.25904        -1.01945
LJ          -1.36371         1.76642          1.1297
LJ         -0.604992       -0.168701         1.14794
LJ         -0.185379          1.4141         1.70211
LJ           1.34012       -0.195409        -1.34269
LJ          0.832529        -2.12134        -1.17606
LJ          -2.43136       -0.951248         -2.0839
LJ          0.541525         2.26717         1.14676
LJ          -2.33591         2.54505       0.0526515
LJ           1.14742        -2.06039         1.91047
LJ           1.83333        -2.49026         1.28525
LJ           2.44602           1.597       -0.159032
LJ          -2.13547        0.624724         1.53373
LJ           1.94058         0.54833         1.56891
LJ           2.49956          1.6666         1.14297
LJ         -0.413315        -1.94592        -1.52673
LJ          0.380483       -0.296811       -0.821738
LJ           1.02779        0.949295         1.54821
LJ          -1.74014         2.52721         2.54921
LJ         -0.394019         2.15831        -2.18213
LJ          0.879768       -0.200637        0.132494
LJ          -2.43829         1.84427          -1.829
LJ          -1.53608        0.569427        -1.40977
LJ          0.481225        0.619662        -1.85783
LJ           1.31817         1.48909      -0.0660553
LJ         -0.687424       -0.152692         -2.2777
LJ          -2.54404       -0.221624         1.24052
LJ         -0.540667        0.236447        -1.16666
LJ           2.01814        -1.60298         2.47344
LJ           1.28626         2.04154        -2.31352
LJ          0.935831        0.684239       -0.802707
LJ         -0.222131        -1.05269         1.30901
LJ         -0.420725       -0.906022         -1.6424
LJ         -0.586228        0.907948        -2.54629
LJ           1.15333        -1.91761        0.795755
LJ         -0.346097      -0.0266265         0.11013
LJ           2.38929        0.647115       -0.491624
LJ           1.22509         1.90522          1.8347
LJ           1.52823         1.68745        0.877713
LJ          -2.20535       -0.654389        0.326147
LJ          -1.08132       -0.563293       -0.378526
LJ            1.4629       -0.873745        -2.38458
LJ           1.53447         0.45142        -2.40387
LJ          -1.05162        0.867087          1.5554
LJ           1.50119         1.18937         -1.5604
LJ         -0.975766         1.94124         2.16616
LJ          -2.22034        -2.50239         1.30888
LJ          -2.15834         1.43525       -0.955929
LJ           0.63242       -0.301433        -2.15113
LJ           2.22702        -1.72101       -0.586121
LJ          0.546065          1.9084        -1.54022
LJ          0.675205          1.3304        -2.53177
LJ          -1.28789         1.34259       -0.412805
LJ          -1.13264        -1.18565        0.732159
LJ          -2.36766         2.42979       -0.937642
LJ         -0.288435        0.976608       -0.538102
LJ            2.1081        -1.83478        0.504938
LJ          0.659756        -1.17596        -1.51028
LJ           0.13094        -1.92402         1.67516
LJ          -2.49849        -1.39786         1.46104
LJ          -1.87391       0.0416866        -2.40562
LJ         0.0315973        -1.92949        0.538441
LJ           2.15433       -0.409238         2.14017
LJ          -1.51587       0.0297648        0.680545
LJ          -1.41956        -1.61753        -1.20375
LJ         -0.531552        0.944933        0.691349
LJ          0.110759        -1.57331        -0.71884
LJ          0.563159        -2.17948        -2.11038
LJ         -0.573658         2.48872         1.30152
LJ           0.80656        -1.00211         1.13373
LJ           1.90373       -0.599461      -0.0260762
LJ           1.71799         2.19541          -1.061
LJ          -1.67333       -0.898704         2.07291
LJ          -1.73082        0.332749       -0.350321
LJ          -1.27711        -1.81571         1.57167
LJ           1.11507        -1.50919       -0.158745
LJ          -1.31677         2.24252        -1.61806
LJ             1.527       -0.123459        0.979204
LJ          -0.45116         2.34753        0.099757
LJ          0.548379        -1.13747         2.27018
LJ          0.214403           0.467         2.08158
LJ          -1.44132       -0.503895        -1.51875
LJ           0.45443        0.845946        0.256089
LJ          -1.97563        -1.68491        0.499721
LJ          -1.76797        0.982743        0.466275
LJ          -1.33493         2.37534       -0.579765
LJ          -2.17266         1.72066           2.057
LJ         -0.955846        -1.63673       -0.223781
LJ          -1.68147         1.27517        -2.22973
LJ           1.04116       -0.168219         1.96443
