108
#Comment!
LJ          0.824439         1.11282        0.799525
LJ          -1.85053         1.86798        -1.12662
LJ         -0.315253       0.0186548         1.93543
LJ         -0.465031        -2.34363       0.0734981
LJ         -0.467421        -2.00554          1.1835
LJ          -1.57451         1.54814          2.2159
LJ         -0.988265        -1.36252        0.456795
LJ          0.259311        -0.80026         1.44803
LJ         -0.740557         1.96046        0.751054
LJ           2.19908       -0.640872         1.28122
LJ           2.27243         1.69146       -0.483137
LJ           2.47921        -2.23572         1.41365
LJ          -1.55234        -1.35887         1.36878
LJ           1.41414       -0.426267       -0.386317
LJ          -1.67966       -0.660761       -0.963004
LJ          -1.98551        -2.00839        -1.29728
LJ          -1.01389        -1.75446         2.10418
LJ          0.992195         0.25745        -1.24515
LJ           2.18721      -0.0365014        -2.36094
LJ         -0.690192        0.955299         1.62405
LJ          -1.29702       0.0441311         2.00956
LJ          -2.28579        0.665023        -1.27161
LJ           1.97121        0.472908       0.0778723
LJ           2.24391        -2.27441        -1.58949
LJ          0.088042      -0.0404908        -2.18648
LJ          -1.00792        -2.44029        -1.09532
LJ         0.0480127        -0.56337        -1.01126
LJ          0.494481       -0.636146        0.296486
LJ           1.63552         1.61276        0.326646
LJ          0.323175       -0.922394         2.38271
LJ          -1.19417        -1.33723        -1.75424
LJ         -0.823655         0.56028        -2.40475
LJ           1.66655         -1.4399        0.260695
LJ          -2.38482       -0.119028       -0.499405
LJ          -1.51619          2.5468         1.61344
LJ          -1.57452        -2.19216        0.557097
LJ         -0.783651        -0.74661         1.40376
LJ          -1.18703         1.93322        -2.04976
LJ           1.95886        0.812878        -1.55411
LJ          0.184958         0.13949        0.951066
LJ           -1.7015        0.181993        -1.99231
LJ         -0.660506         1.85086       -0.478057
LJ          0.126823         1.59641          1.2815
LJ          0.150997        -1.43522       -0.127341
LJ           1.01266       -0.291372         1.84685
LJ           1.50783        -1.91281       -0.942944
LJ           1.22646       -0.941874        -2.23301
LJ         -0.900611         -0.1337       -0.493255
LJ          -1.79761        -1.58195       -0.271283
LJ         -0.196016        -1.34689        -1.98461
LJ           1.24171        0.157968        -2.37183
LJ           2.22092       -0.573395        0.272422
LJ           -1.6763       -0.543294        0.436988
LJ         -0.344327          1.0706        0.405072
LJ          -2.12704         1.10254      -0.0896263
LJ          -2.56348         2.14716        0.691664
LJ           0.43676         2.23863        -2.34767
LJ           0.46727         0.25487       -0.195836
LJ           1.91837        0.894915             2.4
LJ          0.998948         1.18211        -1.88144
LJ         -0.760721        -1.20884       -0.813283
LJ           2.29291         1.18347         1.19678
LJ           1.09897        -2.03687        -2.30474
LJ          -1.79126          1.3862         1.00167
LJ         -0.743678       -0.786807         2.44426
LJ           2.14169        -1.61289        -2.39843
LJ          -2.16003          2.5255        -2.36204
LJ          -2.19905          1.3102        -2.01991
LJ           1.19545        -1.65636         1.74203
LJ            1.5395        -2.51894       -0.106806
LJ            1.8226        -2.46093          2.1668
LJ          -0.61689        -2.28544        -2.16899
LJ          0.511149        -2.44163       -0.403001
LJ          -1.99876        -1.65471         2.26699
LJ          0.999746       -0.924193        -1.22314
LJ          -1.20941         1.00819        -1.43637
LJ          -1.55757         2.15257      -0.0940222
LJ         0.0703139         -1.7329         1.91604
LJ           1.25485          1.4787         1.84835
LJ         -0.349671         2.43063         1.99697
LJ          -1.92761       -0.402593          1.3537
LJ           1.37319        0.972451       -0.538053
LJ          -2.25955       -0.602231         2.33635
LJ          -2.04965        0.434975        0.621312
LJ           1.76015         1.87562        -2.23353
LJ          0.495384         2.29403        0.716236
LJ          0.600283        0.810432         1.87178
LJ            2.3561         1.73066          2.0364
LJ           1.72393        0.359869         1.37292
LJ         -0.451557         -0.4303        0.394348
LJ         0.0700354         0.65195        -1.20629
LJ          0.781422         2.47377         1.80922
LJ          -2.56015        -2.24188       -0.114187
LJ          0.592181        -1.74977        0.794666
LJ        -0.0141831         1.74123        -1.30618
LJ          -1.16367        0.952766       -0.444071
LJ         -0.885525       -0.366472        -1.59823
LJ           1.76155       -0.451613        -1.50999
LJ           1.57189        -2.50889        0.966424
LJ         0.0184687         1.13358        -2.31524
LJ          -2.36106        -1.38235        0.680034
LJ          -2.36528        0.557863          1.8852
LJ          0.461106         1.62458       -0.164195
LJ         0.0320069        -2.00558         -1.2589
LJ           -1.1103        0.187091          1.0143
LJ          -2.11401       -0.992609        -1.93414
LJ           2.35753        -1.01841       -0.732289
LJ           1.22224         2.17831       -0.940893
