108
#Comment!
LJ           0.28007         -1.4134        -1.01736
LJ           2.41108        -1.59541         1.47691
LJ         0.0806872         1.97368       -0.312091
LJ           -1.2629        -1.65955        -2.50245
LJ          -2.43417       -0.709347         2.06938
LJ          0.165742        -1.81999        0.969785
LJ        -0.0745131      -0.0621616        0.372703
LJ         -0.077119        -1.71131        -2.26393
LJ        -0.0877933      -0.0637205        -1.92871
LJ           1.13739         2.11883         2.42604
LJ         -0.132332        -2.04252       -0.192576
LJ         -0.687739        -1.44577         1.71279
LJ          -0.96553          2.0516        0.103715
LJ          -1.72364        0.164581         1.50924
LJ             1.184       -0.118825         2.50344
LJ           1.22718        -1.55457       -0.427133
LJ           2.32178         1.66175     -0.00323954
LJ           2.21164        0.605049       -0.752078
LJ         -0.682423         1.43388         2.15869
LJ            1.3324        0.833439          2.0842
LJ          0.852447        -2.03039         2.43567
LJ           0.69097          2.0028         -1.6142
LJ         -0.572325       -0.922886        -1.48028
LJ           2.01029       -0.190602          1.4501
LJ           1.01092        -2.18835        -1.69297
LJ           1.96207          2.2722        0.864391
LJ           1.38311        -1.58453         1.19761
LJ         -0.831907        0.100882         1.90176
LJ          0.376101         1.46744         2.21428
LJ           2.53907        -1.28284       -0.586951
LJ          -1.14399         1.36013         1.04044
LJ         -0.944665        -2.14618        0.902242
LJ           1.83978        -2.39627       -0.845508
LJ          -1.42579         1.64347        -1.78381
LJ          -2.10889        -1.54165        0.315049
LJ          -2.25058         1.49517          1.2264
LJ         -0.418792        -2.43006         1.84367
LJ           2.04861       -0.409582        -2.30694
LJ          0.958853         2.38497       -0.701262
LJ           0.73246        0.858853        0.147795
LJ         -0.851507       -0.644192       -0.507174
LJ          -1.49394        0.292823        0.433157
LJ         -0.972341        -1.88875        -1.42007
LJ           2.47843        -1.63379        -2.43285
LJ          0.806174        -2.33409        0.257487
LJ          -2.12435        -2.32887       -0.636823
LJ          -1.93978       -0.781051        -2.17138
LJ          0.693664        -2.55361         1.42334
LJ          -1.08447        -1.66579      -0.0400021
LJ         -0.016514       -0.306632         1.52464
LJ          -1.65251          1.2535       0.0938798
LJ           2.37126         2.51308         1.89399
LJ          0.287957        0.358777         2.17699
LJ          -1.49729         2.31108         1.55674
LJ            1.2308          1.7932      -0.0187596
LJ         -0.345178        0.954333        -2.21029
LJ          -2.40944         2.24937        -2.30247
LJ         -0.199723         2.55967        -1.14896
LJ           -1.3728       -0.166069         -1.4959
LJ         -0.741646        0.404951       -0.360223
LJ           1.65826        -1.02046         2.08725
LJ          -1.74383        -1.48871         1.55717
LJ           1.00608         1.35671         1.08902
LJ           1.44794       -0.620142        -1.00413
LJ          -0.29171         1.00978        0.381102
LJ          0.141052        0.909036       -0.665892
LJ          0.707084       -0.855543        0.727775
LJ           1.56038        0.349201        -1.64757
LJ          -1.04419       -0.949094        0.929451
LJ           -2.4286          1.2576        -1.80996
LJ           2.38854        0.724905         1.78991
LJ          0.610683        -1.09653         1.84659
LJ          -1.80954        0.143659       -0.601847
LJ           2.00849        -2.03737        0.129771
LJ          0.858864         1.00468        -2.10957
LJ          -1.83611         2.25989        0.460633
LJ           0.22941        -0.11423       -0.895884
LJ           2.27091       -0.343596       -0.384597
LJ         -0.996871        0.819431        -1.46965
LJ          -2.33208       -0.684915        0.912203
LJ          -1.71956       -0.636641       0.0493823
LJ         -0.172934        0.843727         1.43191
LJ          -1.26924         2.26336       -0.888818
LJ           2.56434       -0.312408         -1.4346
LJ           1.09747        0.243643       -0.674185
LJ          -0.17326          2.1346        -2.36343
LJ           2.03101        -1.41677        -1.48932
LJ         -0.164344       -0.694989         2.44317
LJ          -1.37442         2.38665        -2.46122
LJ         -0.707921         1.38836       -0.745668
LJ           1.67498       -0.903015        0.213037
LJ          -1.80951        -2.32438        -1.66383
LJ           1.84059        -2.36004         -2.2329
LJ            -2.432        0.428274        0.344843
LJ          0.813909       -0.952322        -1.87856
LJ          0.722035        0.206087         1.13542
LJ           1.94164         1.69687        -2.33834
LJ           1.59096        0.163951        0.315702
LJ         0.0309145        -1.09532      -0.0141442
LJ          -1.84594           1.372         2.28932
LJ         -0.149188         1.86187         1.14297
LJ          -2.01489         1.07747       -0.969674
LJ           1.56725         1.63327        -1.18611
LJ           1.97942         1.05213        0.818901
LJ          -1.76931        0.148307        -2.53058
LJ           1.72695         1.72127         1.68982
LJ          -2.55034         1.99692         -1.1447
LJ          -1.62888        -1.12075        -1.23344
