108
#Comment!
LJ           -2.4428        -2.28492         2.35266
LJ          -1.75002        -1.58445         2.45206
LJ          -2.21379        -1.55246        -1.65461
LJ          -1.49388        -2.43513        -1.78518
LJ         -0.750402         2.49413         2.49072
LJ         -0.140426         -1.6742         2.55536
LJ          -1.09792        -1.51476        -1.80945
LJ         0.0979081         2.37021        -1.85303
LJ          0.981267        -2.48892         2.47593
LJ           1.71742        -1.59648         2.45558
LJ           1.01616        -1.83204         -1.7276
LJ           1.94734         2.35531        -1.78029
LJ          -2.50421       -0.776114         2.50951
LJ          -1.79777      -0.0407426         2.38845
LJ          -2.46588      -0.0249036        -1.75975
LJ          -1.65453       -0.634843        -1.63827
LJ          -1.08959       -0.845637         -2.4913
LJ         0.0075978       -0.126832        -2.32687
LJ         -0.965921       0.0303285        -1.80348
LJ        0.00744421        -1.09977        -1.72106
LJ          0.892929       -0.909531         2.53787
LJ           1.68877      -0.0118646        -2.38174
LJ          0.869822        0.136301        -1.79053
LJ           1.62313       -0.660512        -1.69468
LJ          -2.42842        0.937335        -2.47527
LJ          -1.69068         2.00244         2.38055
LJ          -2.50407         1.62135        -1.59491
LJ          -1.68361        0.735569        -1.89562
LJ         -0.451405        0.762034         2.44206
LJ          0.158898         1.64962         2.31133
LJ          -1.20928         1.67079        -1.73012
LJ         0.0251957         1.12584        -1.80926
LJ           1.06823        0.992275         2.48464
LJ           1.84925         1.72942        -2.54529
LJ           0.95642         1.79973         -1.9475
LJ           1.57164        0.876995        -1.66326
LJ           2.51631         2.38878       -0.850585
LJ          -1.47687        -1.69199       -0.839752
LJ          -2.23336        -1.76791      -0.0227192
LJ          -1.65463        -2.56334        0.121357
LJ         -0.570517        -2.45697        -1.09857
LJ         0.0319146        -1.70482       -0.796481
LJ         -0.779423         -1.9244      -0.0173612
LJ        0.00998982         2.24423        0.083558
LJ          0.800666        -2.54403       -0.957908
LJ           2.02595         -1.7388       -0.882747
LJ          0.799308        -1.84974        0.332541
LJ           1.65427        -2.51273       0.0417957
LJ          -2.39172       -0.874699       -0.840041
LJ          -1.92314       0.0359277       -0.932528
LJ           -2.4181    -0.000115456       0.0603956
LJ          -1.66244       -0.724343       0.0584618
LJ         -0.742405       -0.877304       -0.786429
LJ         -0.195499      -0.0581995        -1.03752
LJ         -0.661244      -0.0142018      0.00387048
LJ         0.0298596        -0.82132        0.124493
LJ           1.00678        -1.25366       -0.814413
LJ           1.80529       -0.132229       -0.631654
LJ          0.932544       0.0916162         0.09753
LJ           1.94045       -0.989708      0.00973376
LJ           2.46803        0.828899       -0.814662
LJ          -1.64199         1.67153       -0.816181
LJ           2.34637         1.57561       0.0529934
LJ          -1.80905         1.02005        0.288799
LJ          -1.15815        0.685054       -0.985097
LJ          0.150158         1.65503       -0.852462
LJ         -0.836682         1.60473       -0.259849
LJ       -0.00565376        0.832092       -0.258579
LJ          0.980108        0.823667       -0.856978
LJ           1.71256         1.69768       -0.724442
LJ           0.88052         1.68366       -0.137619
LJ           1.64146         0.74999     -0.00248032
LJ           2.52506         2.37265        0.678367
LJ          -1.40519        -1.80583        0.829483
LJ          -2.53345        -1.49055         1.57787
LJ          -1.93028        -2.32015         1.50127
LJ         -0.781124         2.43735        0.899405
LJ        -0.0439985        -1.51127        0.951676
LJ         -0.851592        -1.69085         1.88507
LJ         0.0259718         -2.3333         1.72486
LJ          0.810556         2.44458        0.954335
LJ           1.71042        -1.55776        0.872133
LJ          0.880166        -1.61249         1.77545
LJ           1.82468        -2.47616         1.63752
LJ           -2.4601         -0.9101        0.778883
LJ          -1.55354      -0.0559632         0.80098
LJ           2.45731      -0.0924391         1.64252
LJ          -1.67591       -0.769076         1.59754
LJ         -0.882498       -0.906345         1.15399
LJ          0.177342      -0.0856636        0.954199
LJ         -0.941731       0.0664798         1.78854
LJ          0.164762       -0.835103         1.68493
LJ           0.83859       -0.837457        0.660221
LJ           1.74618       -0.262772        0.724237
LJ          0.718891      0.00567992          1.8451
LJ           1.60627       -0.779584         1.68188
LJ            2.2357        0.955327        0.996565
LJ          -1.71876         1.78185        0.971567
LJ           2.47263         1.83131         1.71942
LJ          -1.88175        0.827236         1.40321
LJ         -0.869938        0.810434        0.642772
LJ          0.436901         1.54118         0.74923
LJ         -0.907636          1.3907         1.63636
LJ          0.085605        0.936569         1.47233
LJ           1.15723        0.661853         1.00672
LJ           1.47541         1.64837        0.609461
LJ           1.17589         1.74527         1.73909
LJ           1.82979         1.08032         1.88426
