108
#Comment!
LJ           2.41969        -2.53522        -2.54617
LJ          -1.64439         -1.8738         2.47951
LJ          -2.51436         -1.7591         -1.7248
LJ          -1.87702         2.54236        -1.70916
LJ         -0.880156         2.54682         2.48085
LJ         -0.167012        -1.89026        -2.50641
LJ         -0.848237         -1.5349        -1.63079
LJ          0.032912         2.39031         -1.7916
LJ          0.864861         2.50481        -2.38221
LJ           1.69475        -1.72851        -2.49156
LJ          0.848185        -1.50842        -1.55802
LJ           1.87905        -2.47749        -1.63761
LJ           2.51305       -0.957398        -2.52639
LJ          -1.67399       0.0653431         2.54357
LJ          -2.43051        0.199242        -1.77994
LJ          -1.83104       -0.887451        -1.59824
LJ          -1.08552       -0.934844         2.54438
LJ         -0.015884      -0.0555096         2.54872
LJ         -0.786474       0.0992973        -1.75239
LJ         0.0427452       -0.791049        -1.76376
LJ             0.947       -0.967958        -2.53039
LJ           1.77826        0.133809         2.52793
LJ          0.679368        0.163287        -1.64746
LJ           1.62892       -0.885623        -1.70625
LJ          -2.50953        0.847448         2.49223
LJ          -1.80151         1.84807         2.46663
LJ          -2.54027         1.61005        -1.79834
LJ           -1.7119        0.861883         -1.7449
LJ         -0.592938         1.00795         2.28761
LJ           0.13871         1.69101         2.43805
LJ         -0.791352         1.65059        -1.76023
LJ        -0.0996858        0.886301        -1.74933
LJ          0.756628         0.83555        -2.43355
LJ           1.78685           1.762        -2.55268
LJ           0.93827         1.70433        -1.55401
LJ           1.77256        0.811747        -1.68653
LJ          -2.51259         2.56365       -0.832662
LJ          -1.56754        -1.78063       -0.624473
LJ           2.53302        -1.79853      -0.0391876
LJ          -1.73702         2.46835      -0.0254844
LJ         -0.815184         2.48868       -0.841554
LJ        -0.0053753        -1.72566       -0.860183
LJ         -0.737667        -1.77415       0.0688985
LJ         -0.170166         2.40329        0.023234
LJ          0.960924         2.54729       -0.905747
LJ           1.66206        -1.73744       -0.827874
LJ          0.772594        -1.86314        0.168664
LJ           1.64928        -2.39898       -0.117795
LJ           -2.4905       -0.990941       -0.753725
LJ          -1.91098        0.155173       -0.763942
LJ           2.53607       0.0177745      -0.0160505
LJ          -1.76927        -0.73472       -0.107678
LJ         -0.850711       -0.697448       -0.794696
LJ         0.0336374         0.10715       -0.700007
LJ         -0.868939      -0.0114948       0.0173333
LJ         -0.142454       -0.749508      -0.0890416
LJ           0.84273       -0.789639       -0.848488
LJ           1.82599       -0.128015       -0.858906
LJ          0.933254       0.0359898       -0.113366
LJ           1.76111       -0.975391      -0.0637496
LJ          -2.53791         1.09586       -0.685342
LJ          -1.65371         1.68638       -0.926911
LJ           2.49374           1.719        0.152987
LJ          -1.93106        0.936242       0.0853562
LJ         -0.844146        0.770452       -0.872986
LJ        -0.0394687         1.70751       -0.836073
LJ          -0.90775         1.61186       -0.188606
LJ        -0.0755196         1.01827        -0.06675
LJ          0.761488        0.893378       -0.828738
LJ           1.92533          1.8289       -0.963271
LJ          0.756026         1.90965      -0.0809893
LJ           1.69696        0.876961      -0.0672882
LJ           2.45614         2.51652         1.00233
LJ          -1.57075        -1.83383        0.957637
LJ           2.50436        -1.68576         1.68092
LJ          -1.82232         2.50857         1.60079
LJ         -0.850062         2.48965        0.827305
LJ         0.0617932        -1.68022         0.81427
LJ         -0.898543        -1.71192         1.78069
LJ          0.132584        -2.44527         1.76364
LJ           1.10732        -2.49277        0.993739
LJ           1.94044        -1.65777        0.749317
LJ           0.89099        -1.61848         1.61537
LJ           1.64521        -2.54327         1.84612
LJ           2.48072       -0.683164        0.876711
LJ          -1.91716       0.0403419         0.89327
LJ          -2.49552     -0.00341561         1.88201
LJ          -1.84135       -0.825625         1.67032
LJ         -0.711842       -0.818003        0.739825
LJ         0.0435648      -0.0910206        0.804263
LJ         -0.763289        0.119445         1.77456
LJ         0.0381515       -0.995963         1.64544
LJ          0.843186        -0.92828        0.854236
LJ           1.58709      -0.0295077        0.681876
LJ          0.748994       -0.117978          1.8251
LJ           1.73741       -0.870831         1.68102
LJ           2.40069          0.7744        0.761101
LJ          -1.62844         1.77632         0.78993
LJ           2.49014         1.71193         1.71519
LJ          -1.73829        0.715057         1.60493
LJ         -0.899132         0.64829          0.7889
LJ         0.0697307         1.70684        0.814921
LJ         -0.829497          1.7156         1.50014
LJ         0.0204196        0.912226         1.51741
LJ          0.879962        0.895014         1.09779
LJ           1.70892         1.83223        0.784585
LJ           0.99911         1.72377         1.83426
LJ           1.72904        0.944139         1.72089
