108
#Comment!
LJ           2.47093        -2.53738          2.5471
LJ          -1.67956        -1.88342         2.53896
LJ          -2.49395        -1.67187        -1.77026
LJ          -1.85145         2.53356        -1.72576
LJ         -0.905004         2.33115         2.47478
LJ          -0.17818        -1.83935        -2.51042
LJ         -0.826473        -1.61841        -1.55373
LJ       -0.00306851        -2.54932        -1.68078
LJ          0.907978         2.52477        -2.55108
LJ           1.61906        -1.82897        -2.54364
LJ          0.851347        -1.50457        -1.60687
LJ           1.89685        -2.44478        -1.72589
LJ           2.43614        -0.87088         2.53116
LJ          -1.58172       0.0554466         2.54819
LJ           2.55926        0.136661        -1.82087
LJ          -1.81369       -0.906553        -1.70662
LJ          -1.15151       -0.830096         2.55442
LJ         0.0211895       -0.141339         2.48557
LJ          -0.84445       0.0584155        -1.73159
LJ         0.0494616       -0.839943        -1.71186
LJ          0.898401       -0.973203        -2.55198
LJ            1.7758        0.124665        -2.52152
LJ          0.738259         0.19882        -1.67348
LJ           1.66684       -0.826554        -1.66817
LJ          -2.52203        0.821093         2.50728
LJ          -1.74865         1.78499         2.51134
LJ          -2.52833         1.58137        -1.74931
LJ          -1.75968        0.911994        -1.68511
LJ         -0.709954        0.973189         2.29497
LJ          0.210645         1.74625         2.40455
LJ         -0.913161          1.6079        -1.63267
LJ         -0.104701        0.887865        -1.84716
LJ          0.796684        0.958191        -2.38168
LJ           1.74897         1.71491        -2.49353
LJ          0.954046         1.77948        -1.65231
LJ           1.72729         0.86616        -1.74378
LJ          -2.49148        -2.42422       -0.820533
LJ          -1.50991        -1.69839       -0.749626
LJ           2.48026        -1.74734      -0.0053764
LJ          -1.56524         2.53661     0.000222109
LJ           -0.7755        -2.55414       -0.824465
LJ        -0.0922289        -1.74986       -0.921083
LJ         -0.877086        -1.73738        0.157175
LJ         -0.140626         2.40063      -0.0361731
LJ          0.823024         2.54058        -0.86344
LJ           1.56326        -1.83046       -0.820781
LJ          0.716145        -1.75403        0.139086
LJ           1.66013        -2.49298      -0.0620047
LJ          -2.46961       -0.928832       -0.804061
LJ          -1.95938        0.206258       -0.796377
LJ           2.41931       0.0151456      -0.0454203
LJ          -1.65814       -0.881604      -0.0331619
LJ          -0.91185       -0.736605        -0.82583
LJ        -0.0212999      -0.0170845       -0.763687
LJ         -0.859487      -0.0192604      -0.0587158
LJ        -0.0603907       -0.704453      0.00434382
LJ          0.959487       -0.843085       -0.747303
LJ           1.72262        -0.19734       -0.804557
LJ           0.87218      -0.0619889       -0.100467
LJ           1.73819        -1.03595       -0.140267
LJ          -2.46718         1.05848       -0.882347
LJ          -1.73678         1.76365        -1.00013
LJ          -2.53646         1.79634        0.115155
LJ          -1.76457         0.92517        0.116629
LJ         -0.840951        0.767727       -0.783539
LJ         -0.122017         1.68469       -0.973674
LJ         -0.893206         1.72063       -0.125312
LJ         -0.129466        0.962495     -0.00387995
LJ          0.657153        0.917271       -0.855653
LJ           1.70434         1.89661       -0.891541
LJ          0.691704         1.75725      -0.0795408
LJ           1.64801        0.806453       0.0906861
LJ           2.52098          2.5136        0.931788
LJ          -1.57142         -1.7387        0.914268
LJ            2.3578        -1.70373         1.71454
LJ          -1.84365         2.50682         1.60557
LJ         -0.847301         2.47828        0.771235
LJ         0.0530175        -1.70755         0.88766
LJ         -0.905917        -1.73363         1.69265
LJ         0.0997872        -2.47204          1.9155
LJ           1.07314          2.5113        0.979689
LJ           1.70915        -1.78608        0.857112
LJ          0.967504        -1.56335         1.64252
LJ           1.67797        -2.54159         1.78764
LJ           2.47301       -0.619855         0.89497
LJ          -1.80557        0.032985        0.898133
LJ          -2.44959      -0.0193305         1.97726
LJ          -1.77358       -0.815531         1.68067
LJ         -0.709007       -0.893089        0.778234
LJ         0.0428529      -0.0187483        0.839328
LJ         -0.665652       0.0612651         1.77366
LJ       -0.00912389       -0.842214         1.59028
LJ           0.79392       -0.982267        0.784491
LJ           1.62755      -0.0344437        0.744553
LJ          0.857159       -0.170273         1.77572
LJ           1.67568       -0.858538         1.69671
LJ           2.39336         0.93161        0.896312
LJ          -1.78486         1.72175        0.791091
LJ          -2.51034         1.69997         1.81358
LJ          -1.77421        0.785406          1.6797
LJ          -0.82342        0.669275        0.865185
LJ        -0.0365632         1.63928        0.892773
LJ         -0.790533          1.7627         1.63281
LJ         0.0626898        0.767972         1.58456
LJ          0.883293        0.781276        0.795069
LJ           1.78518         1.75884        0.813955
LJ          0.843267          1.6114         1.68022
LJ           1.66859         1.04306         1.62648
