108
#Comment!
LJ           2.50246          1.0512         1.09725
LJ         -0.702427        0.640266       -0.240432
LJ          -1.92998       -0.507793         2.32873
LJ           0.36861        -2.15529        -2.25418
LJ        -0.0983547         2.47928       -0.859614
LJ          -2.26612        -1.68333         -1.5114
LJ          0.494293       -0.836423        0.789047
LJ          -1.50968       -0.205835         1.48149
LJ            1.0747        -1.76441        -1.62541
LJ           2.40406       -0.928339        0.169403
LJ          -2.32467         2.19861       -0.898939
LJ         -0.413225        -2.34654         1.38988
LJ          -1.07682        -0.08077        -2.53736
LJ          0.932794        -2.16326       -0.416468
LJ          -1.75849        0.605501       -0.421021
LJ         -0.638239        -2.45985        -1.87542
LJ         0.0899533        -1.22005         2.03354
LJ          0.364705        0.942187       -0.380802
LJ           2.03281       -0.711949        -2.53261
LJ         -0.304251        0.463437         2.06344
LJ          -1.90356        0.724548         1.84275
LJ           1.36879       0.0728706        -2.44603
LJ            1.9481       -0.377383         -1.3747
LJ            1.8889        -2.49198        -1.28209
LJ          0.871477         0.22005        -1.49376
LJ         0.0302078        -1.69471         -1.3475
LJ         -0.664919         1.64784        -1.02375
LJ           1.23457        0.541735       -0.297181
LJ           1.94284         1.03199        0.292599
LJ          0.483458        0.292545          1.1605
LJ          -1.28074       0.0177417         -1.0324
LJ           1.03355         1.93315           2.373
LJ           2.46534        -1.69512        0.775146
LJ           -2.2527         0.19399        0.405002
LJ            1.5063        0.832431         1.50524
LJ         -0.537975       -0.916534       -0.917796
LJ            -2.194         1.93985         1.03771
LJ          -1.00929        -2.32047       -0.899266
LJ           2.04618         1.80057        -1.80398
LJ           1.71979       -0.934652        0.887341
LJ           2.29507        0.293654         2.44892
LJ          -0.85641          2.4765       0.0579807
LJ          0.802041         1.15991        0.682624
LJ           1.44026         -0.6597       -0.157969
LJ         -0.260809           1.644        0.106226
LJ           1.76264        -2.35681        0.192655
LJ           1.89231        -1.29456       -0.774069
LJ          0.163506       0.0605752        0.140311
LJ           1.12773        -0.85543        -2.13834
LJ          0.854718       -0.768967       -0.936467
LJ          -2.48641       -0.350037         1.38714
LJ          -1.53119       -0.987079         0.73582
LJ         -0.874076       -0.982503         2.26522
LJ           2.17952        0.161153       -0.483169
LJ          -0.72197        -1.45968        0.205497
LJ         -0.955897         0.34813        0.765332
LJ           1.71648        -2.18108         1.43156
LJ         0.0498884        0.964116        -1.40091
LJ           1.71066        0.791505        -1.75198
LJ            1.2476        -1.33925         2.03274
LJ        -0.0350167        0.138591        -2.15346
LJ         -0.576191        -1.97117         2.30152
LJ         -0.450547       -0.947588        -1.99159
LJ          -1.13793         2.19697         1.04762
LJ          -1.39685        0.729239        -1.76498
LJ          -1.64832        -1.56343         2.00595
LJ          -1.75209        -1.01277        -1.94189
LJ          -1.60705         1.97905         -1.7372
LJ          0.893734         2.09205        0.258281
LJ         0.0669437         2.21303         2.10668
LJ          -2.42776        -2.33306          1.8578
LJ          0.833994        -1.79952        0.868171
LJ          0.605753         0.96335        -2.36247
LJ          -1.67948        -2.02948        0.916316
LJ            2.0018        -1.67019        -2.14371
LJ          -1.54756         1.38601        0.386543
LJ          -1.11161        -1.58313        -1.49797
LJ          0.595385        -2.13486         1.79198
LJ           1.82739         1.89472        0.978116
LJ          0.530344       -0.263843         2.09938
LJ          -2.07761       -0.609339        -1.04873
LJ           1.12587         1.35434        -1.02557
LJ          -1.49942         1.82584       -0.647245
LJ           2.37294        0.932219        -1.10088
LJ          -1.97861         1.79127         2.34505
LJ         -0.799715         1.36594         1.53529
LJ           1.69412       0.0480182        0.596376
LJ          0.258318         1.24844         1.77317
LJ         -0.904208        -0.43594      -0.0581058
LJ          0.305538        -1.27845       -0.172548
LJ           1.86052          1.9284       -0.402723
LJ          0.753468         2.12898         1.22945
LJ         0.0258399        -2.27684        0.309313
LJ           2.51574        -1.25328         1.97966
LJ          0.136635         1.98038        -2.02195
LJ           1.39731       -0.206719          1.5895
LJ          -2.20387       0.0576353        -1.84173
LJ          -2.36315         1.09246        -2.13315
LJ          -2.01205         2.56118        0.073237
LJ         -0.617152         1.24618        -2.31986
LJ          -1.81249        -2.37578        -2.46576
LJ         -0.956221           2.024         2.36191
LJ          0.871061         2.35572        -1.24883
LJ            2.1249         1.44165         2.03734
LJ         0.0399431       0.0256059       -0.928765
LJ          -1.70466        -1.40581       -0.307148
LJ         -0.590054       -0.895968          1.2106
LJ           2.18335         2.37026          2.5641
