108
#Comment!
LJ           2.46192         2.48501        -2.31949
LJ           -1.6759        -1.92801        -2.46619
LJ           -2.4814        -1.72145        -1.21268
LJ          -1.74527         2.50055        -1.66734
LJ         -0.834509        -2.54036        -2.53031
LJ         0.0701473        -1.67003        -2.42725
LJ         -0.658815        -1.76807        -1.66801
LJ        -0.0435955        -2.52844        -1.24181
LJ             1.022         2.36157         2.42102
LJ           1.81467        -1.86646        -2.34726
LJ           0.84068         -1.7051        -1.82286
LJ           1.61675         2.56328        -1.60924
LJ          -2.31857       -0.475819        -2.46793
LJ          -1.42343       0.0849835         2.35778
LJ           2.43808       -0.114438        -1.53068
LJ          -1.58212        -1.31805        -1.65522
LJ         -0.653869       -0.579484         -2.4401
LJ         0.0512478        0.182716         2.40743
LJ         -0.783901        0.296921        -1.69203
LJ        -0.0102574       -0.639325         -1.6021
LJ           1.09264        -1.20935          2.4217
LJ           1.83154        0.111976         -2.5387
LJ          0.725344        0.104807        -1.80254
LJ           1.72165       -0.859321        -1.78605
LJ           2.52383        0.971924         -2.4641
LJ          -1.55117         1.70812        -2.50945
LJ          -2.53921         1.58294        -1.65897
LJ          -1.75358        0.861296        -1.84394
LJ         -0.717036        0.973549         2.50062
LJ          0.138429         1.89443        -2.54155
LJ         -0.695605         1.63704        -1.85916
LJ           0.10229        0.895933        -1.88268
LJ          0.876882        0.755309         2.47845
LJ           1.62875         1.58452        -2.38594
LJ          0.702513         1.72745        -1.78006
LJ           1.38418        0.925891        -1.68076
LJ          -2.54362         2.55136       -0.634794
LJ          -1.27441        -1.73952       -0.583974
LJ           -2.4934        -1.74008      -0.0402545
LJ          -1.67908          2.2513        0.053661
LJ          -0.94608         2.28397       -0.726609
LJ          0.025199        -1.48422       -0.810581
LJ         -0.533039        -1.71054         0.10294
LJ          -0.12349         2.34683       -0.122718
LJ          0.889147         2.52354       -0.782771
LJ           1.54567        -1.75125       -0.844748
LJ          0.689095        -1.84483        0.227957
LJ           1.67046        -2.56342       0.0770379
LJ           2.44745       -0.910454       -0.782471
LJ           -1.7364     -0.00859408         -1.1836
LJ          -2.44121      0.00351087       -0.250271
LJ          -1.74402       -0.957731      -0.0958866
LJ         -0.789699       -0.659752       -0.385153
LJ         0.0229897         0.11215       -0.820775
LJ          -1.22271       -0.168752        0.447571
LJ         -0.199766      -0.0749953        0.243228
LJ           0.82141       -0.767005       -0.991241
LJ            1.4894       0.0471634         -1.0505
LJ          0.859953      -0.0310649       -0.144627
LJ           1.59267       -0.939627       -0.102694
LJ          -2.49017        0.874237       -0.936844
LJ          -1.73652         1.57544       -0.836456
LJ           2.42481         1.74386       0.0880338
LJ          -1.88814         0.99373        0.099887
LJ          -1.04637         0.49136       -0.490883
LJ         -0.148622         1.53945        -0.92834
LJ         -0.990793         1.49276       0.0770773
LJ        -0.0929894        0.881027        0.219823
LJ          0.702966        0.935684       -0.797426
LJ           1.80819         1.70661       -0.847171
LJ          0.689022         1.77233        -0.19783
LJ            1.5127        0.972782        0.103549
LJ          -2.46497        -2.47734        0.851055
LJ          -1.68722        -1.88803        0.480102
LJ           2.52301        -1.72047         1.78218
LJ          -1.49012        -2.33132          1.6577
LJ         -0.760136        -2.50068        0.909975
LJ         0.0649397        -1.80583         1.10319
LJ         -0.701411         -1.5481         1.99075
LJ          0.122884         2.51328         1.62217
LJ          0.893914         2.10769        0.827956
LJ           1.94499        -1.72136        0.752294
LJ           1.01998        -2.10957         1.36882
LJ           1.79323         2.32721          1.6847
LJ           2.45335       -0.815775        0.557448
LJ          -2.03683      0.00696541        0.952105
LJ          -2.45932        0.279806         1.83354
LJ          -1.55472       -0.841369         1.77435
LJ          -0.75501        -1.01761        0.903202
LJ          0.236129        -0.11401         1.25696
LJ         -0.846668       -0.110552         1.50381
LJ         0.0748128       -0.775223         1.92794
LJ          0.997977         -0.7584        0.952538
LJ           1.75678       0.0339311         0.84316
LJ           1.03677      -0.0756388         1.85284
LJ           2.04508       -0.648126         1.65402
LJ          -2.47918         1.03801         1.05663
LJ          -1.63985         1.82667         1.04295
LJ          -2.39398         1.95571         1.94132
LJ          -1.57276        0.990833         1.79967
LJ         -0.983032        0.804979        0.857157
LJ          -0.16506         1.72581        0.757062
LJ         -0.781405         1.85471          1.6299
LJ         -0.190458        0.727346         1.61351
LJ          0.545813        0.918623          1.0037
LJ           1.69669         1.53177        0.958604
LJ          0.911842         1.48387         1.82667
LJ           1.91028        0.976479         1.85452
