108
#Comment!
LJ          -2.50592         -2.3055         2.56217
LJ          -1.69267        -1.48969         2.55381
LJ          -2.43094        -1.51328        -1.74799
LJ          -1.76691        -2.48525        -1.79992
LJ         -0.785667         2.35685        -2.41084
LJ         -0.158973        -1.46993         2.39856
LJ         -0.889326        -1.40888        -1.92233
LJ         0.0777999        -2.42507        -1.93157
LJ           1.01849        -2.48154        -2.45977
LJ           1.66885        -1.53475         2.45327
LJ           1.07881        -1.77348        -1.72916
LJ           1.97646        -2.54317        -1.61791
LJ           2.53686        -0.76908        -2.47286
LJ          -1.85827      -0.0314047         2.25642
LJ          -2.56408       0.0701833        -1.62259
LJ          -1.59883       -0.548566        -1.57791
LJ          -0.78528        -0.62882         2.55478
LJ           0.16891      -0.0160393        -2.35618
LJ         -0.736301        0.100182        -1.75578
LJ          0.140145       -0.899233        -1.52829
LJ          0.715048       -0.935171        -2.52051
LJ           1.69332       0.0685896        -2.45288
LJ          0.850384         0.31045         -1.5861
LJ           1.53494       -0.673747        -1.57956
LJ          -2.55408        0.910728        -2.37888
LJ          -1.81577         1.97056         2.45446
LJ          -2.51243         1.70641        -1.56815
LJ          -1.62188        0.615284        -2.09628
LJ         -0.571366        0.827271          2.5028
LJ         0.0528034         1.80945         2.45862
LJ          -1.28096         1.66835        -1.63594
LJ        -0.0906823         1.00803        -1.58884
LJ          0.977547        0.970332        -2.52724
LJ           1.74475         1.97532        -2.54032
LJ          0.981688         1.83724        -1.88346
LJ           1.69301         1.07404        -1.81317
LJ           2.52552        -2.52725        -0.69252
LJ          -1.37339        -1.62334       -0.796331
LJ          -2.23166        -1.61834      -0.0418045
LJ          -1.71434         2.47564        0.261511
LJ         -0.696623        -2.53239        -1.08245
LJ          0.101849        -1.87119       -0.708228
LJ         -0.701703        -1.84983       0.0194049
LJ         0.0171066         2.40562        0.122439
LJ          0.995253        -2.44358       -0.905856
LJ           1.89469         -1.5851       -0.923695
LJ          0.746419        -1.97637        0.193581
LJ           1.72465        -2.51624       0.0451783
LJ          -2.32867       -0.808437       -0.826908
LJ          -1.87472        0.241746       -0.945609
LJ          -2.39324      -0.0502571      -0.0306173
LJ          -1.56067       -0.645654       -0.121104
LJ         -0.724091       -0.721143       -0.817799
LJ         0.0375005      -0.0564733       -0.901543
LJ          -0.65274       -0.109897     0.000932779
LJ       -0.00549074        -1.08251       0.0944971
LJ           1.04454        -1.11574       -0.591988
LJ           1.90425       -0.224757       -0.599718
LJ          0.743287       0.0713075       0.0254623
LJ           1.89902        -1.00619        0.141335
LJ           2.34292        0.826012       -0.721147
LJ            -1.779         1.64861       -0.704153
LJ           2.43662          1.6566      -0.0493679
LJ          -1.74459        0.947587           0.136
LJ         -0.927783        0.768182       -0.982015
LJ         0.0270974         1.75527       -0.867155
LJ         -0.766115         1.64049       -0.127834
LJ          0.150357        0.953086       -0.176211
LJ          0.831519         1.01836       -0.982878
LJ           1.66959         1.72649       -0.803675
LJ          0.815968         1.83378        -0.16418
LJ           1.68166        0.799978       0.0555781
LJ            2.4575         2.43577        0.740672
LJ          -1.38821        -1.79578         0.86163
LJ           2.44442        -1.45766         1.61157
LJ          -1.93217        -2.40155          1.6747
LJ         -0.797874         2.41621        0.939784
LJ        -0.0512382        -1.54779         1.12694
LJ         -0.898232        -1.65638         1.76736
LJ       -0.00293049        -2.30369         1.80984
LJ          0.758653         2.45174        0.899924
LJ           1.63033        -1.63752        0.964296
LJ          0.727757        -1.53862         1.71091
LJ           1.68413        -2.55068         1.48886
LJ          -2.38203       -0.798564        0.853792
LJ          -1.80446        0.154179        0.806899
LJ           2.34171       0.0452233         1.69839
LJ          -1.64205       -0.837646          1.6421
LJ         -0.892831        -0.92655        0.890222
LJ          0.105343      -0.0495762         0.88805
LJ         -0.964661      -0.0434621          1.6483
LJ         0.0423056       -0.715191         1.80539
LJ          0.971761       -0.877061        0.480784
LJ           1.69988       -0.208473        0.869522
LJ          0.855244      -0.0107268         1.75751
LJ            1.5567       -0.799718         1.71494
LJ           2.30895        0.915191         1.07067
LJ          -1.86558         1.59994        0.983911
LJ           2.41702         1.95005         1.60641
LJ          -1.68094        0.833173         1.58564
LJ         -0.906641         0.87655         0.82369
LJ           0.26834         1.43004        0.740777
LJ         -0.679064         1.46566         1.68524
LJ          0.114514        0.634359         1.65673
LJ           1.13404        0.711815         1.11242
LJ           1.58448         1.75679        0.763969
LJ          0.881001         1.80051         1.63827
LJ           1.79463        0.993881         1.93045
