108
#Comment!
LJ         -0.578649         1.93685         1.33403
LJ             1.875         1.67294       -0.778073
LJ           2.25226        0.717958         -2.1712
LJ        -0.0134706         1.51931         0.43637
LJ          -1.08159        -1.44751        0.577735
LJ          -1.61424        -2.37237        -2.22202
LJ           1.55628        0.407672        0.993556
LJ          0.837745        0.140518        0.299833
LJ           1.81278         2.11171        0.189455
LJ          0.445529        0.502289         1.29689
LJ           1.16424       -0.608467        -1.60564
LJ           -2.2264         -1.3721        0.797079
LJ            2.1441        -2.35276         1.01268
LJ           1.07218        -0.58104       -0.406943
LJ            2.2049      -0.0461218      -0.0796994
LJ          0.673496         1.85777       -0.276533
LJ         -0.355095        -1.69456          2.1225
LJ           1.90618         1.56082         1.11453
LJ           1.60642        -1.59327        -2.00077
LJ          -1.91391         1.18911         1.02866
LJ          -1.11397       -0.379293        -1.76367
LJ           1.25704         2.17968         2.43864
LJ           2.40858        0.999641        0.184379
LJ           1.46596        -2.53402        -1.21227
LJ         -0.404817        -1.14317       -0.241018
LJ          -2.21277        -1.49845       -0.254692
LJ          0.654289        -1.19011        -2.26109
LJ         -0.100062        -1.56879         1.15506
LJ         0.0441424         -1.2115        -1.15475
LJ         -0.961251       -0.198957         2.40776
LJ         -0.795798        -1.68533       -0.954025
LJ          -2.43525         1.74809        -1.42081
LJ         -0.351323        -2.49224        0.544569
LJ          0.373921        0.867152       -0.496904
LJ         -0.715725         2.42716         2.27569
LJ          0.733319         2.26283        0.669261
LJ          -2.20475         -1.1434        -1.17215
LJ         -0.827037         1.36003        -1.97715
LJ           2.13106       -0.381869        -1.20265
LJ          -1.92482       -0.599063        0.165435
LJ           1.07925         0.38206        -1.30146
LJ          -1.23053          2.2954        -1.41453
LJ          -1.71106         1.64466         2.51976
LJ         -0.315397       -0.039813         1.43356
LJ           0.29016       -0.852765         1.86553
LJ           1.72302         1.20349         2.14073
LJ          0.696401         1.13927        -2.50306
LJ          -1.12189       -0.296448        0.725277
LJ          0.957712       -0.743933        0.932806
LJ          0.449258        -1.58497        0.268825
LJ         -0.272887       -0.672598        -2.15125
LJ           1.03147        -1.87177         1.25866
LJ           1.36523        0.742358       -0.364731
LJ          -1.55499         1.24864        -1.32111
LJ          -1.62461         1.82281       -0.597524
LJ           1.31691        -2.15195       -0.231419
LJ         -0.382051        -2.12529         -1.8481
LJ           -1.6003        0.465637        0.141006
LJ          0.470909         1.61036         1.58348
LJ         -0.653443        0.474249        -1.30378
LJ          -1.58958        -2.22195       0.0880393
LJ           1.00666         1.25022         0.77869
LJ            -1.196         1.58181        0.317059
LJ          -2.44022         2.13094         1.88033
LJ          -1.35841       -0.794053       -0.680014
LJ          0.603233        -2.22541         2.44199
LJ           2.11014         1.88097         -2.2775
LJ           -2.5557        0.705751       -0.916573
LJ          -1.45632         -1.3557        -2.51016
LJ          0.260365         1.00479        -1.46724
LJ           1.31267         1.62694        -1.70102
LJ          -2.10528         2.15516         0.68683
LJ            1.4147        -1.43683       -0.952425
LJ          -2.27763        -1.92256         1.77618
LJ          -0.64285         2.39247        -0.37317
LJ          -1.48263        0.602415        -2.11897
LJ          -1.78735        -2.04727       -0.998261
LJ           1.38049        -1.06614         2.13558
LJ         -0.153374        0.437573        0.247003
LJ          -1.27064        -2.36901         1.47638
LJ          -1.08081        -1.19596         1.59422
LJ          0.319671       -0.235684       -0.958881
LJ          -2.56117        -1.31845        -2.51232
LJ           1.16288      -0.0877164         1.93765
LJ         -0.206376        0.429601        -2.37702
LJ         -0.653749         1.43037       -0.666666
LJ           2.45016        0.594304         1.72354
LJ           1.82458        -2.11403         2.07339
LJ          -2.35975       -0.454503         2.11181
LJ         -0.570947       -0.232608       -0.432222
LJ          -1.68148        0.121021        -1.00666
LJ          0.127603         2.54523         1.71083
LJ         -0.575231        0.987327         1.82975
LJ          -1.02869        0.747301         1.00095
LJ          0.708748        -1.89099        -1.52253
LJ           -2.2027      -0.0508195        0.907386
LJ          0.226316        -2.12758       -0.687516
LJ           2.52871         2.48049       -0.640306
LJ           1.25901         2.31869         1.43422
LJ         -0.136714         1.63702         2.40604
LJ           2.15706        -1.18873         1.53919
LJ          -2.18473       -0.521789        -1.99021
LJ         0.0254924          2.1374        -1.26803
LJ           2.55243         -2.2415        -1.73572
LJ          -1.66732        0.364226         1.92502
LJ           2.00327       -0.384592        -2.34921
LJ           1.80901        -1.27847        0.112382
LJ        -0.0178639         -0.6484        0.575627
