108
#Comment!
LJ         -0.279679        -1.70734        -2.39497
LJ           1.81894        0.159363         0.23129
LJ         -0.501675        0.972395       -0.191614
LJ          -1.68617         2.15904         2.46351
LJ           2.35504        -2.30741        -1.28465
LJ        -0.0803758         1.41277         2.30293
LJ           -1.2474        0.223443        0.424114
LJ          -1.74664       -0.268376         2.23286
LJ         -0.943479        -2.21783        -1.43885
LJ         0.0731625        -2.52804        -1.79822
LJ          -2.40188       -0.997454        0.117046
LJ         -0.929306        0.734494         -2.5241
LJ          -1.09074         2.04642       -0.212741
LJ           -2.5221         1.16846        -2.50751
LJ           1.68618        -1.52415        -1.64669
LJ           1.49345         1.19994        0.887179
LJ          0.556066         1.81029       -0.521758
LJ          0.592808       -0.427579        -1.16652
LJ          -2.38141         1.63334        -1.59687
LJ         -0.264898      -0.0736487        -1.55634
LJ          0.599545        -1.67306        -1.60465
LJ          -1.83896        0.700052         1.71216
LJ          -2.25146        0.678167         -1.6037
LJ           0.84647        0.335802         2.21404
LJ          0.940285        0.264409        -1.90737
LJ           2.09563          2.0704        0.292156
LJ          0.989951        -2.42213          1.5577
LJ          -1.53773       -0.570313        -0.96005
LJ          0.949253         1.30657        -2.47871
LJ          0.825384        -1.56838       -0.507831
LJ          0.496219        0.932539         1.31962
LJ         -0.633999         1.29174        0.941226
LJ          -1.12791        -1.61469       -0.421781
LJ          -2.07633       0.0623991      -0.0831824
LJ           1.93412         2.53648         1.18898
LJ           2.33688    -0.000255391         1.88354
LJ          -2.06115        -1.42667       -0.846998
LJ            1.8089        -1.80091          1.9721
LJ          -1.20848        -2.02153         2.48091
LJ         -0.234669        -1.04824        0.894967
LJ         -0.962518        -1.46731         1.37223
LJ          -1.36201       -0.449721         1.16079
LJ          -1.72742         2.25264        0.488039
LJ          0.889988         2.04769         0.60931
LJ           1.48161        -2.37956       -0.365158
LJ        -0.0532855         -2.2923        -0.60441
LJ         -0.455089        -1.09537        -1.02183
LJ           1.20609         1.74402             1.8
LJ          0.970194         0.34671       -0.417702
LJ           2.51366         1.01423          1.2017
LJ         0.0632883       -0.273352         1.60659
LJ           2.48081        -2.05005      -0.0529606
LJ           -1.0299         1.52839         1.94362
LJ          -1.28543         1.68394        -1.61159
LJ          -1.75774        -1.75284        0.559505
LJ          -1.94553        -2.47153        -1.82843
LJ          -1.92044        -2.49585         -0.6587
LJ         -0.722684        0.117284       -0.577873
LJ           1.96671       -0.726155        0.826386
LJ         -0.801917        0.461401           1.537
LJ          0.211219        -1.90803        0.310051
LJ           2.35268        -2.07338        -2.30101
LJ           1.36223      -0.0283675         1.38519
LJ           2.08921        0.816451       -0.905351
LJ          -2.04176         1.88153         1.39271
LJ          0.897573        -1.10145          1.5745
LJ         -0.720979        -0.86854        -2.02101
LJ         -0.180645        0.909689        -1.91267
LJ           2.16093         2.02404        -0.67263
LJ          0.473333        0.740212        -1.17807
LJ           1.86819          2.0681        -2.02905
LJ           1.54523       -0.705623        -0.38488
LJ          -2.30215      -0.0123139        0.878227
LJ         -0.157847         2.13074        0.233972
LJ          -1.92982         1.14845       -0.501316
LJ           1.52516         1.25784       -0.199389
LJ          0.370063       -0.566596        -2.48655
LJ         -0.781318       -0.669651      -0.0446988
LJ          -2.20786        -1.14633         1.50816
LJ           2.23472        -1.11274        -2.54754
LJ           2.55568       -0.439971       -0.950594
LJ          -1.30875       0.0593804        -1.84595
LJ         -0.762973        -2.25823        0.509076
LJ           0.70451       -0.145189        0.721314
LJ          0.624996         1.73402        -1.57961
LJ         -0.610957         2.22645        -2.47497
LJ           2.50133        0.949218        0.164301
LJ           1.09362        -1.27181        0.474906
LJ           1.24728          2.5147        -1.37385
LJ         -0.178013        0.299817        0.504917
LJ          -1.24339         2.48362         1.33128
LJ           2.30581         2.11543         2.09748
LJ          0.816291         2.47656         2.55196
LJ         -0.110438         2.12066         1.45746
LJ           1.10464        -1.45513         2.50837
LJ          -1.67671         1.08639        0.799966
LJ           -1.1388        0.809831        -1.13414
LJ          0.483193         1.05363        0.280937
LJ          0.382478        -0.65856      -0.0585442
LJ           1.79358       -0.344949        -1.64335
LJ          -2.09603        -2.17255         1.59993
LJ             1.672         1.00072        -1.85456
LJ          0.162942        -1.75357         1.74908
LJ           1.40895       -0.492232          2.3447
LJ          -2.31998       -0.331416        -2.08096
LJ           1.81762        0.902256         2.03382
LJ         -0.306243         1.80106        -1.16954
LJ          -1.99008        -1.33929        -1.88743
