108
#Comment!
LJ          -2.53767        -2.27957         2.33512
LJ          -1.71401        -1.62011         2.38043
LJ          -2.18645        -1.55502        -1.72728
LJ          -1.66904        -2.41294        -1.74825
LJ         -0.810086         2.43675         2.45787
LJ        -0.0855088        -1.82458        -2.49061
LJ          -1.17459          -1.529        -1.84553
LJ          0.138186         2.37395        -1.89787
LJ          0.946422        -2.53165         2.53057
LJ           1.75605        -1.60887         2.46025
LJ          0.916819        -1.90702        -1.69607
LJ           1.98603         2.42508        -1.87034
LJ          -2.51384       -0.846499         2.37508
LJ          -1.78912     -0.00272735          2.4603
LJ          -2.56301       0.0195622        -1.80191
LJ          -1.78553       -0.548656        -1.61963
LJ          -1.11744       -0.817838        -2.50891
LJ        -0.0309479       -0.177471         -2.4024
LJ         -0.945027     -0.00442926        -1.75414
LJ         0.0548694        -1.07016        -1.74049
LJ          0.954496       -0.974021         2.55869
LJ           1.67424     -0.00482693         -2.4883
LJ          0.916512        0.164487        -1.76724
LJ           1.59432       -0.628727          -1.747
LJ          -2.48867         1.04144        -2.51044
LJ          -1.68244         1.95396         2.36233
LJ           2.55051         1.53104        -1.59299
LJ          -1.72205        0.781988        -1.84496
LJ         -0.515608        0.860668          2.4331
LJ          0.223753         1.66009         2.37239
LJ           -1.2051         1.67807        -1.85478
LJ         0.0389466         1.13371        -1.85047
LJ          0.970826        0.920083         2.49078
LJ           1.84244         1.75935        -2.55991
LJ          0.975704         1.79583        -1.89512
LJ           1.67489        0.954312        -1.64791
LJ          -2.54402         2.30935       -0.797193
LJ          -1.40001        -1.76484       -0.788053
LJ          -2.20342        -1.73309      -0.0905364
LJ          -1.64384         2.51885        0.150527
LJ         -0.531614        -2.50679        -0.99558
LJ         0.0622076        -1.63511       -0.823592
LJ         -0.740721        -2.03052      -0.0721421
LJ         -0.072253         2.29451       0.0519602
LJ          0.841044        -2.54962       -0.811595
LJ           2.02472        -1.74294       -0.946773
LJ          0.794283        -1.72551        0.348286
LJ           1.71548         2.55723      -0.0258066
LJ          -2.27883        -0.95922       -0.794938
LJ          -1.96083        0.038733       -0.805347
LJ          -2.48678       0.0341178        0.185297
LJ          -1.64242       -0.707776     0.000536018
LJ         -0.693162       -0.788366       -0.827673
LJ         -0.176253      -0.0150116        -1.13271
LJ         -0.739072       0.0143162      -0.0493487
LJ         0.0695423       -0.676885       0.0440199
LJ           1.01639        -1.19933         -0.8848
LJ            1.9587       -0.142948       -0.633144
LJ          0.952796       0.0912429         0.12194
LJ           2.01079       -0.947948      -0.0570994
LJ           2.45687        0.954428       -0.815877
LJ          -1.64623         1.77027       -0.823077
LJ           2.32248             1.6       0.0307722
LJ          -1.80696         1.00675        0.324158
LJ          -1.03461        0.733905       -0.852155
LJ         0.0404253         1.68178       -0.915734
LJ         -0.841985         1.56526       -0.254355
LJ        -0.0567887        0.749368       -0.193417
LJ           1.08963        0.811283       -0.850924
LJ           1.66952         1.66275       -0.734612
LJ          0.886287         1.75066        -0.14722
LJ            1.6693        0.859012      -0.0525675
LJ           2.49241         2.40671        0.713477
LJ          -1.29116        -1.86099        0.811013
LJ          -2.53484        -1.50614         1.48512
LJ          -1.84867        -2.29882         1.55184
LJ         -0.727957         2.43424        0.984813
LJ        -0.0250593        -1.55579        0.887788
LJ         -0.883641        -1.76637         1.92863
LJ         0.0520199        -2.29898         1.63367
LJ          0.842316         2.52672         1.05168
LJ           1.73047        -1.65354        0.892674
LJ          0.919595         -1.6707         1.71564
LJ           1.79639        -2.45635         1.61206
LJ          -2.47596       -0.824582        0.728401
LJ          -1.53677      -0.0294669         0.82949
LJ           2.46206       -0.043691         1.76027
LJ          -1.76836       -0.664844         1.58834
LJ         -0.824449       -0.852657         1.07038
LJ          0.216083      -0.0616892         1.01891
LJ         -0.927677        0.123058         1.82705
LJ          0.219286       -0.786686         1.73984
LJ          0.905418        -0.85358        0.752146
LJ           1.74286       -0.198629        0.755707
LJ          0.701195       0.0412087          1.9657
LJ           1.54751       -0.876273         1.61694
LJ           2.18652        0.803853        0.946794
LJ          -1.70946         1.92552         1.00698
LJ           2.38701         1.74054         1.62973
LJ          -1.90542        0.779268         1.41886
LJ         -0.816902        0.861514        0.673678
LJ          0.409224         1.50241        0.780516
LJ         -0.905561          1.4413         1.59308
LJ         0.0865865        0.868446         1.55726
LJ           1.13686        0.713793         1.09854
LJ            1.4638         1.70482        0.620652
LJ           1.10863         1.64197         1.67131
LJ           1.77947         0.94945         1.88969
