108
#Comment!
LJ          -2.04362         2.19361        -0.10233
LJ          0.578885        0.943777        0.240092
LJ          -1.32389       -0.334345         1.26814
LJ           1.43668       -0.607368         1.62854
LJ          0.883174        -1.69988       -0.101171
LJ           -2.3031       -0.524241       -0.646652
LJ           1.97577        -1.52156         1.65961
LJ          -1.91937      -0.0539646        0.420983
LJ           2.05925        -2.21063        -1.63745
LJ          -2.33265         -1.9992       -0.708851
LJ           2.02959         2.05378       -0.819295
LJ           1.00486        -1.93276         1.92309
LJ          -2.35518        0.874808        -2.51111
LJ         -0.255084         2.08501        -1.48778
LJ         -0.238367       -0.662434       -0.672854
LJ          -1.15337         2.25414       -0.963497
LJ           2.10614       -0.735978        0.621418
LJ          0.222843          1.2485        -1.12068
LJ           2.16478         1.18716         1.73914
LJ          -0.10696        0.458236         1.42821
LJ          -1.60994          1.7051         2.50502
LJ           1.25084        0.748011         2.47966
LJ           1.73971        -0.28355       -0.798576
LJ           1.20395         2.35838        -2.24023
LJ           1.32776       -0.263187        -2.39566
LJ         -0.894084         2.51309      -0.0540961
LJ         -0.942139         1.31226         1.75901
LJ           1.48182        0.247705        0.174827
LJ           2.43739        0.354466       -0.371766
LJ            1.4194         1.15187         0.80583
LJ          -0.33707        0.257146        -1.38002
LJ          0.884903        -1.75629        -2.06526
LJ          -1.00957        -1.24743        0.752336
LJ          -2.11972         1.04418        0.405025
LJ           1.95862         2.18582          1.3545
LJ          0.483786       -0.264965        -1.72479
LJ          -2.19604         2.06037        0.871316
LJ           2.47558        -1.22366        -1.45548
LJ          -2.04195        -1.73561        -2.44656
LJ          -2.28429        -1.71505        0.956086
LJ          -2.08257        0.300688         1.78853
LJ         -0.378029        -2.23285        0.763876
LJ           2.09287         1.25461       0.0296415
LJ          -1.96664        -1.04206        0.196643
LJ         -0.672675        0.765463        0.500625
LJ           1.06622        -2.45936        -1.13982
LJ           1.94242        -1.39023       -0.518461
LJ          0.599519        -1.14864        -1.24135
LJ           1.45939       -0.914521        -1.58502
LJ         0.0955893        -2.38706         -0.5881
LJ         -0.812114       -0.278041          0.1873
LJ          0.229753      -0.0348855        0.477202
LJ          -0.58004        0.590127         2.39467
LJ          -1.62068       -0.812847        -1.35121
LJ          0.607888        -1.24003        0.988765
LJ          0.856417       -0.751918       0.0735803
LJ           2.11994        -2.32081        0.402965
LJ          0.273307          1.3431         2.24983
LJ           2.16881         2.17754         2.39635
LJ           2.12619        0.134685         2.21097
LJ         -0.505071       -0.740986        -1.70792
LJ         -0.230526        -1.77729        -1.45227
LJ         -0.257875       -0.543024         1.14772
LJ          0.970666        -2.19165         0.90256
LJ         -0.130233        0.406124       -0.391684
LJ         -0.683114       -0.539179         2.14121
LJ          -1.05132         -1.3668        -2.44283
LJ           -1.9956          1.3749       -0.678415
LJ          0.971846         1.75256       -0.475962
LJ          0.451998         1.29947         1.20391
LJ          -1.02957         2.50016         1.59929
LJ            1.4976         2.10828        0.393081
LJ           1.73088         1.47246         -1.7862
LJ         -0.507177        -1.60873         1.71479
LJ           2.23073        0.093774        -1.78189
LJ          -1.15488       -0.165418       -0.744062
LJ          -1.06565        -1.34607       -0.548757
LJ          -2.16731        -2.47934         1.81981
LJ          0.893378        0.710116       -0.662614
LJ           0.43284      -0.0459317         2.13905
LJ          -1.38324       0.0515591        -2.36519
LJ           1.19821        0.585307        -1.68359
LJ         -0.455981         1.45957       -0.266356
LJ          -1.37924        0.701986       -0.217741
LJ          -2.37138         1.89737        -1.73328
LJ          -1.88557         1.44234          1.6229
LJ           2.17608        0.324354         1.10289
LJ        0.00281746         2.19578         1.52623
LJ        -0.0872209        -1.48296        0.026165
LJ          0.246777        -1.19797         2.34374
LJ           2.13407        0.982776        -1.07682
LJ           1.22945         1.77842         2.01172
LJ          0.432705         2.32346        0.314712
LJ          -1.62116        -1.27078         1.66637
LJ         -0.220298        -2.07393        -2.50606
LJ          -2.49438       -0.613767         1.47827
LJ          -2.06449         0.24238         -1.2079
LJ          -1.33142         1.01186        -1.97044
LJ         -0.788542         1.90001        0.707174
LJ         -0.561365         1.99309        -2.43227
LJ          -1.50766        -1.87948         -1.4685
LJ          -1.38883        -2.46918        -2.37695
LJ          0.157198        0.707948        -2.12319
LJ           2.13218        -1.04657        -2.40413
LJ          0.631198       -0.205102       -0.796676
LJ          -1.70041        -2.04577        0.201401
LJ          0.806252        0.297735         1.27977
LJ          -2.14892       -0.641335         2.53243
