108
#Comment!
LJ           2.40135        -2.56344         2.50912
LJ          -1.67333        -1.88833        -2.56242
LJ          -2.51947         -1.7138        -1.82296
LJ          -1.84239         2.47746        -1.71021
LJ         -0.938119         2.40259         2.48177
LJ         -0.152943        -1.87422        -2.44076
LJ          -0.84009        -1.65011        -1.59038
LJ         0.0124064         2.54007        -1.70304
LJ          0.832253         2.56277         -2.5137
LJ           1.63114        -1.78301         2.54301
LJ          0.802038        -1.48868        -1.57272
LJ           1.88414        -2.51893        -1.67795
LJ           2.49872       -0.913092         2.46278
LJ          -1.60819       0.0553047         2.52583
LJ          -2.53425       0.0999879        -1.76114
LJ          -1.78035        -0.98343        -1.67176
LJ          -1.14231       -0.873874         2.54126
LJ       -0.00356354      -0.0622216         2.52228
LJ          -0.77177        0.134575        -1.72637
LJ         0.0911442       -0.805779        -1.71387
LJ          0.871154       -0.910642        -2.50969
LJ           1.77631        0.116139        -2.54667
LJ          0.676986        0.159747        -1.66135
LJ           1.64916        -0.77298        -1.72991
LJ          -2.48013        0.848019         2.47282
LJ           -1.7911         1.80836         2.52042
LJ          -2.53144         1.63413        -1.83357
LJ          -1.73903        0.904212        -1.77437
LJ         -0.623776         1.01873          2.3288
LJ          0.184821          1.7476         2.43086
LJ         -0.812046         1.68856        -1.59999
LJ         -0.120143        0.926294        -1.76747
LJ          0.769006        0.872121        -2.37348
LJ           1.82179         1.72313        -2.52166
LJ          0.902648         1.79482        -1.60596
LJ           1.73453         0.80273        -1.70181
LJ          -2.50458        -2.48011       -0.831382
LJ          -1.47534        -1.75637        -0.72047
LJ           2.54154        -1.82975      -0.0635589
LJ          -1.65053         2.49156      0.00941376
LJ            -0.799         2.52926       -0.766871
LJ         -0.120788        -1.67262       -0.927406
LJ         -0.859298        -1.72654        0.145333
LJ         -0.162902         2.38644        0.021113
LJ          0.880776         2.47393       -0.821278
LJ           1.57282         -1.7971       -0.818635
LJ          0.721555        -1.81099        0.135178
LJ           1.62884        -2.49975       -0.097469
LJ          -2.50955       -0.927002       -0.799741
LJ          -1.95253        0.195182        -0.81611
LJ           2.47817       0.0653482      -0.0346661
LJ          -1.67835       -0.875368      -0.0740403
LJ         -0.879589       -0.741161       -0.755029
LJ        -0.0344632       0.0350793        -0.72045
LJ         -0.925096       0.0346349      -0.0385055
LJ        -0.0762434       -0.697031      -0.0463678
LJ          0.962681       -0.761667       -0.778662
LJ           1.78831       -0.150273       -0.821809
LJ          0.883811      -0.0566899      -0.0733739
LJ           1.72008        -1.03598       -0.120172
LJ          -2.54594         1.05352         -0.7742
LJ          -1.68746         1.76076       -0.956791
LJ           -2.5609         1.77298        0.133153
LJ          -1.83749        0.927541       0.0640821
LJ         -0.806646        0.696453       -0.847593
LJ        -0.0589717         1.75034       -0.951811
LJ         -0.972841         1.67488        -0.18114
LJ         -0.117183         1.02651       -0.075507
LJ          0.698899        0.930032       -0.813405
LJ           1.76517         1.92256       -0.929201
LJ          0.654632         1.77468      -0.0467434
LJ           1.63693        0.830752       0.0104025
LJ             2.529         2.49915        0.910394
LJ          -1.58355        -1.71692        0.906592
LJ           2.41941         -1.7105           1.654
LJ           -1.9072          2.5124         1.65164
LJ         -0.729549         2.48472        0.777002
LJ       -0.00159908        -1.73407        0.808893
LJ         -0.862294        -1.64342         1.73768
LJ          0.155979        -2.49027         1.80244
LJ           1.06963         2.53008        0.986008
LJ           1.79959        -1.80313        0.825477
LJ          0.908091        -1.62818         1.59726
LJ           1.71919        -2.44577         1.79317
LJ           2.44721       -0.651691        0.873081
LJ          -1.82348       0.0246084        0.909532
LJ          -2.47779      -0.0163252         1.96503
LJ          -1.80543       -0.854096         1.67123
LJ         -0.693635       -0.898442        0.781803
LJ           0.14147       0.0263127        0.769533
LJ         -0.644597       0.0574214         1.70972
LJ        -0.0264621       -0.926181         1.58223
LJ          0.718308       -0.877736        0.809217
LJ           1.60474       0.0237838        0.785297
LJ          0.799923       -0.190238         1.81832
LJ            1.6672       -0.846349         1.63842
LJ           2.40747        0.909932        0.843442
LJ          -1.79137         1.73039         0.82561
LJ            2.5538         1.70669         1.83985
LJ          -1.79034        0.711056         1.61038
LJ         -0.873131        0.741909        0.851472
LJ         0.0121998         1.57781        0.885902
LJ         -0.889786         1.76541         1.57354
LJ        0.00798826         0.81506         1.58671
LJ          0.812765         0.80665        0.927534
LJ           1.74691         1.78035         0.83593
LJ          0.853447         1.60662         1.71024
LJ           1.68783         1.04505         1.67648
