108
#Comment!
LJ          -2.50595          -2.451         2.54675
LJ          -1.68597        -1.50126         2.50257
LJ           -2.2716        -1.50857        -1.76558
LJ          -1.63199        -2.44475        -1.78992
LJ         -0.764881         2.29971        -2.42346
LJ         -0.128369        -1.53536          2.4824
LJ         -0.966445        -1.52735        -1.92902
LJ         0.0594455        -2.56401        -1.86682
LJ           1.04859        -2.37216        -2.42077
LJ           1.72006        -1.53352         2.42279
LJ           1.19054        -1.69026        -1.69421
LJ           1.84793         2.50572        -1.63769
LJ           2.40588       -0.662986         2.56431
LJ          -1.77169      -0.0348423         2.33675
LJ          -2.48982      -0.0478079        -1.72687
LJ          -1.55827       -0.599941        -1.73977
LJ         -0.873753       -0.742543        -2.53724
LJ         0.0875776       -0.128341        -2.37051
LJ         -0.798554       0.0720431        -1.70517
LJ          0.148103       -0.963173         -1.7062
LJ          0.727124       -0.982045        -2.48063
LJ           1.63358       0.0301023        -2.42054
LJ          0.836848        0.152187        -1.73248
LJ           1.56227       -0.593429        -1.53111
LJ          -2.50638         0.85297        -2.40466
LJ          -1.82166         1.95848         2.36306
LJ          -2.47137         1.69118        -1.56513
LJ          -1.55047        0.736469        -2.01613
LJ           -0.5514        0.758586        -2.55021
LJ         0.0289976         1.72854         2.29989
LJ          -1.29726         1.72008        -1.75922
LJ         0.0478221         1.02944        -1.70983
LJ           1.05549         1.05042        -2.52719
LJ           1.74375         1.87659         2.48176
LJ          0.941469         1.94236        -1.80248
LJ           1.83618         0.93541         -1.7981
LJ          -2.52969         2.50827       -0.716653
LJ          -1.41416        -1.70368       -0.905496
LJ          -2.31873        -1.63327       -0.128004
LJ          -1.58078         2.39909        0.177303
LJ         -0.680182        -2.46398        -0.97481
LJ         0.0510708        -1.79969       -0.702316
LJ         -0.738231        -1.73648      -0.0132455
LJ        -0.0192176         2.32835        0.188352
LJ          0.784507         2.52335        -1.00571
LJ           1.90397        -1.61372       -0.910799
LJ          0.919312        -1.86346        0.260103
LJ           1.73853        -2.47208       0.0910741
LJ          -2.39448       -0.804838       -0.877234
LJ          -1.78823        0.180717       -0.917829
LJ          -2.35032       0.0838711      -0.0252845
LJ          -1.60809        -0.68295       -0.048701
LJ         -0.715615       -0.795501        -0.68079
LJ        -0.0433625        0.092897        -1.01112
LJ          -0.67409      -0.0585709        0.116426
LJ        -0.0307327       -0.900018        0.197002
LJ           1.00645         -1.0809        -0.69852
LJ           1.79702       -0.256612       -0.660619
LJ          0.829696       0.0708462        0.108462
LJ           1.94494        -1.03657     -0.00455677
LJ            2.4617        0.781394       -0.731848
LJ          -1.83928         1.72478       -0.695387
LJ           2.50556         1.70926       -0.018326
LJ          -1.77807        0.874654        0.174331
LJ          -1.01647        0.754098       -0.943747
LJ         0.0531607         1.72594        -0.84297
LJ         -0.687346         1.65826      -0.0723764
LJ         0.0241098        0.846643        -0.13045
LJ          0.844007          1.0279       -0.954785
LJ           1.65914          1.7058       -0.826013
LJ          0.934732         1.65009       -0.142279
LJ           1.64075         0.80818       0.0690241
LJ           2.48457          2.4251        0.760205
LJ          -1.49756        -1.82457        0.801657
LJ           2.49103        -1.41714         1.60375
LJ          -1.91687        -2.31916         1.64487
LJ         -0.858447         2.43272        0.952038
LJ         0.0281278        -1.47066         1.10646
LJ         -0.870459        -1.69572         1.78734
LJ        -0.0191189        -2.31352         1.75673
LJ          0.809264          2.3635        0.913883
LJ           1.69315        -1.57409         1.02837
LJ          0.780514        -1.64103         1.77128
LJ            1.7325        -2.51066         1.52113
LJ          -2.34073       -0.778432        0.721772
LJ          -1.70313       0.0760236        0.816078
LJ           2.46326       0.0305256         1.62083
LJ          -1.66546       -0.914289          1.5724
LJ         -0.846007       -0.855424         1.03531
LJ          0.139036       -0.206497        0.845943
LJ         -0.922822       0.0249359          1.8196
LJ          0.188211       -0.776205         1.79241
LJ           1.06957       -0.849233        0.572535
LJ           1.76968       -0.294025        0.861338
LJ          0.803225       0.0120377         1.72181
LJ           1.45905       -0.775703         1.71608
LJ             2.351         0.90642         1.08928
LJ          -1.84776         1.67302        0.956764
LJ           2.46159         1.84011         1.60697
LJ          -1.75622        0.835309         1.69809
LJ           -0.8801        0.973873        0.828076
LJ          0.379529         1.36926        0.732339
LJ         -0.756363         1.43722         1.68224
LJ           0.12381        0.760598         1.68717
LJ           1.17197        0.589665        0.998586
LJ           1.54988         1.80768         0.71322
LJ          0.969164         1.70166         1.68554
LJ           1.83086         1.01653         1.88241
