108
#Comment!
LJ           2.55713        -2.43409        -2.55452
LJ          -1.72323        -1.68433         2.48738
LJ           2.49277        -1.70045        -1.72005
LJ          -1.71868        -2.36567        -1.74774
LJ           -0.8298         2.54032         2.54268
LJ         0.0325362        -2.02195        -2.52506
LJ           -1.0851        -1.43411        -1.57744
LJ         0.0579668         2.25653        -1.67946
LJ          0.955642         2.32278        -2.49688
LJ           1.78968        -1.74467         2.52834
LJ           1.01061        -1.72377        -1.66966
LJ           1.91645         2.47706        -1.57656
LJ           2.41004       -0.802438         2.52043
LJ          -1.82683        0.123973         2.51341
LJ           2.55134        0.160261        -1.89337
LJ          -1.64358       -0.554537        -1.57595
LJ          -1.12849        -0.85994        -2.44165
LJ        0.00176462       -0.223572        -2.47518
LJ         -0.836423      -0.0628705        -1.65737
LJ         -0.103857        -1.04412        -1.88129
LJ           1.02877        -1.05744        -2.46037
LJ           1.68686       0.0293084         -2.4807
LJ           0.78703        0.030094        -1.77054
LJ            1.6436       -0.717863        -1.75174
LJ          -2.43874         1.09103         2.48076
LJ          -1.76187         1.88609        -2.56368
LJ          -2.48224         1.63323        -1.62477
LJ          -1.50702        0.884574        -1.80358
LJ         -0.657708         1.08853         2.55998
LJ          0.109315            1.77         2.47858
LJ         -0.796383         1.72375        -1.66959
LJ         0.0319895         1.07575        -1.73987
LJ           1.03224        0.853095        -2.53324
LJ           1.83613         1.82376         2.50594
LJ          0.897998         1.74709        -1.64469
LJ           1.77137        0.896661         -1.8451
LJ           2.44474         2.38061       -0.673375
LJ          -1.47568        -1.93429       -0.750719
LJ          -2.48965        -1.80493       -0.109936
LJ          -1.79724         2.41335       -0.049543
LJ         -0.642296        -2.47831        -1.03099
LJ          0.115404        -1.66537       -0.876669
LJ         -0.439876        -1.72633      -0.0242773
LJ         -0.287957         2.40803        0.125438
LJ          0.825746        -2.53277       -0.989039
LJ           1.75637        -1.69881       -0.967515
LJ          0.614115        -2.10281       0.0162054
LJ           1.75426        -2.34815      -0.0567769
LJ          -2.40884       -0.906734       -0.653282
LJ          -1.82112       0.0757022       -0.671091
LJ           2.47275       0.0679272     -0.00293367
LJ          -1.51093       -0.941147      -0.0184324
LJ         -0.603929       -0.881352       -0.762926
LJ        -0.0536712        0.268995       -0.978493
LJ         -0.930642      -0.0959583       -0.121574
LJ         0.0149062       -0.768195        0.237141
LJ          0.874319        -1.06561       -0.740637
LJ           1.94351       -0.175375       -0.891127
LJ          0.756377     -0.00855038      -0.0615801
LJ           1.64157        -0.91189       -0.115116
LJ          -2.41069         0.89471       -0.969147
LJ          -1.57525         1.71816       -0.816829
LJ           2.43203         1.70457        0.117677
LJ          -1.94813         1.00731      0.00659865
LJ          -1.07579        0.689702       -0.858654
LJ         0.0228156         1.67508       -0.795789
LJ         -0.783479         1.54681       -0.168277
LJ        -0.0578494        0.871826       0.0468311
LJ          0.757146         1.00494       -0.613423
LJ           1.56174         1.63053       -0.986569
LJ           0.87258         2.04249        -0.03338
LJ           1.71807         0.80612       -0.246009
LJ           2.44135          2.4897        0.854022
LJ          -1.41578        -1.75037        0.642743
LJ           2.47236        -1.56877          1.8257
LJ          -2.01738         2.53662         1.70069
LJ          -0.70865        -2.46367         1.10432
LJ          0.119371        -1.67511        0.927562
LJ         -0.901406        -1.71118         1.69242
LJ         0.0744202        -2.33994         1.77506
LJ          0.905109         2.45402        0.883202
LJ           1.93532        -1.49242        0.695574
LJ          0.971469        -1.86027         1.66405
LJ           1.70921         2.53305         1.73635
LJ           2.52026       -0.630263         1.03685
LJ          -1.69178      -0.0846164        0.899558
LJ           2.53395      0.00737784         1.87498
LJ          -1.69542       -0.914189         1.60853
LJ            -0.713       -0.823749        0.949475
LJ         0.0710039      -0.0166684        0.995452
LJ         -0.886326        0.200318         1.98116
LJ          0.134704       -0.874733         1.88536
LJ           1.04136       -0.979908        0.689446
LJ            1.6958       -0.168895        0.754945
LJ          0.799271      -0.0246814         1.92487
LJ           1.68852         -0.8564         1.67736
LJ           2.50245        0.864439        0.921455
LJ          -1.47546         1.86712        0.780485
LJ           2.40876         1.72114         1.57544
LJ           -1.7218        0.972409         1.54748
LJ          -0.87907         0.66164        0.841895
LJ          0.245664         1.45163        0.853825
LJ         -0.893794         1.58158          1.5499
LJ        0.00221566        0.874484         1.64154
LJ           1.02128        0.699766         0.81587
LJ           1.63551         1.69199        0.644174
LJ          0.888059         1.54231         1.82714
LJ           1.73444        0.814751         1.77653
