108
#Comment!
LJ         -0.165366        -1.28312        -1.09552
LJ          -2.39461        -1.75888         1.32222
LJ          0.349374         1.24587        0.155782
LJ          -1.14435        -1.42389        -1.90659
LJ          -2.38881       0.0618179         1.82582
LJ          0.320509        -1.92033        0.958872
LJ          0.935039       -0.679546         -0.4405
LJ         0.0389289          -1.472        -2.27718
LJ         -0.163332        0.710919        -1.85497
LJ           1.37872         2.15371        -2.53901
LJ          -0.19939        -2.13789        0.148555
LJ         -0.662548        -1.46758         2.17909
LJ           -1.6874         2.00744       -0.360768
LJ          -1.45114        0.633903         1.49075
LJ          0.686275        0.207831        -2.15292
LJ          0.741775        -1.69581       -0.313805
LJ           2.48565         1.60368        0.214781
LJ             2.177        0.680963       -0.780917
LJ         -0.782374         1.94824         1.80312
LJ           1.28153        0.609498         1.85515
LJ          0.912596        -2.08627         2.08869
LJ          0.259063         1.70697        -1.62218
LJ         -0.613325       -0.624709        -1.91114
LJ           1.66543       -0.309419         1.65619
LJ           1.05086        -2.11273        -1.46214
LJ           2.17046          2.1682         1.03776
LJ           1.33809        -1.61801         1.26539
LJ          -1.35582       -0.433467         1.94422
LJ          0.224617         1.58339         1.52169
LJ           -2.4162        -1.05017         -0.9372
LJ          -1.23635         1.01357         0.37993
LJ          -1.17692        -2.15603         1.35167
LJ           2.09093        -2.04439        -0.91513
LJ          -1.59989         2.08905        -1.94468
LJ          -2.07267        -1.33809        0.235852
LJ          -1.88181         1.70013         1.30731
LJ         0.0283562        -2.43151         1.75412
LJ           1.74246       -0.541185        -1.89504
LJ          0.713868          2.3306         -0.4815
LJ           1.11525        0.589357       -0.122696
LJ         -0.285706       -0.346328       -0.684055
LJ          -1.25954      -0.0860728        0.575875
LJ          -0.89577        -1.71111       -0.545012
LJ          -2.38999        -2.15116         -2.5375
LJ           1.23089        -2.33566        0.420277
LJ          -1.90757        -1.96702        -0.55597
LJ          -1.87474       -0.584932        -2.26959
LJ           1.04122         2.27349         1.45989
LJ         -0.783881         -1.4063        0.782595
LJ         -0.347612       -0.356921          1.0856
LJ          -2.18306        0.558064      0.00680201
LJ           1.99323        -2.49036         1.96091
LJ          0.151474        0.425061         1.78103
LJ          -1.81544         2.45079         1.99233
LJ           1.53279         1.72632       -0.118825
LJ         -0.199842         1.41902         2.53609
LJ          -2.44673         1.89915        -2.48554
LJ         0.0734868        -2.29842         -1.3773
LJ          -1.19145        0.276262        -1.89323
LJ          0.138075        0.552891       -0.854835
LJ           2.34231        -1.28655         2.15001
LJ          -1.71389        -1.43619         2.10095
LJ           1.29485         1.43841        0.868254
LJ           1.38297        -1.21227        -1.24299
LJ          -0.18435        0.274464        0.191668
LJ           1.00373         1.26663       -0.857457
LJ          0.759764       -0.814767        0.782041
LJ           1.35692        0.273909        -1.42943
LJ          -1.80157       -0.903897         1.17932
LJ           2.41486         1.25902        -1.56697
LJ           2.42284        0.896683         1.28498
LJ          0.845821       -0.953141         1.92504
LJ          -1.27907        0.361491       -0.809746
LJ           2.34552        -2.29999         0.24144
LJ          0.699835         1.15296         2.55604
LJ          -1.85519        -2.45772        0.658432
LJ          0.656698       -0.582654        -1.52793
LJ          -2.33206       -0.440377       -0.174362
LJ         -0.721148          1.1548       -0.994437
LJ           2.32552       -0.870633         1.05867
LJ          -1.00642       -0.779747      -0.0937822
LJ         -0.493958        0.964382         1.18932
LJ         -0.932034        -2.45693        -1.27961
LJ          -2.25517        0.175244        -1.41219
LJ           1.89339       -0.436686       -0.736652
LJ          0.438725         2.48271        -2.17884
LJ           2.20607         -1.4678         -1.9749
LJ         -0.240221       -0.453502         2.31608
LJ         -0.883807        -2.41332        -2.56293
LJ         -0.339974         2.15357       -0.450964
LJ           2.02102         -1.2899         0.12276
LJ          -2.15508        -2.13677        -1.49461
LJ           2.08716        -2.48193        -1.84935
LJ          -2.31119      -0.0609365        0.747018
LJ           1.05823        -1.25259        -2.26031
LJ          0.661442        0.520261        0.876951
LJ           1.69526         0.79765        -2.24373
LJ           1.70707       -0.344872        0.361571
LJ        -0.0038212        -1.03573        0.177202
LJ          -1.56344         1.42039         2.33174
LJ          -0.41458         1.92296        0.727463
LJ          -1.70634         1.22598        -1.13206
LJ           1.35796         1.85659         -1.5694
LJ           2.01739         0.66705        0.438232
LJ          -2.21534        0.765319         -2.2903
LJ           2.04013         1.54029         1.93531
LJ           2.50728         2.14928       -0.811471
LJ          -1.29463       -0.581905        -1.13454
