108
#Comment!
LJ           2.47717        -2.53936         2.54191
LJ          -1.68689        -1.88883         2.53025
LJ          -2.50854        -1.67018        -1.77196
LJ          -1.85904         2.53811         -1.7146
LJ         -0.903853         2.33748          2.4635
LJ         -0.178147        -1.83055         -2.5124
LJ         -0.831559        -1.62665         -1.5461
LJ        -0.0153038        -2.56235         -1.6801
LJ            0.9017         2.53715         -2.5446
LJ           1.62724          -1.816        -2.54842
LJ           0.84982        -1.49358        -1.61221
LJ           1.89861        -2.44631        -1.73332
LJ           2.42808       -0.870073         2.52723
LJ          -1.57882       0.0456567          2.5389
LJ           2.55801        0.133919        -1.82295
LJ          -1.80977       -0.905652        -1.71116
LJ          -1.14568        -0.83024         2.56413
LJ         0.0221254       -0.142329         2.48302
LJ         -0.845652       0.0576722        -1.72696
LJ         0.0655956       -0.830661        -1.71759
LJ          0.892794       -0.961906        -2.55836
LJ            1.7902        0.126199         -2.5237
LJ          0.742374        0.202124        -1.67004
LJ           1.67893       -0.825664        -1.66326
LJ          -2.51225        0.822312         2.50758
LJ          -1.74748          1.7855         2.52519
LJ          -2.51791         1.58101        -1.76917
LJ          -1.76294        0.921151        -1.69059
LJ         -0.718289        0.968238         2.29007
LJ          0.222967          1.7584         2.40003
LJ         -0.909053         1.61555         -1.6307
LJ         -0.112686        0.901532        -1.85349
LJ          0.795194        0.960668        -2.38995
LJ              1.76         1.71605        -2.50476
LJ           0.95712         1.77753        -1.65398
LJ           1.73114        0.856244        -1.73876
LJ          -2.49044        -2.42644       -0.823093
LJ           -1.5046        -1.68959       -0.753727
LJ           2.48077        -1.74991      0.00632832
LJ          -1.56878         2.53285      -0.0112734
LJ         -0.771988        -2.54696       -0.829456
LJ         -0.078692        -1.75015       -0.917494
LJ         -0.879558        -1.71819        0.156893
LJ         -0.151316         2.40295      -0.0381686
LJ          0.818508         2.54229       -0.866239
LJ           1.57446        -1.83207       -0.824995
LJ          0.721135        -1.75496        0.150845
LJ            1.6555        -2.51515      -0.0620767
LJ            -2.474       -0.934239       -0.800586
LJ          -1.95837        0.211806       -0.807892
LJ           2.42332       0.0118201      -0.0606749
LJ          -1.65644        -0.86564      -0.0396743
LJ          -0.90709        -0.74587       -0.837239
LJ        -0.0168316      -0.0146681        -0.77208
LJ         -0.851162      -0.0197168      -0.0535566
LJ        -0.0679445       -0.693692       0.0136952
LJ          0.964304       -0.848888       -0.756702
LJ           1.71546       -0.197045       -0.808508
LJ          0.875641      -0.0488072       -0.109667
LJ           1.73657        -1.04056       -0.124555
LJ          -2.45639         1.06686        -0.89268
LJ          -1.73033         1.76326        -0.98538
LJ          -2.54326         1.78785        0.107924
LJ          -1.76006         0.92012         0.11144
LJ         -0.854184        0.762482       -0.777865
LJ         -0.122312         1.68863       -0.983536
LJ          -0.89504         1.71525        -0.13427
LJ          -0.12874        0.957335      -0.0166919
LJ          0.665902        0.922355       -0.841652
LJ           1.70858         1.89429       -0.900991
LJ          0.690272         1.76039      -0.0721221
LJ           1.64829        0.811405       0.0848295
LJ           2.52294         2.51394        0.932456
LJ          -1.58529         -1.7404        0.915996
LJ            2.3525        -1.69506         1.70856
LJ           -1.8429         2.51255         1.61561
LJ          -0.85051         2.47835        0.777002
LJ         0.0438317        -1.69912        0.894316
LJ         -0.891909        -1.73234         1.69423
LJ          0.100253        -2.46687           1.924
LJ           1.07994         2.50438        0.974234
LJ           1.71814        -1.79452        0.848153
LJ          0.960456        -1.55404         1.64455
LJ           1.68136        -2.53653         1.78635
LJ           2.46413       -0.627492        0.900087
LJ          -1.80519       0.0329225        0.889384
LJ           -2.4576      -0.0253698         1.98148
LJ          -1.77837       -0.819823         1.69186
LJ         -0.703954       -0.883368        0.787362
LJ         0.0385234      -0.0192653        0.838576
LJ         -0.665097       0.0517046         1.76721
LJ        -0.0158265       -0.844339          1.5874
LJ          0.796334       -0.963787          0.7803
LJ           1.62814      -0.0368977        0.744804
LJ          0.866759       -0.166793         1.78316
LJ           1.67483        -0.85182         1.69851
LJ           2.38904        0.941202        0.903924
LJ          -1.78331          1.7226        0.799769
LJ          -2.51665         1.70799         1.80172
LJ          -1.76182        0.796673         1.67374
LJ         -0.832703        0.656485        0.872081
LJ        -0.0377941          1.6548        0.890423
LJ         -0.794228         1.76247          1.6313
LJ         0.0627371        0.772186         1.57869
LJ          0.876497        0.794853        0.795871
LJ            1.7928         1.75587        0.813932
LJ          0.850505         1.61367         1.67276
LJ           1.66454         1.05533          1.6291
