108
#Comment!
LJ           2.50422        -2.51558         2.50867
LJ           -1.7576        -1.79332         2.46133
LJ          -2.44323        -1.68356        -1.53089
LJ          -1.85466        -2.45571        -1.80651
LJ          -1.01174         2.46228         2.48712
LJ         -0.139917        -1.91089        -2.55616
LJ         -0.905079        -1.50196        -1.70681
LJ         0.0926191         2.36761        -1.70708
LJ          0.909977         2.51773        -2.43928
LJ           1.73594        -1.71698         2.49049
LJ          0.853903         -1.6398        -1.56077
LJ           2.03543        -2.50367        -1.62395
LJ           2.42615       -0.796801        -2.51571
LJ          -1.85465        0.122145         2.47294
LJ          -2.49797        0.130425        -1.76673
LJ          -1.64575       -0.631884        -1.38171
LJ          -1.23118       -0.905445         2.55092
LJ        -0.0719926       -0.251918         2.53281
LJ         -0.860415        0.116165        -1.74776
LJ         0.0432002       -0.924882        -1.78745
LJ           1.02978        -1.02673        -2.54409
LJ           1.68055       0.0569808         2.53164
LJ          0.751153      0.00899638        -1.58302
LJ           1.81219       -0.820576        -1.67107
LJ          -2.52696         1.09868         2.43348
LJ          -1.79055         1.88325        -2.56285
LJ          -2.56184          1.6437        -1.73742
LJ          -1.65939        0.965118        -1.87421
LJ         -0.808666         1.03209          2.4937
LJ         0.0560103         1.70236         2.42047
LJ         -0.798475         1.60113         -1.8212
LJ        -0.0482303        0.840489        -1.76437
LJ          0.909428        0.880404        -2.41781
LJ           1.81424         1.88153         2.49852
LJ           1.01246         1.77107        -1.53771
LJ           1.82222        0.835283        -1.77397
LJ           -2.4144         2.51289       -0.689217
LJ          -1.56704        -1.85386       -0.640082
LJ           2.55044        -1.74792       -0.122791
LJ          -1.66469         2.42539      0.00680849
LJ          -0.78821         2.45272        -0.96759
LJ         0.0597134        -1.71038       -0.917814
LJ         -0.798107          -1.814       0.0206135
LJ         -0.253025         2.34272      -0.0169048
LJ          0.851837        -2.50279       -0.969813
LJ           1.74578        -1.61564       -0.889224
LJ          0.696219        -2.01039        0.122981
LJ           1.63456        -2.40442       -0.154773
LJ           2.48996       -0.814404       -0.765665
LJ            -1.881        0.139077       -0.746103
LJ           2.50438      -0.0771487       0.0547037
LJ          -1.70953        -0.81513       -0.026021
LJ         -0.745505       -0.719987       -0.776871
LJ        -0.0143262        0.246365       -0.924783
LJ         -0.805143      -0.0365863      -0.0677113
LJ         0.0594573       -0.774694       0.0831919
LJ          0.786538       -0.920407       -0.698956
LJ           1.71434      -0.0584707       -0.842959
LJ          0.827135       0.0651161      -0.0659211
LJ           1.60251       -0.910289      -0.0930611
LJ            -2.503         1.00222       -0.876724
LJ          -1.58362         1.71804        -1.08895
LJ          -2.55974         1.70439       0.0844785
LJ          -1.84968        0.811127         0.08993
LJ          -1.03766         0.80446       -0.846922
LJ        -0.0932983         1.52217       -0.929789
LJ         -0.830315           1.504      -0.0552676
LJ         0.0426161        0.929873        0.112212
LJ          0.865705         1.00201       -0.725094
LJ           1.85213         1.66477       -0.995397
LJ          0.865719         1.94151      -0.0148683
LJ           1.77866        0.888268       -0.119037
LJ           2.40728        -2.53047        0.911251
LJ          -1.50673        -1.65136        0.839248
LJ           2.55052        -1.49327         1.83239
LJ           -2.0301         2.50148         1.67427
LJ          -0.70544        -2.51547         0.98528
LJ          0.193404        -1.84764           0.922
LJ         -0.965429        -1.65433         1.75431
LJ         0.0669445         -2.3935         1.74075
LJ           1.12464        -2.55578        0.888711
LJ           1.77387        -1.47636        0.852795
LJ          0.877699        -1.72641         1.67655
LJ           1.54649        -2.43901         1.84871
LJ           2.48806       -0.582735         1.03341
LJ          -1.83882       0.0595738        0.891709
LJ           2.51118       0.0242473         1.84305
LJ          -1.63837       -0.883626         1.57697
LJ          -0.70134       -0.903402        0.995936
LJ         0.0802992       -0.110762        0.964745
LJ         -0.909104       0.0982903         2.03682
LJ          0.136469       -0.917543         1.65607
LJ          0.960651       -0.776538        0.852735
LJ           1.63017       -0.120488        0.548313
LJ          0.718672       -0.144326         1.91727
LJ           1.75138       -0.806388         1.71015
LJ           2.41474        0.745152        0.723789
LJ          -1.51417         1.88402        0.784088
LJ          -2.54466         1.56326         1.48532
LJ          -1.52733        0.892624         1.74021
LJ         -0.955779        0.698772        0.719642
LJ         0.0749438         1.65185        0.887762
LJ         -0.798532         1.67246         1.46965
LJ        -0.0111737        0.911298         1.68861
LJ          0.793865        0.666169        0.981771
LJ           1.80615         1.74665        0.824918
LJ           1.06192         1.63468         1.76822
LJ           1.75368        0.812714         1.58001
