108
#Comment!
LJ          -2.53211        -2.51546          2.4313
LJ          -1.76228        -1.65028          2.4576
LJ          -2.48596        -1.65173        -1.83653
LJ          -1.75792         2.51476         -1.7134
LJ         -0.870979         2.55741        -2.48794
LJ        -0.0200828        -2.02336        -2.45784
LJ           -1.1359           -1.47        -1.76124
LJ        -0.0184701         2.28003         -1.7909
LJ          0.799906        -2.56071         2.46403
LJ           1.74609        -1.70329        -2.55699
LJ          0.736528        -1.91989        -1.79418
LJ           1.91931         2.44316        -1.69471
LJ           2.48195       -0.859747         2.53488
LJ           -1.7448      0.00745345        -2.54829
LJ           2.48999       0.0870883        -1.90531
LJ          -1.72295       -0.579032        -1.66696
LJ          -1.10922       -0.691844        -2.46477
LJ         -0.126086       -0.255339        -2.52687
LJ         -0.848697        0.045953        -1.82329
LJ         -0.123433        -1.16915        -1.92524
LJ          0.930214        -1.17185         -2.5001
LJ           1.69181      -0.0190692          2.5329
LJ          0.891794         0.12355         -1.8662
LJ           1.70092       -0.613129        -1.84038
LJ           2.55694        0.882179         2.50711
LJ          -1.68843         1.94437         2.50183
LJ          -2.39747         1.56566        -1.64952
LJ           -1.6759        0.846482        -1.83794
LJ          -0.61919          0.9804         2.49779
LJ            0.1491         1.74635         2.36376
LJ          -1.09241         1.65234        -1.78712
LJ          0.131997         1.06107        -1.83051
LJ          0.822469         0.91961         2.46451
LJ           1.76811         1.87607         2.34667
LJ          0.991116         1.92537        -1.87035
LJ           1.63028        0.998801        -1.66647
LJ           2.46697         2.41541        -0.75525
LJ          -1.37318          -1.711       -0.794856
LJ           -2.4162        -1.87916       -0.171721
LJ          -1.64051         2.40068       -0.044311
LJ         -0.858894        -2.54721         -1.0991
LJ          0.185404        -1.65194       -0.820215
LJ         -0.638202        -1.91323      -0.0979007
LJ         -0.154664         2.36709       0.0292229
LJ          0.725884         -2.4616       -0.922718
LJ           1.93941        -1.84014         -1.0614
LJ          0.769228         -1.8902        0.247905
LJ           1.66451        -2.44608       -0.114532
LJ          -2.53139       -0.843959        -0.77347
LJ          -1.90558        0.102588       -0.820119
LJ          -2.48804        0.140072      0.00864383
LJ          -1.78169       -0.853495        0.102427
LJ         -0.609524       -0.819544       -0.638118
LJ         -0.109342        0.273024        -0.99221
LJ         -0.678205       0.0634874        0.104985
LJ         -0.023422       -0.756907        0.215901
LJ          0.792243       -0.888305       -0.638438
LJ           1.94252      -0.0876951       -0.721099
LJ          0.606099       0.0167622       0.0334247
LJ           1.83823         -1.2441       -0.227374
LJ          -2.54219         1.02545        -0.80674
LJ           -1.5915         1.75799       -0.761918
LJ           2.50998         1.63524      -0.0913148
LJ          -1.87448         1.06569         0.28578
LJ          -1.08781        0.777612       -0.848089
LJ          0.130784         1.73306       -0.985123
LJ         -0.749091         1.53057      -0.0521424
LJ          0.146587        0.934474      -0.0769029
LJ          0.889015        0.933931       -0.810437
LJ           1.71467         1.73826        -0.82045
LJ          0.794412         1.97786       -0.043556
LJ           1.63748        0.833896        -0.10446
LJ           2.46055         2.36537        0.705212
LJ           -1.4118        -1.78573        0.699416
LJ           2.50178        -1.58814         1.64792
LJ          -2.06908        -2.43279         1.37683
LJ         -0.671535         2.43341         1.12065
LJ          0.131114        -1.56514        0.925702
LJ          -1.00084        -1.85738         1.86106
LJ         0.0568654         -2.3649         1.70728
LJ          0.837335          2.3202        0.990698
LJ           1.95987        -1.66743        0.830581
LJ           1.00205        -1.84106         1.76049
LJ           1.69865        -2.55312         1.60005
LJ           2.49941       -0.690159        0.976269
LJ          -1.68516       0.0508193        0.761987
LJ           2.51914       0.0559257         1.76557
LJ          -1.77405       -0.731094         1.78692
LJ         -0.732509        -1.05839         1.03379
LJ         0.0710006       -0.126091         1.07155
LJ          -0.85673        0.177456         1.95427
LJ          0.152419        -1.00671         1.87357
LJ           1.10183        -1.07309        0.735805
LJ           1.52259       -0.101965        0.608114
LJ          0.771796     -0.00877245         1.94422
LJ           1.66884       -0.776933         1.83704
LJ           2.33194        0.828539        0.789354
LJ          -1.61592         1.90931        0.880222
LJ           2.43619         1.58694         1.50705
LJ          -1.82046         1.05036         1.58215
LJ          -0.90326        0.801443        0.865901
LJ          0.128081          1.4012        0.809226
LJ         -0.788331         1.55064         1.55738
LJ          0.188104         0.87898         1.63633
LJ           1.01401        0.751789         1.01114
LJ           1.59663         1.64395        0.596224
LJ          0.848214          1.5403         1.64905
LJ           1.66666        0.886196         1.81077
