108
#Comment!
LJ           2.47193        -2.50366         2.55487
LJ          -1.77038        -1.71625         2.46263
LJ           2.51702        -1.71877        -1.76712
LJ          -1.76289        -2.54256        -1.58494
LJ         -0.874112         2.48301         2.55635
LJ         0.0581302        -2.07026        -2.46182
LJ          -1.20023        -1.46241        -1.73015
LJ        -0.0695212         2.23246        -1.80834
LJ          0.880212          2.5176         2.44938
LJ           1.77759        -1.71768         -2.5494
LJ          0.827812         -1.8522        -1.76163
LJ           1.89584         2.53794        -1.69452
LJ           2.47387       -0.916437         2.55325
LJ          -1.88142       0.0399314         2.53684
LJ           2.51269        0.113405        -1.98284
LJ          -1.79121       -0.557442         -1.5922
LJ          -1.19461       -0.771077        -2.45217
LJ         0.0296768       -0.209164        -2.46799
LJ         -0.711027      -0.0078169         -1.7672
LJ         -0.147117        -1.12142        -1.87635
LJ          0.891595        -1.13835        -2.53685
LJ           1.75939       0.0608377         2.53137
LJ          0.925754       0.0866369        -1.79706
LJ           1.65849       -0.636511        -1.72338
LJ          -2.51869        0.959664         2.46295
LJ           -1.7457         1.93816         2.47547
LJ          -2.48267         1.65637        -1.59009
LJ          -1.58061        0.773502        -1.76175
LJ         -0.577342          1.0353         2.47685
LJ          0.179147         1.74666         2.49026
LJ         -0.982688         1.65192         -1.7613
LJ         0.0844977        0.998256        -1.81395
LJ          0.880757        0.831771         2.47252
LJ           1.87389         1.85891         2.49278
LJ          0.913407         1.85505        -1.60202
LJ           1.59634        0.937507        -1.66552
LJ           2.43737         2.34975       -0.739319
LJ          -1.50359        -1.71714       -0.770975
LJ          -2.42139        -1.90474      -0.0711137
LJ          -1.65212         2.53694     -0.00392358
LJ         -0.866174         2.54423        -1.01629
LJ          0.194245        -1.74847       -0.911756
LJ         -0.597729        -1.85398       0.0176076
LJ         -0.184419         2.36386       0.0654086
LJ          0.850501        -2.50941        -0.90523
LJ           1.82574         -1.7525       -0.957537
LJ           0.78906        -2.02509        0.224457
LJ           1.65538        -2.41286       0.0192831
LJ          -2.55408        -0.92669       -0.677523
LJ          -1.89787        0.176509        -0.80308
LJ           -2.5153       0.0576182       0.0512506
LJ          -1.76379       -0.923344      0.00677107
LJ         -0.563176       -0.870427        -0.69094
LJ         -0.131836        0.317233       -0.949695
LJ          -0.72005      -0.0319513      -0.0302857
LJ          0.120756       -0.778153         0.29301
LJ          0.791289       -0.946155       -0.594196
LJ           2.01485       -0.175354       -0.804259
LJ          0.728721      -0.0196179        -0.02637
LJ           1.73291        -1.05788       -0.104807
LJ          -2.54694        0.986125       -0.886412
LJ           -1.6012         1.83527       -0.782333
LJ           2.35644         1.68872       0.0449042
LJ          -1.96364          1.0888        0.177726
LJ          -1.07106        0.723678       -0.955685
LJ          0.154133         1.87501       -0.890167
LJ         -0.771047         1.58221       -0.128763
LJ        0.00274596        0.874945      -0.0943406
LJ           0.74687         1.01984       -0.776058
LJ           1.68128         1.69526       -0.856594
LJ          0.771152         2.07575       -0.022522
LJ           1.75091        0.845417         -0.1527
LJ           2.39304         2.31636        0.825419
LJ          -1.39308        -1.90847        0.672867
LJ            2.5556        -1.57096         1.69815
LJ          -2.00971        -2.41219         1.50933
LJ         -0.585432         2.53225         1.09765
LJ           0.10244        -1.60185        0.970695
LJ         -0.918195         -1.8677         1.73712
LJ         0.0658902        -2.31831         1.71699
LJ          0.796675         2.33054        0.981271
LJ           1.99341        -1.61843        0.729198
LJ          0.979252        -1.79582         1.72298
LJ           1.69128         2.53866         1.68838
LJ           2.47523       -0.698834        0.911408
LJ          -1.75267        0.046031        0.882254
LJ           2.51017      -0.0014608         1.70593
LJ          -1.90493       -0.764337         1.78388
LJ         -0.730989       -0.914855         1.02063
LJ         0.0231423      -0.0896592         1.02584
LJ         -0.894466        0.205674         1.87539
LJ          0.275337        -0.98396         1.81196
LJ           1.09178        -1.00409        0.680982
LJ           1.63724       -0.159161        0.752411
LJ           0.82628      -0.0284458         1.92266
LJ           1.57505       -0.849157         1.80763
LJ           2.38263        0.821265        0.884317
LJ          -1.43462         1.96929        0.867127
LJ           2.44243          1.6265         1.55621
LJ          -1.83619        0.984007         1.58297
LJ         -0.872438        0.643979        0.870532
LJ          0.208106         1.49929        0.656238
LJ         -0.784478         1.60179         1.60942
LJ         0.0368222        0.800775         1.59411
LJ            1.0783        0.770813        0.900826
LJ           1.57272         1.72648        0.560943
LJ          0.844695         1.56237          1.6724
LJ           1.74275        0.792407         1.85447
