108
#Comment!
LJ          0.501155        -1.66747        -1.72525
LJ           2.35158        -1.19142         1.11573
LJ          0.395193           2.133        0.123057
LJ          -1.32598        -1.71358        -2.40913
LJ          -2.47131       -0.546216         1.86621
LJ          0.421417        -1.39874         1.48177
LJ         -0.427631       -0.273253       0.0649083
LJ         -0.311797        -1.92273        -2.23171
LJ          0.504214        0.398665        -1.51077
LJ          0.669274         2.15587         2.11993
LJ         -0.380285        -1.97116        0.280075
LJ         -0.637062        -1.20213         2.04539
LJ         -0.938521         1.77155        0.124616
LJ          -1.77087        0.247505         1.66754
LJ           1.54259      -0.0614273         2.26864
LJ           1.41426        -1.28381        -1.10195
LJ           1.90876         1.63165       -0.710555
LJ           1.56706        0.738339       -0.806279
LJ          -1.03634         1.92845         1.85372
LJ          0.865173         1.02107         2.37343
LJ           0.70873        -1.52842         2.38247
LJ          0.756005         2.49544        -2.01398
LJ         -0.336376       -0.590527        -2.33125
LJ           2.27909        0.222543         1.10687
LJ           1.51645        -1.76814        -2.06103
LJ             1.573          2.3275         1.08481
LJ           1.61924        -2.25408          2.0417
LJ         -0.918167        0.846429          2.2366
LJ        -0.0727803         1.45878          2.1543
LJ           1.96558        -1.61097        -0.06805
LJ          -1.19557         1.04572         1.20402
LJ          -1.08172        -2.06745         1.25905
LJ           1.48684         -2.2954        -1.08695
LJ          -1.53071         1.23631        -1.57804
LJ           -2.1545        -1.40345        0.271552
LJ          -2.38223         1.35765         1.41156
LJ         -0.251749         -2.3005           1.934
LJ          -2.45137       0.0220506        -2.32213
LJ          0.226998        -2.18427       -0.601874
LJ          0.113067         1.15272        0.440732
LJ         -0.449036        -1.20902        -0.50083
LJ          -1.16574        -0.45214        0.851364
LJ           -0.6528        -2.08443        -1.19605
LJ          -2.01535        -2.06105         1.90959
LJ           1.13292        -1.83646        0.715876
LJ           2.41741        -2.48483       -0.398196
LJ          -2.01943        -1.04063        -2.22646
LJ           0.39072         2.55649         1.14195
LJ          -1.61502        -2.42895        0.149416
LJ         -0.807187      -0.0756644         1.78202
LJ          -2.04281        0.916048        0.595499
LJ            2.3899        -2.30284        0.989028
LJ         0.0608303        0.379934        -2.55545
LJ          -1.67084         1.99096         1.02913
LJ           1.31268         1.39553         0.30707
LJ         -0.453629        0.923696        -1.94833
LJ           -2.0275         2.03724         2.37817
LJ         -0.271086         2.10535        -1.20724
LJ          -1.04018       -0.895042        -1.55124
LJ          -1.13098       -0.106943       -0.521669
LJ           2.20566         -1.3696         2.30093
LJ          -1.54728         -1.1531           1.597
LJ          0.752249         1.39589         1.38849
LJ           1.32285       -0.359793       -0.721512
LJ          -0.93185        0.702465        0.246547
LJ         -0.257452        -0.14371        -1.11961
LJ          0.111709       -0.654697        0.867026
LJ           1.69313        0.376721        -1.88236
LJ          -1.11199        -1.39288        0.440546
LJ           2.53108        0.942167         -1.2078
LJ            2.1717        0.751493         2.24419
LJ           1.42286       -0.912586         1.66835
LJ          -2.21783        0.479424       -0.409706
LJ           1.42068         2.44385       0.0346754
LJ          0.397481         1.39029        -1.64314
LJ           2.35641         1.82006          0.5867
LJ          0.442391       -0.635265        -1.52901
LJ           2.15212      -0.0734134      -0.0196974
LJ          -1.69103        0.136768        -1.47953
LJ          -2.15555       -0.412643        0.629439
LJ          -2.25912       -0.691406       -0.566445
LJ         -0.292552        0.313786        0.912681
LJ            -1.591         2.41524        -1.01679
LJ           2.33686        -0.14645         -1.2196
LJ            0.4689        0.887682       -0.597564
LJ         -0.207624         2.03261        -2.21376
LJ           2.36784        -1.51168       -0.929328
LJ          0.230286       -0.467289          1.9286
LJ          -1.17589         2.23149        -2.03471
LJ         -0.562973         1.07451       -0.762415
LJ           1.43595       -0.631944        0.657372
LJ          -2.16667        -1.94699        -1.58942
LJ           2.46258        -2.43644        -2.47099
LJ            2.1964        0.943583       0.0653377
LJ           1.32557       -0.721233        -2.05031
LJ           1.05344        0.138823         1.34225
LJ           1.58786         1.45609        -1.70855
LJ          0.674422      -0.0456283        0.122176
LJ           0.65261        -1.32542       -0.267861
LJ          -2.01483        0.996621         2.40477
LJ         -0.333492         1.71921         1.24269
LJ          -1.73849         1.44978        -0.53354
LJ          0.947009         1.92554       -0.823182
LJ           1.79742          1.2366         1.20058
LJ          -1.44773       -0.144195        -2.47682
LJ           1.78492          1.8278         2.13202
LJ          -2.45192         1.99294        -1.61607
LJ          -1.42676         -1.4624       -0.816048
