108
#Comment!
LJ         -0.746352        -1.36617        -2.19351
LJ          0.242159         1.00484        -2.52981
LJ           1.43798        0.765149         2.15009
LJ           -1.9121         1.82061         2.29187
LJ         -0.985712       -0.430212         0.73495
LJ          -1.66631        0.925204        -2.14284
LJ          0.594929       0.0529137         2.05782
LJ           1.70824        -0.91315       -0.392249
LJ           1.73076        0.819037       -0.323007
LJ           1.73382         2.04069        0.405219
LJ         0.0189546        -1.94707       -0.107579
LJ           1.24561       0.0252707       -0.897555
LJ          0.637028        -1.82521        -1.66331
LJ         0.0781619        -0.17166        0.807034
LJ          -0.42884        -1.49614        -1.05675
LJ          -2.15948         1.71313        0.997327
LJ          -1.30837       -0.454107        -2.33123
LJ           0.82485        0.691216         1.00217
LJ         -0.122378       -0.365713        -1.87525
LJ           1.27288         1.75812         1.33888
LJ          -2.37569        -1.34687        -2.46411
LJ         -0.211266         1.13815          1.6857
LJ          -2.45743         1.20647       -0.263812
LJ         -0.024352          1.7676       -0.346636
LJ         -0.596703       -0.864312         1.57616
LJ           1.77311        -2.02833       0.0253858
LJ           -1.5972         2.06675       -0.373037
LJ          -1.54078         -2.2864        -2.43565
LJ          0.735582         2.39331         0.15593
LJ           -1.3794        -1.92078        -1.42837
LJ         -0.236267         2.55232        0.957731
LJ           2.51948      0.00878167       -0.684507
LJ           2.25948         2.00996         1.63503
LJ          0.847552       -0.700503        -1.62348
LJ           2.22076        0.032358         1.69837
LJ         -0.964239         1.89958         0.50148
LJ          0.231619       -0.995577          2.3452
LJ          0.197138         2.03906         1.76571
LJ          -2.44911        -1.01959        0.182796
LJ          -1.40594        0.377319       -0.758209
LJ           2.22138      -0.0767308         -2.1797
LJ          -1.11731         1.33248        -1.09953
LJ          -1.91408         2.35624         -1.4371
LJ         -0.871045        0.877879         2.41664
LJ          -1.50513        0.147097         1.47658
LJ         -0.805594         1.87563         2.21428
LJ         -0.781734         1.95782        -1.80461
LJ          -2.22869        0.728348         1.98847
LJ            1.6019        -1.30361        -1.73216
LJ           1.49137        -2.30247         1.19043
LJ         -0.425402        -1.22955        0.501398
LJ          0.423402        -1.91017         1.70512
LJ           1.27028        0.404998        -1.93281
LJ           2.01566        0.635642         -1.2985
LJ          0.959943          1.4774       0.0680252
LJ          -1.78004        -2.02939       -0.480377
LJ          -1.34755         -1.1033       -0.223722
LJ            2.1162          0.0929        0.303851
LJ          -1.66956        -1.14447         1.86061
LJ         -0.463086          -0.574       -0.374281
LJ           1.87146        -1.11609        0.837976
LJ         0.0983138         1.52818        0.740792
LJ           2.23347         0.88337        -2.43724
LJ          -1.44127        -2.50178         1.45164
LJ           2.36946        -1.45956       -0.744564
LJ         -0.327636         2.55865        -1.13982
LJ          0.439102         2.22671        -2.05945
LJ         0.0498678         1.28175        -1.44877
LJ            1.6443         -2.3523        -1.56994
LJ         -0.696618        0.456117        -1.71153
LJ         -0.472957        0.680062       -0.612614
LJ          -2.14659        -2.55971        0.405826
LJ          0.839089        -1.53145        0.470591
LJ          0.936744         1.25347        -1.16553
LJ          -2.53417        -2.00598         1.17159
LJ          -2.08973          1.3511         -1.2143
LJ           2.14245         1.85338        -1.30225
LJ          -1.60857         -1.3949        0.718816
LJ          -1.90657       -0.175868         0.29427
LJ           1.28035       -0.229941         1.04495
LJ          -2.20194       -0.577205         1.14821
LJ          -1.47359         1.00437       0.0885583
LJ           1.27034       -0.870098         2.42254
LJ          0.517132       -0.891446         1.37701
LJ           1.10323        -1.76088       -0.613566
LJ          -1.01375       -0.533121        -1.20863
LJ           1.12329         1.44711        -2.23031
LJ           1.11824         2.19949         2.27644
LJ          0.393807        -1.13585       -0.534245
LJ          -1.94106       -0.953496        -1.32203
LJ         -0.356369        -2.18211         2.39536
LJ         -0.513415        0.690776        0.686193
LJ          0.836629       -0.245262       0.0917443
LJ          -1.98008       0.0883896        -1.45751
LJ            -0.865        -2.30196       0.0380479
LJ           1.99848          1.0928         1.19095
LJ           2.40805          2.4095       -0.422926
LJ            2.5413        -1.93591         -1.6877
LJ          0.384906        0.625324        0.100019
LJ         -0.640588      -0.0245446         2.20234
LJ           2.16123        -1.11446         1.82238
LJ           1.90464        -2.15241        -2.51668
LJ          0.240336        0.207558       -0.982025
LJ          -2.34332        -2.38091         2.10279
LJ          -1.31138         1.29511         1.41482
LJ           2.35117         2.00204        -2.38626
LJ          0.775779         2.41525        -1.03361
LJ          -2.32442        0.722169        0.646846
