108
#Comment!
LJ           2.47437        -2.52796         2.46643
LJ           -1.7863        -1.80212         2.45424
LJ          -2.44955         -1.6694        -1.55871
LJ          -1.81037        -2.44675        -1.83366
LJ         -0.982965         2.45796          2.4585
LJ         -0.168144        -1.91075         2.53168
LJ         -0.928489        -1.50113        -1.69161
LJ         0.0595316         2.38675        -1.68089
LJ          0.924994         2.49599        -2.42602
LJ            1.7416        -1.72499         2.49682
LJ          0.925617        -1.62981        -1.56687
LJ           2.02254        -2.49381         -1.6071
LJ           2.41131       -0.836627        -2.50797
LJ          -1.85028       0.0741868         2.47259
LJ          -2.52367       0.0977305        -1.77896
LJ           -1.6878        -0.61542        -1.36447
LJ           -1.2193       -0.923535        -2.56271
LJ        -0.0433467       -0.257879         2.54972
LJ         -0.851894        0.101186        -1.76406
LJ       0.000287673       -0.939796        -1.78478
LJ           1.01883        -1.03576        -2.55614
LJ           1.67534        0.102483         2.55305
LJ          0.771778      0.00485654        -1.57767
LJ           1.77971         -0.7923        -1.67094
LJ           -2.5379         1.11252         2.38981
LJ           -1.7644         1.88734         2.52525
LJ           2.54306         1.63469        -1.74938
LJ          -1.67219        0.963132        -1.88586
LJ         -0.802688         1.05964         2.52397
LJ         0.0833311         1.72828         2.43884
LJ         -0.806988          1.6043        -1.81904
LJ        -0.0521722        0.829772        -1.81691
LJ          0.898694        0.895611        -2.44413
LJ           1.83203         1.84712         2.45388
LJ           1.00705         1.76372        -1.55319
LJ           1.80992        0.835654        -1.78745
LJ          -2.41851         2.49464       -0.684619
LJ          -1.55151        -1.83376       -0.624354
LJ           2.51588        -1.77065       -0.128312
LJ          -1.64961         2.40931      -0.0405667
LJ         -0.765656         2.46112       -0.975168
LJ         0.0525722        -1.71861       -0.932459
LJ         -0.729478        -1.82401       0.0381345
LJ         -0.222664         2.36393      -0.0513623
LJ          0.871567        -2.50037       -0.923397
LJ           1.74542        -1.61342       -0.871004
LJ          0.696586        -2.01722        0.136689
LJ           1.64953        -2.39899       -0.138748
LJ           2.52639       -0.788721       -0.786937
LJ          -1.88607        0.144591       -0.745156
LJ           2.45575      -0.0772549       0.0462814
LJ          -1.74245       -0.885723      -0.0386475
LJ         -0.700013       -0.763467       -0.810261
LJ        -0.0122228        0.222401       -0.938027
LJ         -0.807608       -0.112371      -0.0375384
LJ         0.0421615       -0.744246        0.112004
LJ          0.797843       -0.919757       -0.724405
LJ           1.73201      -0.0879441       -0.855406
LJ          0.801931       0.0676913       -0.110386
LJ           1.59489       -0.904909       -0.067902
LJ          -2.52458        0.983387        -0.92612
LJ          -1.57395         1.74592        -1.06903
LJ          -2.54289         1.68796       0.0791686
LJ          -1.88558        0.824263        0.121312
LJ         -0.990297        0.774117       -0.866712
LJ        -0.0946323         1.51517       -0.909468
LJ         -0.833784         1.45123      -0.0865048
LJ          0.074567        0.953162        0.102602
LJ          0.845469         0.98178       -0.702064
LJ           1.86035         1.65766       -0.996444
LJ           0.82217         1.94026     -0.00662872
LJ           1.77455        0.863906       -0.100194
LJ           2.42609        -2.52938        0.871092
LJ          -1.51435        -1.67956        0.802929
LJ           2.51393        -1.53209         1.80787
LJ          -2.01649         2.50074         1.65444
LJ         -0.665025        -2.51764         1.01965
LJ          0.199507         -1.8226        0.890749
LJ         -0.986242        -1.63737         1.73015
LJ         0.0935473         -2.3919         1.71579
LJ           1.10825        -2.55181        0.875962
LJ           1.76664        -1.46928        0.856564
LJ          0.884147        -1.70759         1.67206
LJ           1.51031         -2.4203          1.8387
LJ           2.48333       -0.594329         1.04456
LJ          -1.80769       0.0399886        0.904136
LJ           2.51183       0.0734567         1.82819
LJ          -1.61377       -0.869694         1.57836
LJ         -0.733837       -0.941792         1.00363
LJ           0.08252      -0.0910427        0.977862
LJ         -0.902094       0.0993719         2.05934
LJ          0.122958        -0.89794         1.65798
LJ          0.962817       -0.752019        0.855871
LJ           1.59999       -0.123228        0.564709
LJ          0.725101       -0.126223         1.91818
LJ           1.74391       -0.822078         1.73979
LJ           2.42492        0.707624        0.722915
LJ          -1.53771         1.90343        0.787972
LJ          -2.54351         1.53766           1.462
LJ          -1.50365        0.894576         1.72499
LJ         -0.945458        0.678598        0.730498
LJ         0.0861299         1.65365        0.877173
LJ         -0.798266         1.63925         1.47603
LJ       -0.00127939        0.914163         1.66414
LJ          0.788965        0.656813        0.969738
LJ           1.76955         1.75937        0.814411
LJ           1.05124         1.62597         1.77762
LJ           1.76754        0.782134         1.56497
