108
#Comment!
LJ          -2.56147        -2.30541         2.28528
LJ           -1.7954        -1.61213         2.48539
LJ          -2.28147        -1.57467        -1.62863
LJ          -1.76921        -2.52233        -1.63639
LJ         -0.686114          2.4006         2.53896
LJ         0.0794126        -1.84532        -2.48974
LJ          -1.18513        -1.51002        -1.77277
LJ        -0.0251896         2.23079        -1.82136
LJ          0.774215        -2.53565         2.49259
LJ           1.76837        -1.60286         2.46481
LJ          0.834936        -1.93386        -1.68331
LJ           1.96412         2.37999        -1.82386
LJ           2.52461       -0.888925         2.39428
LJ          -1.79484       0.0828509         2.52294
LJ           2.38768        0.131889        -1.75813
LJ          -1.89857        -0.52984        -1.62941
LJ          -1.01042       -0.816264        -2.38148
LJ       -0.00191188       -0.296035        -2.39835
LJ          -1.07618       0.0574792        -1.75058
LJ        -0.0616383        -1.07518         -1.6894
LJ          0.828013        -1.02198        -2.54945
LJ           1.66556       0.0114102         2.51942
LJ          0.935316       0.0982221        -1.75836
LJ           1.63249       -0.770498        -1.72545
LJ          -2.48675        0.891871        -2.48144
LJ          -1.69194         1.92899         2.39019
LJ          -2.48459         1.62473         -1.6207
LJ          -1.72984         0.89026          -1.775
LJ         -0.538692        0.979971        -2.51563
LJ          0.116469         1.68003         2.38275
LJ          -1.09733         1.63851        -1.80953
LJ          0.191547         1.10206        -1.81329
LJ          0.855561        0.910785         2.54679
LJ           1.76399         1.77437         2.40124
LJ          0.936986         1.84303        -1.91922
LJ           1.73969         1.16345        -1.68976
LJ           2.47476         2.31293       -0.736523
LJ          -1.54576        -1.71298       -0.758815
LJ          -2.36736        -1.79186       -0.093732
LJ          -1.73155         2.40477       0.0767841
LJ         -0.656302        -2.54922        -1.06823
LJ         0.0824311        -1.60326       -0.809851
LJ         -0.781375        -2.06376       -0.159378
LJ         -0.150549         2.32329        0.121294
LJ           0.88767        -2.49262       -0.918166
LJ           1.91171         -1.6903        -1.04591
LJ          0.845618        -1.84685        0.360599
LJ           1.69952        -2.55033       -0.137893
LJ          -2.34366       -0.960688       -0.748988
LJ          -1.89176       0.0287074       -0.703515
LJ            -2.491        0.207885        0.118178
LJ          -1.64096       -0.667965        0.145656
LJ          -0.63959       -0.877876       -0.805419
LJ         -0.168661       0.0950828        -1.03621
LJ         -0.643794       0.0799952       -0.121919
LJ        -0.0251695       -0.667564        0.038447
LJ           1.00479        -1.13783       -0.793679
LJ           1.89245       -0.205588       -0.545987
LJ          0.847918        0.101589        0.162941
LJ           1.99019        -1.07923      -0.0960816
LJ           2.49284        0.944578       -0.773912
LJ           -1.5593         1.77461       -0.875091
LJ           2.36388         1.68923      -0.0321865
LJ          -1.81591         1.03151        0.245635
LJ          -1.02054        0.683311       -0.921152
LJ           0.13179         1.70676       -0.923615
LJ         -0.801346         1.58775       -0.242527
LJ        -0.0607615        0.914935       -0.165402
LJ          0.962476        0.837245       -0.796378
LJ           1.65169         1.72702       -0.745774
LJ          0.785744          1.8578       -0.119549
LJ           1.78423        0.707587      -0.0707633
LJ            2.4006         2.36754        0.674344
LJ          -1.27757         -1.8242        0.814318
LJ           2.48721        -1.44376         1.49938
LJ          -1.93296        -2.33512         1.42389
LJ         -0.789773         2.48949          0.9326
LJ         0.0664267         -1.4238        0.971303
LJ          -0.83815        -1.88749         1.88234
LJ          0.057892        -2.39278         1.75577
LJ          0.654875         2.42808         1.05234
LJ           1.75097        -1.67298         0.94919
LJ          0.943531        -1.76199         1.73402
LJ            1.7618        -2.50577         1.65197
LJ          -2.43784       -0.695818        0.735904
LJ          -1.53856       0.0468815        0.824125
LJ            2.4384       0.0541004         1.72883
LJ          -1.75376        -0.76376         1.74152
LJ         -0.844534       -0.987906         1.02893
LJ          0.173596        -0.26374        0.958616
LJ         -0.924545        0.232572          1.9175
LJ          0.192642       -0.946006         1.78505
LJ          0.936473       -0.827944        0.834955
LJ           1.75746       -0.108568        0.691965
LJ          0.622149       0.0281164         1.98718
LJ           1.45351       -0.806708         1.73263
LJ           2.24534        0.882979        0.832071
LJ          -1.64048         1.89351         1.01203
LJ            2.4576         1.70362         1.54023
LJ          -1.84502        0.864217         1.46699
LJ         -0.815764        0.787317        0.667774
LJ          0.284751         1.44975        0.824662
LJ         -0.953296         1.38367         1.57775
LJ          0.017436        0.924759          1.6483
LJ           1.16068        0.671682        0.970839
LJ           1.48594         1.74371        0.608613
LJ           1.01178         1.57395          1.6698
LJ           1.72616        0.850613         1.87831
