108
#Comment!
LJ          -2.43866        -2.42685         2.53461
LJ          -1.76302        -1.47277         2.50401
LJ          -2.25721        -1.53035        -1.77319
LJ          -1.63297        -2.37023        -1.86374
LJ         -0.830054         2.26339        -2.39199
LJ         -0.119448        -1.56761         2.40317
LJ         -0.907275        -1.52011        -1.96657
LJ          0.052328         2.50583        -1.91942
LJ            1.0248        -2.39287        -2.43894
LJ           1.68594        -1.60721         2.44043
LJ           1.20138        -1.69079        -1.65267
LJ           1.90331         2.46681        -1.53072
LJ           2.40286       -0.618287        -2.54389
LJ          -1.84098      -0.0311859         2.30278
LJ          -2.47872      -0.0723687        -1.73849
LJ          -1.51368        -0.63517        -1.71281
LJ         -0.946985       -0.696696         -2.5244
LJ         0.0444928       -0.182891        -2.49182
LJ         -0.822559       0.0944919        -1.73959
LJ          0.165582       -0.914509        -1.62641
LJ          0.768863       -0.922274        -2.50397
LJ            1.6273      -0.0148096        -2.43048
LJ          0.763718        0.148361        -1.68336
LJ           1.60057       -0.606731        -1.52961
LJ           -2.5224        0.875955        -2.38708
LJ          -1.77712         1.97294         2.42918
LJ          -2.47932         1.69411        -1.53879
LJ          -1.59919        0.768479        -2.06489
LJ          -0.52179        0.702436         2.51939
LJ          0.108278          1.7508         2.34819
LJ          -1.30993         1.78257        -1.70031
LJ          0.028043         1.01241        -1.70142
LJ           1.09088         1.00551        -2.45736
LJ           1.71059         1.87301         2.48788
LJ          0.970125         1.89153        -1.89717
LJ           1.80024        0.847425         -1.7892
LJ          -2.56444         2.56045       -0.746654
LJ          -1.46107        -1.68523       -0.905454
LJ          -2.29605        -1.61928       -0.131848
LJ          -1.64368         2.39438        0.110016
LJ         -0.666944        -2.44961        -1.01422
LJ           0.02376        -1.77336       -0.654393
LJ         -0.745457        -1.75648       -0.025334
LJ         0.0552278         2.36734        0.144491
LJ           0.78032         2.47557       -0.882846
LJ           1.93396        -1.61575       -0.925035
LJ          0.794867        -1.88206        0.190207
LJ           1.69274        -2.46776       0.0326946
LJ          -2.35643       -0.824489       -0.889639
LJ          -1.79153        0.101753       -0.940647
LJ          -2.38088       0.0197757     -0.00684662
LJ          -1.61292       -0.679645      -0.0301705
LJ         -0.759234       -0.771289       -0.702327
LJ         -0.056253        0.119393       -0.982295
LJ         -0.634674      -0.0352615       0.0886234
LJ          -0.03328       -0.868262        0.146375
LJ           1.00221        -1.08571       -0.791871
LJ           1.83424       -0.222356       -0.592356
LJ          0.775865       0.0484346        0.152592
LJ           1.97634        -1.04785       0.0295137
LJ           2.42513        0.773334       -0.773568
LJ          -1.84228         1.67999       -0.733891
LJ           2.55678         1.66326      -0.0629856
LJ           -1.8428        0.936883        0.110363
LJ          -1.05959        0.835122       -0.949251
LJ         0.0900687         1.75592       -0.815554
LJ         -0.794705         1.64958       -0.142215
LJ          0.059523        0.875902       -0.146181
LJ          0.896523        0.918404       -0.907382
LJ           1.59975         1.73733       -0.854566
LJ          0.888958         1.71592      -0.0865106
LJ           1.59708        0.802452        0.108177
LJ           2.50788         2.49097        0.700081
LJ          -1.48138        -1.85146        0.782661
LJ          -2.56405        -1.44781         1.55833
LJ          -1.95268        -2.39294         1.65536
LJ         -0.903726         2.41732         1.00463
LJ         0.0184668        -1.47701           1.083
LJ          -1.00779        -1.65654         1.79376
LJ         0.0186154        -2.28749         1.74962
LJ          0.715591          2.4043        0.909108
LJ           1.67504         -1.5339         1.06775
LJ          0.818787        -1.70361         1.82757
LJ           1.74852        -2.54913         1.44956
LJ          -2.37934       -0.781668        0.719806
LJ          -1.63892       0.0713103        0.809636
LJ           2.38791      -0.0138759         1.63683
LJ          -1.68238       -0.891713          1.5957
LJ         -0.841721       -0.851908         1.02508
LJ          0.133506       -0.157658        0.869264
LJ         -0.923937       0.0589098         1.86737
LJ          0.217968       -0.763103         1.77444
LJ          0.980159       -0.904255        0.575481
LJ           1.75828       -0.353898        0.801021
LJ          0.850709       0.0735808         1.73448
LJ           1.52248       -0.793519          1.7738
LJ           2.39633        0.973888         1.04073
LJ           -1.8651         1.66756        0.966771
LJ           2.45812         1.88415         1.54583
LJ           -1.7363        0.860236         1.70317
LJ         -0.837126        0.936312        0.807403
LJ          0.355799         1.38827        0.795154
LJ         -0.699499         1.39707         1.73854
LJ         0.0609563        0.840634         1.66895
LJ            1.1603        0.629206         1.05205
LJ           1.57362         1.77304        0.690747
LJ          0.951841         1.71029         1.68904
LJ           1.82151         1.07873         1.95312
