108
#Comment!
LJ          0.251043        0.158385        -1.73867
LJ           2.23954      -0.0631763        -2.14521
LJ          -1.31001          1.0535         1.35571
LJ          -1.03251         2.17766        -2.34785
LJ           2.06865          2.3808        -1.35084
LJ           1.79732         1.37302        -1.11812
LJ           1.99503        -0.33793         2.09939
LJ           1.95221       -0.645745        0.428588
LJ          0.771898         1.23299        -1.24791
LJ        0.00603704          2.2652        0.224505
LJ          -2.49241        -1.25236       -0.106621
LJ           2.04473         1.85742         1.74126
LJ           1.71969        -1.68067        0.518846
LJ          -1.24559        -1.79083        -2.45049
LJ         -0.669579         1.90329          1.3659
LJ          0.901647        -2.45599       -0.304263
LJ       -0.00938556          2.4804       -0.936206
LJ          0.235116        0.285674        0.693449
LJ          -2.32879         1.57175       -0.149708
LJ           2.40331        0.425098        0.361843
LJ          -1.93633         1.72572         1.95966
LJ         -0.320509         1.14917         0.56402
LJ            1.2564       -0.796788       -0.391844
LJ         -0.979491         2.12209         -0.1731
LJ       -0.00695049       -0.370426       -0.159344
LJ            1.4703        -1.21672         2.46614
LJ          -2.29355        -2.11165        0.937198
LJ         -0.831261        -1.32742         1.76794
LJ            1.3247        0.116067        0.173964
LJ          -2.48226        -1.87782        -1.15855
LJ          -2.00457       -0.188465          2.1245
LJ          0.952557           1.447        -2.15818
LJ           1.06567         2.18086        -1.13303
LJ          -2.05469         2.33848        -2.04488
LJ          0.881588        -1.70543         -1.3497
LJ           0.64907        -2.18927         1.72365
LJ           2.27194        -2.47774         2.48149
LJ         -0.267245        -2.25724        -1.86226
LJ           1.51564        -2.37853         1.33851
LJ           1.20009         2.16159        0.478319
LJ          0.676299         1.06156       0.0571827
LJ          0.289433       -0.751259        -1.02652
LJ           1.35173       0.0654521         1.33524
LJ          -2.41258         1.01404         2.42911
LJ          -2.44424         1.11522         1.28064
LJ          -1.34494        0.491342         -2.0515
LJ            1.9244         -1.9576       -0.458603
LJ         0.0318092         1.70011          -1.751
LJ          0.630134        0.216211       -0.709307
LJ          -1.84897        -2.31006         1.77828
LJ         -0.669442       -0.137832        -1.45752
LJ          -1.97362         1.31911        -1.76619
LJ          0.137706        -1.63059       -0.696969
LJ         -0.244801         -1.9206        0.995833
LJ           1.72799         1.23516      -0.0323183
LJ         0.0503805         1.83026         2.23346
LJ           1.67476        0.716155         2.22166
LJ          -1.21984        -2.33934        -1.01756
LJ          -1.76465       -0.279214        -1.40221
LJ          0.167755        -1.28837         1.88439
LJ            1.3671       -0.635085        -1.56369
LJ         -0.947024         1.09596         2.31057
LJ          -1.41478        0.872881         -1.1272
LJ           2.34543         1.84727        0.675904
LJ            1.3907         1.19704         1.06903
LJ          -1.33404       -0.170394       -0.373101
LJ          0.898594        -0.36262         2.38641
LJ          -2.26224        0.637538        -0.67409
LJ          0.141237         0.81619        -2.49108
LJ           -1.2832       -0.549979        -2.26573
LJ         -0.996548       -0.135999         1.70861
LJ          -1.41333        -1.77286        0.728645
LJ           2.47629       -0.866047        -1.22132
LJ         -0.789162        0.109841        0.748246
LJ          -2.30002        -1.05406        0.904567
LJ         -0.389894        -1.21986         -1.9433
LJ          0.702829       -0.642975        0.654555
LJ           1.31256        -2.50624        -2.31426
LJ           1.54057        0.397822        -1.63155
LJ         -0.936368         1.75455        -1.22197
LJ           2.31022        -1.70588         1.79043
LJ          -2.38944       -0.315337       -0.178098
LJ           1.98816        -1.83686        -1.86917
LJ           0.33024         1.99668         1.27058
LJ           -1.5215        0.886039      -0.0382266
LJ         -0.364695        -2.32419          2.0605
LJ         -0.435585        0.644425       -0.408286
LJ          -1.89072        -1.26308         1.91578
LJ           1.08787         1.97841         2.05409
LJ         0.0170713          1.5933       -0.565103
LJ          -2.22772        -2.49625       -0.394969
LJ         -0.785562        -1.04149       -0.781971
LJ          -1.76168         1.79947        0.841873
LJ           1.88914        0.361766       -0.694552
LJ          0.722178        -2.03599        0.554129
LJ         -0.222074        0.858193         1.67917
LJ          -0.45942        0.827139        -1.68027
LJ          0.512645        -1.81339        -2.41599
LJ          -0.33756       -0.106068         2.53027
LJ          -2.41761       -0.989476        -2.20297
LJ           1.32091        -1.34404         1.45651
LJ         -0.706718        -1.87922       -0.186934
LJ           -1.7989       0.0441896        0.763464
LJ          -1.59694        -1.51016        -1.58129
LJ           2.01894          1.6866        -2.27611
LJ          -0.72527       -0.871882         0.37282
LJ            1.8831         2.21086       -0.277365
LJ         -0.115856       -0.475855         1.32565
