108
#Comment!
LJ           1.96255         1.49478       -0.350308
LJ          0.117064         0.76947         0.42614
LJ          -2.29815       -0.369972         1.75003
LJ          0.364479        -1.86814        -2.53157
LJ          0.302122        -2.18567        0.177292
LJ           2.53855        -1.68277        -1.64187
LJ            1.3582        -1.61317        0.672391
LJ          -1.62118        0.185663         1.30661
LJ           1.24329         -1.6617        -1.85192
LJ          -2.37952        -1.52182       -0.258787
LJ          -2.27697        -2.41089       -0.758176
LJ          0.728168        -2.17842         1.45692
LJ           -1.5858        0.696358         2.43753
LJ          0.624171        -1.86863        -1.03011
LJ          -1.11204       -0.273427       -0.759863
LJ         -0.276198         1.95408        -1.79451
LJ          0.953576       -0.419457         1.23795
LJ         -0.143013         1.18368       -0.431805
LJ           1.72319       -0.180306         2.09189
LJ         -0.557767        0.730761         1.66365
LJ          -1.98896         1.51643         1.95014
LJ           1.72652         1.07385         2.15879
LJ           1.65418       -0.196977       -0.885768
LJ           1.84595         2.34494        -1.44868
LJ           1.25503        0.200233        -2.14477
LJ         -0.369912        -2.27576        -1.10688
LJ         -0.635894         2.16912       -0.330074
LJ           0.87428        0.162927        0.223878
LJ           1.93283        0.536585      -0.0255857
LJ          0.383956        0.688123         1.48795
LJ          -1.67408       0.0951885        -1.73627
LJ            1.5049        -2.45547         2.53911
LJ          -1.02168        -1.81909         0.82525
LJ           -2.3285        0.331506        0.615921
LJ           2.18035         1.29469        0.819702
LJ         -0.234057      0.00505725       -0.283905
LJ          -1.74225          1.3583        0.830742
LJ          -1.41951        -1.74417        -1.00079
LJ           2.40011         1.85533         2.46338
LJ           2.47245        -1.91619        0.695209
LJ          -2.48815        0.624112         1.72953
LJ          -0.69266         -1.9048        -0.13472
LJ           1.12268        0.988178        0.845817
LJ           1.75322       -0.714824        0.292766
LJ         -0.721092           1.406        0.495502
LJ           1.46282         2.54418       -0.459676
LJ           1.83443        -1.44024       -0.915604
LJ          0.560984        -1.12534         0.36973
LJ          0.581841       -0.879045        -1.49792
LJ          0.985778       -0.792233       -0.535945
LJ          -2.05846       -0.606686        0.738002
LJ          -1.18787       -0.765002         1.20902
LJ         -0.713875        0.273187        -2.47992
LJ          -2.23446       -0.297605       -0.269519
LJ       -0.00948201        -1.52059         1.08226
LJ         -0.838642        0.237548        0.526731
LJ           2.56475         2.21426        0.168538
LJ          0.419509         1.15609        -1.38483
LJ           2.33971        0.779007        -2.02895
LJ           1.06575        -1.27468         2.03604
LJ          0.265892        0.240984        -1.80902
LJ         -0.875684        -2.11118        -1.91993
LJ        -0.0170079       -0.993673        -2.39292
LJ         -0.720668        -2.48781         1.53908
LJ          -0.74452        0.731662        -1.53011
LJ          -1.30667       -0.639453         2.37216
LJ          -1.69613        -1.34468        -2.09565
LJ          -1.29732         2.34904        -1.10964
LJ          0.389622         2.22268       -0.629302
LJ       -0.00288695         1.70765         1.34348
LJ          -1.66071         2.51051         1.04195
LJ           1.22099         2.09596        0.776332
LJ           1.22484         1.48876        -2.04526
LJ          -1.04948        -1.67445         2.14929
LJ           1.63783       -0.708093        -2.16768
LJ          -1.02775        0.815381       -0.453605
LJ          -0.86384       -0.940016         -1.4545
LJ           1.86144         2.32729         1.62334
LJ          0.847618         1.37507       -0.158124
LJ          0.453783       -0.122553         2.26887
LJ           2.36355       -0.580594        -1.50417
LJ           1.50449         1.08264        -1.18937
LJ          -1.84152         1.74893       -0.241041
LJ           2.52024        0.578323       -0.843417
LJ          -1.76735         1.59288        -1.95275
LJ          -1.10061         1.57883          1.6087
LJ            1.7432        0.189846         1.02691
LJ           0.67575        0.911358         2.48092
LJ         -0.488188       -0.804157        0.433707
LJ         -0.120699         -1.1922        -0.58532
LJ           2.52015         1.52748        -1.32444
LJ           1.03487         1.86082         1.93547
LJ          0.161646         1.94768        0.339503
LJ          -2.02421        -1.47913         1.57261
LJ        -0.0395511         2.20327         2.27986
LJ           2.04537        -0.96305         1.28139
LJ          -2.48085        -0.22891        -2.38071
LJ          -1.62885         1.02993        -1.12439
LJ          -1.68432        -2.27327       0.0833749
LJ         -0.724641         1.49493         2.53811
LJ          -2.07646        -2.42584        -2.17968
LJ          -1.19697         2.37826         2.45715
LJ          0.653352         2.41153        -1.76076
LJ          -2.27505        -2.43636         1.79865
LJ          0.821224        0.498518       -0.752786
LJ           -1.4132        -1.16216       0.0798436
LJ         -0.116159       -0.505116         1.30186
LJ           2.26035        -1.83856         2.52064
