108
#Comment!
LJ           2.45929        -2.47859         2.46471
LJ          -1.67874        -1.86561         2.47556
LJ           2.56014        -1.65183        -1.51978
LJ          -1.90429        -2.52326        -1.80796
LJ         -0.955462         2.47691         2.44586
LJ         -0.186755        -1.80952        -2.55937
LJ          -0.89141        -1.53894        -1.73936
LJ         0.0544824         2.42111        -1.74266
LJ           0.89161         2.50452        -2.38671
LJ           1.79896        -1.72231         2.51378
LJ           0.77391        -1.61492        -1.59797
LJ           1.98735        -2.53992        -1.59398
LJ           2.42717       -0.818103         -2.4978
LJ          -1.78735       0.0849907         2.52643
LJ          -2.51977        0.176169        -1.73637
LJ          -1.79065       -0.678049        -1.39008
LJ           -1.1977       -0.898095         2.51031
LJ         0.0137827       -0.154921         2.52046
LJ         -0.801149          0.1191        -1.77165
LJ          0.046229       -0.918887        -1.72279
LJ          0.925327        -1.02643        -2.55498
LJ           1.71324        0.096212         2.51308
LJ          0.834333       0.0182427        -1.48112
LJ           1.68595        -0.87369        -1.74748
LJ          -2.51634         1.05044         2.42065
LJ          -1.70707         1.90313         2.49506
LJ          -2.52843         1.69947        -1.73257
LJ          -1.61108        0.971662        -1.92056
LJ         -0.700731         1.06746         2.43116
LJ         0.0232999         1.68133          2.4009
LJ         -0.757311         1.61139        -1.76699
LJ         -0.096737        0.789492         -1.8088
LJ          0.823117        0.857033        -2.47282
LJ           1.84912         1.95282         2.46212
LJ           1.01706         1.73742        -1.54675
LJ           1.79425        0.834316        -1.80373
LJ          -2.42763         2.51574       -0.791249
LJ           -1.5317        -1.83888       -0.591614
LJ            2.5099         -1.7297      -0.0681972
LJ          -1.67617         2.44896      -0.0219089
LJ         -0.805417         2.43774        -0.95885
LJ         0.0655032        -1.66426       -0.924208
LJ         -0.819174        -1.81196       0.0795796
LJ          -0.23308         2.27863       0.0381021
LJ           0.82785        -2.54721        -0.96909
LJ           1.77318        -1.62708       -0.793375
LJ          0.708847        -1.91974      -0.0170952
LJ            1.5501        -2.48055       -0.199881
LJ            2.5278       -0.917753       -0.756178
LJ          -1.80379        0.157584       -0.797729
LJ           2.53314       -0.018804      -0.0423328
LJ          -1.71692       -0.727372      -0.0362827
LJ         -0.808763       -0.753369       -0.845932
LJ        -0.0481665        0.166269       -0.852315
LJ         -0.820695      -0.0011909      -0.0546387
LJ         0.0133779         -0.7326       0.0135739
LJ          0.742204       -0.954237       -0.714714
LJ           1.69949       -0.115702       -0.831014
LJ          0.821821      0.00175945       -0.109108
LJ           1.66008       -0.933491      -0.0254564
LJ          -2.50241         1.01656       -0.820779
LJ          -1.55857         1.71836         -1.0719
LJ           -2.4996         1.68495       0.0416735
LJ          -1.91715        0.777602       0.0991542
LJ          -1.00869        0.726991       -0.854606
LJ        -0.0463932         1.63607       -0.915108
LJ         -0.823783         1.48794      -0.0820393
LJ         0.0647305         1.03812       0.0892301
LJ          0.834386         1.02558       -0.774769
LJ           1.84569         1.68841       -0.943503
LJ          0.797682         1.92523      0.00746814
LJ           1.76166        0.850635       -0.105508
LJ           2.38995        -2.47882         1.01188
LJ          -1.49657         -1.6835        0.962854
LJ          -2.50974        -1.52786         1.77101
LJ          -1.94392         2.49735         1.68428
LJ         -0.652972        -2.52717         0.95471
LJ          0.223161        -1.72052        0.947542
LJ         -0.909665        -1.66141         1.76926
LJ         0.0851094        -2.48111         1.78842
LJ           1.15677        -2.49584        0.889489
LJ           1.77326         -1.4846        0.905979
LJ           0.95992        -1.69471         1.70127
LJ           1.59841         -2.3983         1.83555
LJ           2.52913       -0.605907        0.948536
LJ          -1.88971       0.0875926        0.791755
LJ           2.55442      -0.0013407         1.88356
LJ          -1.64496       -0.929472         1.61679
LJ         -0.721756       -0.842448        0.869607
LJ         0.0836068       -0.128291        0.876573
LJ         -0.820133       0.0992772         1.96567
LJ           0.13252       -0.897882         1.67513
LJ           0.92117       -0.833903        0.932663
LJ           1.60347      -0.0656594        0.630329
LJ          0.799294      -0.0919356         1.90776
LJ           1.71279        -0.87991         1.75681
LJ           2.44401        0.742774        0.726556
LJ          -1.55503         1.89913        0.825781
LJ          -2.54499         1.60737         1.53975
LJ          -1.58656        0.890785         1.65576
LJ          -1.02133        0.702456        0.821354
LJ          0.139052         1.64007        0.814104
LJ         -0.748525         1.75138          1.4604
LJ        -0.0426941        0.859073         1.69383
LJ          0.796445        0.735649         1.01427
LJ           1.76193         1.73341        0.831224
LJ           1.00007         1.62027         1.83399
LJ           1.71212        0.891353          1.6666
