108
#Comment!
LJ            2.5541        -2.55454         2.48209
LJ          -1.78513        -1.73737         2.53248
LJ          -2.52003        -1.71933        -1.64869
LJ           -1.7805        -2.38228        -1.72933
LJ         -0.907634         2.49338         2.51127
LJ       -0.00274681        -1.99638        -2.53196
LJ         -0.868074        -1.55956        -1.54682
LJ          0.105262          2.2709        -1.68634
LJ           1.01994         2.36366        -2.35925
LJ           1.82911        -1.73396         2.55583
LJ          0.973611        -1.72986        -1.67096
LJ           1.98912        -2.50597         -1.5055
LJ           2.47367       -0.815672        -2.54555
LJ          -1.75089       0.0560924         2.55636
LJ          -2.47216         0.18385        -1.76184
LJ          -1.69579       -0.542729        -1.42719
LJ          -1.19363       -0.855527        -2.44042
LJ        -0.0901635       -0.275387        -2.43692
LJ         -0.776879        0.115453        -1.81889
LJ        -0.0697867       -0.998011        -1.76793
LJ          0.982378        -1.07801        -2.43936
LJ           1.64381        0.085404         2.54021
LJ          0.763265       -0.105071        -1.52485
LJ           1.75213       -0.876627        -1.70385
LJ          -2.41991         1.06293          2.3365
LJ          -1.75026         1.89142          2.5413
LJ          -2.49183          1.6914        -1.71263
LJ          -1.57193         0.91628        -1.73746
LJ         -0.728719         1.03701        -2.48383
LJ         0.0854628          1.7881         2.50375
LJ         -0.726285         1.76809        -1.76883
LJ         0.0837879        0.913843        -1.87871
LJ           0.84857        0.775247        -2.48746
LJ            1.7382         1.85217         2.37599
LJ          0.941258         1.64153        -1.57317
LJ           1.82232        0.774401        -1.75754
LJ          -2.54193         2.43819       -0.722783
LJ          -1.47612        -1.87595        -0.71486
LJ          -2.49932        -1.75664       -0.170157
LJ          -1.68178         2.48572      -0.0752931
LJ         -0.671802        -2.53097       -0.936355
LJ         0.0527974        -1.67265       -0.965405
LJ         -0.566718        -1.80249       0.0599569
LJ         -0.189144         2.31629         0.14057
LJ          0.854404        -2.49647       -0.950588
LJ            1.7901        -1.70433       -0.827955
LJ          0.696513        -1.96879        0.133453
LJ           1.65462        -2.39633      -0.0178268
LJ          -2.44422       -0.962013        -0.77037
LJ           -1.9476       0.0553985       -0.648846
LJ           2.37435       0.0282681      -0.0377483
LJ          -1.60694       -0.834229     -0.00762322
LJ         -0.603484       -0.788687       -0.835062
LJ         0.0502806        0.160386         -0.8973
LJ         -0.797203      -0.0628037       -0.070813
LJ         0.0814232       -0.835009        0.217053
LJ          0.865432       -0.833378       -0.745004
LJ           1.81797       -0.174225       -0.880305
LJ          0.730703    -0.000175047       -0.107427
LJ           1.72674        -0.90495      -0.0908108
LJ          -2.44158        0.965819       -0.917749
LJ          -1.62922         1.70759       -0.993353
LJ           2.44555         1.63179       0.0344472
LJ          -1.94335        0.884335       0.0835142
LJ         -0.898719        0.734985       -0.855238
LJ        -0.0761747         1.55037       -0.835348
LJ         -0.887756         1.48291      -0.0365337
LJ         0.0696445        0.947868        0.149187
LJ          0.783797          1.0425       -0.701887
LJ           1.70785         1.70318        -0.92412
LJ          0.837565         1.98972      -0.0068458
LJ           1.80302        0.821596       -0.100413
LJ           2.49052        -2.49428        0.814194
LJ          -1.47602        -1.73269        0.714753
LJ           2.51782        -1.46662          1.6684
LJ          -1.90247         2.52096         1.58485
LJ         -0.779905          -2.498         1.04259
LJ         0.0747494        -1.59313        0.909748
LJ         -0.846473        -1.64954         1.70694
LJ          0.111948        -2.44391         1.65601
LJ           1.02556         2.53776        0.895749
LJ           1.86901        -1.51723        0.775593
LJ          0.886669        -1.74757         1.75369
LJ           1.61118        -2.54324         1.73962
LJ           2.50822       -0.641522         1.06736
LJ          -1.83409      -0.0071506        0.800417
LJ           2.44142       0.0452202         1.92028
LJ          -1.71718       -0.944027         1.50464
LJ         -0.722841       -0.895333         1.01435
LJ         0.0507782      -0.0445582        0.943845
LJ         -0.845536        0.158681           2.129
LJ            0.1029       -0.975119         1.69546
LJ          0.981859       -0.868666        0.788295
LJ            1.6504       -0.142314        0.588558
LJ          0.738972      -0.0566389         1.84226
LJ           1.60853       -0.833114         1.67408
LJ           2.47812        0.633833        0.871377
LJ          -1.47018          1.9633        0.754439
LJ           2.52039         1.55081         1.54325
LJ          -1.58439        0.912465         1.58515
LJ         -0.907761        0.696578        0.789543
LJ          0.153443          1.5975        0.869436
LJ           -0.7394         1.68265         1.50481
LJ        -0.0396799        0.905801         1.55264
LJ          0.870344         0.62025        0.887197
LJ           1.75299         1.65282        0.742803
LJ          0.846286         1.54924         1.71903
LJ           1.71857        0.700544          1.7197
