108
#Comment!
LJ           2.53952        -2.45501         2.51517
LJ          -1.68748        -1.65071         2.42952
LJ          -2.54893        -1.65733        -1.65701
LJ          -1.71348        -2.36992        -1.81157
LJ          -0.83702         2.47073         2.49208
LJ         0.0524071        -2.04767          -2.459
LJ          -1.13723        -1.44085        -1.60542
LJ         0.0714955          2.2579        -1.63908
LJ          0.916745          2.4069        -2.51403
LJ           1.83495         -1.7305         2.50805
LJ           1.00195        -1.78851        -1.68871
LJ            1.9002        -2.56241        -1.53601
LJ           2.41249       -0.797856         2.53034
LJ          -1.72831        0.109292         2.52557
LJ          -2.52673         0.15935        -1.86056
LJ          -1.67811        -0.49338        -1.52964
LJ          -1.14362       -0.867723        -2.42963
LJ         0.0173439        -0.23884        -2.41272
LJ         -0.819169     -0.00884022        -1.69119
LJ         -0.106571        -1.00894        -1.87918
LJ          0.931201        -1.13699        -2.46762
LJ           1.66188         0.07235        -2.53491
LJ          0.753023      -0.0120326        -1.73152
LJ           1.63541       -0.760276        -1.73981
LJ          -2.41712         1.10345         2.46013
LJ           -1.7753         1.84728         2.50822
LJ          -2.49632         1.64054        -1.62541
LJ          -1.49857        0.878063        -1.73902
LJ         -0.641798         1.13064        -2.55075
LJ          0.068998         1.78125         2.52526
LJ         -0.822683         1.73013         -1.6416
LJ         0.0644299         1.05507        -1.71504
LJ           1.01746        0.834526        -2.52379
LJ           1.84128         1.87629         2.49875
LJ          0.883242         1.75083         -1.6562
LJ           1.79289        0.901848        -1.80896
LJ           2.51892         2.36104       -0.602276
LJ          -1.56859        -1.89713        -0.79723
LJ          -2.42584        -1.74004       -0.133469
LJ          -1.76239         2.46607      -0.0581617
LJ         -0.682541        -2.52165        -1.00077
LJ         0.0989204        -1.77579        -0.90368
LJ         -0.476712        -1.76542        0.039355
LJ         -0.320415         2.36219        0.192336
LJ          0.756761        -2.52098       -0.925771
LJ             1.715        -1.61397       -0.968904
LJ          0.613502        -2.11606        0.074392
LJ           1.65821        -2.29295       0.0491812
LJ          -2.37948       -0.877809       -0.724665
LJ          -1.83297       0.0416481       -0.604011
LJ           2.44508       0.0656949       0.0104597
LJ          -1.58768       -0.911757       0.0538968
LJ         -0.591274       -0.861258       -0.780843
LJ        -0.0342943        0.306681       -0.966076
LJ         -0.883548      -0.0404468      -0.0991132
LJ         0.0650742       -0.842312         0.25386
LJ          0.831641       -0.976827       -0.746402
LJ           1.90606       -0.142654       -0.884477
LJ          0.781951       0.0290396      -0.0279573
LJ           1.68331        -0.89127       -0.208038
LJ          -2.41126        0.907296       -0.917395
LJ          -1.62312         1.71064        -0.89638
LJ           2.50354         1.64405        0.101005
LJ           -1.9318         0.98763      -0.0326205
LJ          -1.04822        0.714312       -0.813617
LJ         0.0237118         1.64687       -0.809402
LJ          -0.82453         1.55057       -0.137307
LJ        -0.0734345        0.881706        0.111207
LJ          0.792246        0.890198       -0.688204
LJ           1.66539         1.62824       -0.967292
LJ          0.858862         2.01281     -0.00247349
LJ           1.74734        0.821933       -0.212381
LJ           2.43951         2.46302        0.853249
LJ          -1.42612        -1.71304        0.607425
LJ           2.44164        -1.55543         1.72718
LJ          -1.97195         2.48503         1.64046
LJ         -0.699319        -2.43911         1.09004
LJ          0.121102        -1.60837        0.844925
LJ         -0.895373        -1.71768         1.67922
LJ         0.0905199        -2.34225         1.73658
LJ          0.985838         2.40702        0.868357
LJ           1.99431        -1.51438        0.657495
LJ           1.00163        -1.80752         1.66752
LJ           1.67065         2.54767         1.66775
LJ           2.54702       -0.637725        0.979277
LJ          -1.71382      -0.0587518        0.919563
LJ           2.53433       0.0406152         1.83429
LJ          -1.75098       -0.972819         1.57652
LJ         -0.677231       -0.893366        0.926597
LJ         0.0954919       0.0180265         1.10668
LJ         -0.859291        0.174745         2.04837
LJ         0.0900889       -0.904026          1.8697
LJ           1.03457       -0.960026        0.745703
LJ           1.66443       -0.117183         0.67448
LJ          0.758789      -0.0380604         1.85871
LJ           1.64131       -0.826251         1.73851
LJ           2.53391        0.812134        0.958599
LJ          -1.47185         1.86749        0.745141
LJ           2.41945         1.66806         1.54252
LJ           -1.6544        0.960209           1.561
LJ         -0.916848        0.641084        0.813965
LJ          0.241475         1.46983        0.826159
LJ         -0.864287          1.5718         1.58756
LJ        -0.0301914        0.845919          1.5865
LJ          0.946452        0.667215        0.818229
LJ           1.67446         1.73623        0.748146
LJ          0.885949         1.53117          1.8324
LJ           1.74571        0.790709          1.8038
