108
#Comment!
LJ          -2.07524         2.26992         1.28346
LJ          -1.98701        -1.69381       -0.803308
LJ         -0.228642        -1.39046        0.697783
LJ          0.195814        -1.79462       -0.108974
LJ          -1.26154         1.20048        -2.53451
LJ          0.794292       0.0471911     -0.00398695
LJ           1.04448        0.816971         1.48552
LJ          0.438346        0.433849         2.45658
LJ         -0.261052         1.28986         1.86672
LJ          -1.65113         2.43121       -0.512231
LJ          -1.76945       -0.888562         1.17114
LJ           2.19592          1.9492         2.02723
LJ          0.388493         1.60473         2.47584
LJ          0.661298         1.83912         1.28347
LJ           1.35503        0.271596        -2.19203
LJ           1.49727        -1.78261         0.50133
LJ           2.45749        -1.76259         1.94601
LJ          0.461741        0.996937        -1.74234
LJ           1.14111         2.53375         1.94506
LJ          -1.66617         1.57327       -0.919235
LJ          -1.94395        -1.23978        0.228277
LJ         -0.707261        -2.43386        -1.12704
LJ          -2.48467         2.23926        -1.21581
LJ         -0.785698        -1.98213        -2.23972
LJ           1.99431        -2.50238         1.16978
LJ          -0.46119        -1.33158         1.84271
LJ           1.98566        -1.83067        -1.45703
LJ           2.50196       -0.669106         1.92056
LJ          -1.56583         1.91344        0.423198
LJ           0.46807       -0.109177         1.28587
LJ          -1.74289        0.150432         -2.5556
LJ           1.46528       -0.437124       -0.920982
LJ           2.26621        -1.14177       -0.724325
LJ           1.54568         1.12134         2.42187
LJ           1.63292        -1.33748          1.5271
LJ          -1.13495        -1.76191        0.999634
LJ          -1.01791         2.37459         1.13759
LJ            1.7677        -1.36855         2.54003
LJ          0.664715       -0.978735        0.681046
LJ         -0.959539        0.614065       -0.451307
LJ         -0.239342         1.50537       -0.483245
LJ         -0.439228         2.39204        0.089062
LJ          -1.54155         2.04842        -1.77114
LJ          0.554154       -0.829576        -2.27822
LJ          0.911761          2.3791        -2.04029
LJ           2.40519        0.108294        -1.36701
LJ           2.34923       -0.122335        -2.35958
LJ           1.67472       -0.791087        0.296565
LJ           2.43703        -1.60705        0.932263
LJ          -0.31226         2.52266         1.86745
LJ          -1.36044          2.3378         2.27603
LJ          -2.48284       -0.326103        0.109172
LJ          -1.15681        -1.72968       -0.119225
LJ            2.4518        0.810842        -2.15087
LJ          -1.97141        0.569486       -0.521057
LJ          0.216109        -1.91218        -2.30626
LJ           1.60318         2.26513        -1.33665
LJ          -2.21981        -2.33018        0.236277
LJ          0.824965        0.875167       -0.731713
LJ         -0.310006          2.1045        -2.19035
LJ          0.299187        -2.28475        -1.12412
LJ          0.292194        -2.39823         1.10068
LJ          -2.46395         2.04904        -2.20985
LJ          -1.66421        -1.70955         1.94758
LJ           1.64455        -0.70194        -1.83871
LJ          -1.65541        0.786377        -1.55488
LJ         -0.714909          1.2817        0.509694
LJ          -1.65696        0.255415         1.39216
LJ            2.5185         1.87567       -0.164825
LJ          -1.48046       -0.550698       -0.581276
LJ           1.77125         0.34911       -0.349727
LJ           2.52849         1.19596        -1.09384
LJ          -2.34817         1.28329        0.998821
LJ         -0.496044      -0.0754384         1.72555
LJ          -1.52927       -0.282064        -1.48585
LJ           1.69054         1.35884         -1.7751
LJ           2.00089        -2.38555        -2.30586
LJ           1.07559        -1.63103        -1.80122
LJ           1.19296        -1.60817       -0.639292
LJ          -2.07775         1.46633         2.15655
LJ           1.26032       -0.405166         2.16753
LJ           1.63118         1.53005       -0.506994
LJ          -1.40896        -1.30893        -1.64938
LJ         -0.756137         1.31992        -1.65395
LJ           2.19215        -2.22137       -0.549096
LJ           2.06356        0.714854        0.593597
LJ           2.22005        0.755419         1.63909
LJ         -0.597615        0.383193        -2.21245
LJ          0.678448         2.39576      -0.0614166
LJ          -2.37195        -1.02228        -2.18224
LJ          0.589766        -1.39745         1.59605
LJ          -1.35652         1.35451         1.37317
LJ           1.67204         1.62198          1.1796
LJ           1.63922       -0.225535         1.13552
LJ         -0.146498         0.26546        0.492668
LJ          -2.14719        -2.11884        -1.96617
LJ         -0.635668       -0.746933        -2.03065
LJ         -0.289356        -1.41589        -1.30884
LJ         -0.538733        -0.99907       -0.395927
LJ          0.719622      -0.0385997        -1.50368
LJ          0.566926         1.88991        -1.00448
LJ           1.57571         2.29346        0.238136
LJ          -1.37793        -0.65387         2.04211
LJ          0.512679          1.3357        0.437337
LJ         -0.994075       -0.403043        0.343245
LJ          -1.67111        0.627988        0.404082
LJ          0.409574       -0.970151       -0.618262
LJ         -0.314412       0.0211355         -1.2271
