108
#Comment!
LJ          0.511825        -1.39179        0.103858
LJ           2.28938        -1.04138         1.74592
LJ          0.230885        0.966836         -1.6004
LJ           -2.2617        -1.44574       -0.860585
LJ         -0.886632       -0.346932         1.74985
LJ          0.964783        -2.24626        0.544197
LJ           1.09058        -0.49562        -1.07877
LJ           1.02983       -0.893325        0.837574
LJ          0.778201      0.00799737         2.02854
LJ           2.26122          1.1106       -0.443497
LJ           1.83519        -2.11173       -0.308112
LJ         0.0253939       -0.782219         2.24371
LJ          -1.74369        -2.12256        0.982412
LJ         -0.496873         0.67597         1.86717
LJ           -2.4389        0.099851         1.21488
LJ          -2.40015       -0.630523       -0.126801
LJ         -0.964704        -2.38123         1.91691
LJ           1.59975         1.96659      -0.0462615
LJ        -0.0792495        -2.20563         2.47333
LJ            2.3299        0.216958        0.242845
LJ          0.426395        -2.18388        -1.49171
LJ         0.0674762         2.03044        -1.78007
LJ          0.209366       0.0614185       -0.575282
LJ           2.44722         1.36225         1.48312
LJ        0.00582454       -0.966706       -0.788831
LJ          -2.34392         1.96094        0.148738
LJ           2.07562         -2.0108         1.78491
LJ         -0.691399       -0.789064        -1.90158
LJ         -0.439204         1.60472         1.02954
LJ          -1.78551       -0.491058        -1.21196
LJ           1.77119         1.77804        -1.22516
LJ         -0.289432        -2.02357       -0.567926
LJ           2.02627         -1.0498        -1.28999
LJ          -1.78837         2.29328        -1.66399
LJ          -2.43663        -1.75674       0.0568786
LJ          -1.12396         1.32862       0.0522807
LJ          0.740352         1.69193        0.697009
LJ          -1.87626       -0.621827         2.14352
LJ           1.04886        -1.63418       -0.750762
LJ          0.976025        0.947854      -0.0668807
LJ          0.647843        -2.52888       -0.319168
LJ           2.19503         -0.6414        0.748537
LJ         -0.757402       -0.193066       -0.798082
LJ          -1.72365        -2.31823        -2.52996
LJ           1.80885        -1.84174        0.632642
LJ           2.37689         1.43438        -2.10514
LJ         -0.858722        0.220367        -1.80428
LJ           1.39548        0.379068        0.812243
LJ          0.352732        -2.54771         1.32761
LJ         -0.101689        -1.58013         1.28457
LJ          -1.54773         1.81933        0.900684
LJ         -0.828099          2.1314        -2.36653
LJ          0.499036        0.842062         1.57556
LJ         -0.862237        0.537354        0.960792
LJ           1.89234         1.26621        0.522577
LJ         -0.952029         1.16256        -2.09659
LJ          -1.05293         1.54717         1.89979
LJ          -1.57034        -2.36424       -0.423087
LJ          0.052256       -0.389327         1.28604
LJ           0.86456        0.733089         -2.3492
LJ          -2.12869        -1.24025        0.945137
LJ         -0.832377        -1.29413         2.30833
LJ          -2.48903         2.53229       -0.900115
LJ           1.79774        -0.11815         1.95301
LJ          -1.72208       -0.295668        0.611959
LJ           1.38767        0.865951        -1.38072
LJ          -1.71498         0.25849       -0.287604
LJ           1.39096       -0.427135        -2.07616
LJ         -0.666006        -2.47545          0.9169
LJ           2.32299        0.186391       -0.750476
LJ           1.25692        -2.33917        -2.44217
LJ          -1.70503         0.90226         1.39667
LJ          0.594363         1.56768       -0.798899
LJ           2.09367         2.20964        0.918039
LJ           1.36499         2.10368         1.65161
LJ          -1.06453        -1.25166         1.22812
LJ            0.5968        -1.16555        -1.79515
LJ          -1.75244        0.516352        -1.52915
LJ         -0.725751        -2.33639        -1.58902
LJ          -1.48616        -1.29162       0.0897034
LJ           1.78923         -1.0706       -0.213419
LJ         -0.241501         0.74123         0.22697
LJ           2.07653         2.17833         2.40248
LJ          -1.50519        0.506216         2.32384
LJ           1.86091          0.5399        -2.29456
LJ          0.881841        -1.87871         1.87801
LJ           2.48939       -0.621799        -2.23717
LJ          0.192441       -0.149895        -1.94597
LJ          -1.11745        -1.40527       -0.897259
LJ         -0.413422       -0.712024        0.364441
LJ          -1.52113        -1.49752        -2.07251
LJ         -0.688917        -1.67033        0.433388
LJ           1.57215         1.03465         1.92764
LJ          -1.96212        -1.64517         1.96453
LJ          -2.45857         -2.0489         -1.9178
LJ          -2.07226         0.98665        0.440921
LJ           1.10527         1.71046        -2.18827
LJ          -1.97474         1.49342        -1.04819
LJ           1.45317        -1.05241         2.24078
LJ          -2.49557        0.680915         2.23911
LJ         -0.113619         1.97161      -0.0819709
LJ         -0.902303         1.91638        -1.18122
LJ           1.81324        -2.28115        -1.42117
LJ           1.12048       -0.270781      -0.0635011
LJ         0.0787538         1.80511         2.16914
LJ          -2.23962         2.35469         1.63169
LJ           -1.9588         1.70336         2.45184
LJ          -0.44664        0.923162       -0.758496
