108
#Comment!
LJ          -2.55874        -2.50724         2.42516
LJ           -1.7363        -1.66472         2.52986
LJ          -2.40643        -1.58395        -1.82063
LJ           -1.7337         2.52499        -1.60382
LJ          -0.84779         2.53248        -2.46125
LJ        -0.0393875        -1.96336        -2.45061
LJ          -1.11547        -1.49445        -1.79403
LJ        -0.0587148          2.2091        -1.84872
LJ          0.806019         2.55172         2.38696
LJ           1.79824         -1.7164           -2.53
LJ          0.676156        -1.84338         -1.7551
LJ           2.01145         2.42177        -1.72952
LJ           2.45539       -0.840912         2.52951
LJ          -1.74803       0.0474194        -2.55525
LJ           2.46273        0.087756        -1.86534
LJ          -1.71099       -0.575889        -1.60894
LJ           -1.0764       -0.753531        -2.45514
LJ         -0.128359       -0.180793        -2.49299
LJ         -0.849302       0.0156783        -1.84178
LJ         -0.132368        -1.16316        -1.89753
LJ          0.885001        -1.07336        -2.54078
LJ           1.65739      -0.0404367         2.43087
LJ          0.915762       0.0547403        -1.84755
LJ           1.67909        -0.65993        -1.74718
LJ           2.52947        0.899322         2.53837
LJ          -1.72305         1.92704         2.47637
LJ          -2.39205         1.64084        -1.64356
LJ          -1.58853        0.748605        -1.84437
LJ         -0.623556        0.969863         2.52607
LJ            0.1517         1.76131         2.31739
LJ          -1.04684          1.6845        -1.73012
LJ          0.117105         1.11938        -1.81105
LJ          0.835249        0.913496         2.48744
LJ           1.78512         1.84938         2.41146
LJ          0.963837         1.97383        -1.88028
LJ           1.58679         1.03009        -1.70621
LJ           2.44561          2.4382       -0.720743
LJ          -1.38665        -1.72821       -0.813068
LJ          -2.33883        -1.90634       -0.160331
LJ          -1.74399         2.38754      -0.0552097
LJ         -0.794618         2.56186        -1.03434
LJ          0.156923        -1.64494       -0.821873
LJ         -0.656795        -1.99878       -0.174829
LJ         -0.168772         2.25543      0.00367017
LJ          0.789807        -2.51833       -0.962225
LJ            1.8985        -1.80481        -1.09142
LJ          0.701499        -1.91808          0.2386
LJ           1.69085        -2.47817      -0.0980141
LJ          -2.49442        -0.91017       -0.786333
LJ          -1.94869       0.0861211       -0.816161
LJ          -2.50568        0.138573      -0.0121544
LJ          -1.76304        -0.85079        0.145341
LJ         -0.611601        -0.82345       -0.663355
LJ        -0.0946761        0.270067        -1.00087
LJ         -0.670154       0.0733961      -0.0182385
LJ        -0.0540351       -0.725969        0.196244
LJ          0.915123       -0.932071       -0.641894
LJ           1.84678      -0.0624103       -0.625356
LJ          0.680167       0.0892824       0.0776092
LJ           1.79695         -1.2623       -0.123156
LJ          -2.56407         1.01813       -0.774988
LJ          -1.58041         1.74698       -0.805611
LJ           2.48125         1.67767      -0.0535782
LJ          -1.82688         1.12218        0.310166
LJ          -1.07199         0.74297       -0.850658
LJ          0.143555         1.65906        -0.97347
LJ         -0.818431         1.54785      -0.0890486
LJ         0.0993897        0.941274       -0.218457
LJ          0.960871        0.923731       -0.798373
LJ           1.67717         1.75878        -0.84489
LJ          0.780191         1.93431      -0.0214948
LJ           1.62275        0.843366      -0.0940461
LJ           2.43539         2.34097        0.730585
LJ          -1.40613          -1.754        0.722404
LJ            2.5555        -1.59543         1.77121
LJ          -2.09583        -2.41498          1.4013
LJ         -0.798047         2.48853         1.06523
LJ         0.0873244        -1.47345        0.996409
LJ         -0.961018        -1.86184         1.81228
LJ         0.0755981        -2.34212         1.70186
LJ          0.803772         2.26991         1.00023
LJ            1.9683        -1.58462        0.852772
LJ           1.00857        -1.81376         1.71715
LJ           1.74304        -2.46714         1.62211
LJ           2.53437       -0.684654        0.871547
LJ          -1.69763       0.0914222        0.817599
LJ           2.42873        0.060513         1.73664
LJ          -1.68417       -0.752148         1.77995
LJ         -0.767435        -1.04743         1.01085
LJ         0.0720578      -0.0870738         1.09095
LJ         -0.883861        0.122336         1.98651
LJ          0.164398       -0.947785         1.85282
LJ            1.0723        -1.05309        0.764842
LJ           1.58394       -0.100592        0.626007
LJ          0.750144      -0.0474494         2.02267
LJ           1.56301       -0.750808         1.80445
LJ           2.24815        0.855583        0.743921
LJ           -1.6404         1.85433        0.926569
LJ           2.44182         1.55531         1.47095
LJ          -1.84587         1.00577         1.56498
LJ         -0.834369        0.690727         0.83429
LJ          0.206336         1.44394        0.785912
LJ         -0.880037         1.47082         1.56054
LJ          0.202874        0.885876         1.60279
LJ           1.15304         0.70906         0.98545
LJ           1.53114         1.64961        0.601296
LJ          0.894327         1.56163         1.66391
LJ           1.65051        0.896393         1.83309
