108
#Comment!
LJ          0.235986        -1.55383       -0.952895
LJ           2.39534        -1.93826         1.23873
LJ          0.518894          1.7508        0.177757
LJ          -1.14012         -1.6779        -2.30555
LJ          -2.34067       -0.599521         2.04232
LJ          0.260615         -1.9046         1.12332
LJ          0.543367       0.0306856      -0.0479535
LJ        -0.0838673        -1.84337        -2.40613
LJ        -0.0420859         0.17741        -1.76357
LJ            0.9395         2.22077        -2.40061
LJ         -0.158669        -2.25571      -0.0950235
LJ         -0.553262        -1.31324         1.73855
LJ           -1.0614         2.02186       0.0768242
LJ          -1.84571        0.282314         1.59362
LJ            1.0666      -0.0980624         2.54925
LJ          0.831031        -1.83184       -0.193645
LJ          -2.49071         1.79885      -0.0898883
LJ           2.17889          1.1331       -0.775816
LJ          -0.87657         1.70432         1.67191
LJ           1.15707        0.944253         1.86749
LJ           0.84187         -1.8937         2.46157
LJ          0.413384         1.65978        -1.47034
LJ         -0.421357       -0.840686        -1.70028
LJ           1.84866       -0.220141         1.67878
LJ          0.747434        -2.04904        -1.64679
LJ           1.85812         2.11971        0.912256
LJ           1.35923        -1.64111        0.921879
LJ          -1.11027        0.167136          2.2646
LJ          0.251637         1.64263         2.05487
LJ          -2.51254        -1.27779       -0.585566
LJ          -1.25963          1.4404        0.849917
LJ         -0.998927        -2.23859        0.954142
LJ           1.57882        -2.10974       -0.896656
LJ          -1.56476         1.51369        -2.11624
LJ          -1.86322        -1.78134         0.51105
LJ          -2.35362         1.41499         1.20815
LJ         -0.382618        -2.43894         1.90057
LJ           2.17157       -0.303135         -2.2666
LJ           1.03515         2.20279       -0.855574
LJ           1.18034        0.739997        0.326835
LJ         -0.615268       -0.520907       -0.642479
LJ          -1.22436        0.263848        0.426911
LJ          -1.03378        -1.65659        -1.20123
LJ          -2.12934        -2.00911        -2.49693
LJ          0.984585        -2.47573        0.545083
LJ          -2.04812        -2.44902       -0.441477
LJ          -1.92622       -0.880382        -2.15071
LJ           1.33326        -2.51399         1.73738
LJ         -0.831716        -1.29969        0.386335
LJ         -0.317377       -0.299967         1.36035
LJ          -1.97467        0.987355        0.215084
LJ           2.23802        -2.22163         2.13044
LJ          0.331352        0.459887         2.04999
LJ          -1.92889         2.51295         1.56968
LJ            1.5765         1.79081      -0.0702728
LJ         -0.489625         1.06713        -2.52841
LJ          -2.45364           2.159         -2.3391
LJ         -0.129528        -2.47929        -1.23866
LJ          -1.09103      -0.0692293        -1.89647
LJ         -0.101697        0.565489       -0.694217
LJ           1.66891        -1.10403         2.06971
LJ           -1.6369        -1.58097         1.68078
LJ           1.06121         1.48186         1.00862
LJ           1.36799        -1.13814       -0.981566
LJ         -0.249883          1.0735        0.226433
LJ          0.973463        0.921074       -0.862711
LJ          0.652231       -0.765729         0.71358
LJ           1.65199        0.501544        -1.80374
LJ          -1.40109       -0.588339         1.09697
LJ          -2.47463         1.06521        -1.73389
LJ            2.3321        0.727779         1.92495
LJ          0.532624        -1.05553         1.64919
LJ          -1.43417        0.404317       -0.887437
LJ           2.05244        -2.34018       0.0762572
LJ          0.636296        0.821253        -2.11378
LJ          -2.20399         2.44109        0.590344
LJ          0.448325       -0.506467        -1.07932
LJ           2.41108      -0.0756805       -0.337369
LJ         -0.809047        0.855525        -1.51794
LJ           2.44013       -0.995995        0.751058
LJ          -1.58769       -0.644055       0.0032419
LJ         -0.278495        0.754791         1.23727
LJ          -1.18329         2.35695       -0.931662
LJ          -2.36774       -0.164097        -1.40058
LJ           1.39773     -0.00254666       -0.673552
LJ         -0.063206         2.16205         -2.2252
LJ             2.175        -1.34797         -1.7046
LJ         0.0106243       -0.549421         2.45226
LJ          -1.13427         2.43115         2.46887
LJ         -0.146586         1.68723       -0.554228
LJ           1.70042        -1.34156       0.0467281
LJ          -1.94854        -1.87932        -1.52276
LJ           1.79943        -2.45851        -2.09058
LJ          -2.52336        0.118532        0.826555
LJ          0.775404       -0.966863         -2.0344
LJ          0.634021        0.122942         1.15699
LJ           1.93842         1.31598        -2.36598
LJ           1.56995        -0.34252        0.678586
LJ         0.0935061        -1.16601      -0.0197702
LJ          -1.81458         1.45142         2.10742
LJ         -0.267103         2.06289        0.892803
LJ          -1.70635         1.49678       -0.892289
LJ           1.53438            1.57         -1.5583
LJ           1.98225         1.10046        0.686018
LJ          -2.09179        0.385509        -2.48275
LJ           1.82444         1.67928         1.80282
LJ           2.42916           2.234        -1.29843
LJ          -1.60496       -0.720545        -1.18557
