108
#Comment!
LJ          -2.46549        -2.41045         2.51509
LJ           -1.8141        -1.55155          2.4973
LJ          -2.34433        -1.60809        -1.82223
LJ          -1.51632        -2.45494        -1.79423
LJ         -0.827142         2.41307        -2.50388
LJ         -0.121487        -1.63098         2.45851
LJ          -1.03984        -1.55648        -1.92406
LJ         0.0556566         2.46296        -1.89006
LJ          0.977553        -2.39248        -2.49845
LJ           1.73004        -1.63438         2.41579
LJ           1.22614        -1.75625         -1.7003
LJ           1.89234         2.43304        -1.56539
LJ           2.49989       -0.649167         2.54708
LJ          -1.81784       0.0054181         2.35315
LJ          -2.44446       -0.049318        -1.85358
LJ          -1.60734       -0.629624        -1.61208
LJ          -1.06467       -0.723975          -2.473
LJ        -0.0123728       -0.179345        -2.41897
LJ         -0.791831        0.125934        -1.74494
LJ         0.0770462       -0.972432        -1.66622
LJ          0.811302       -0.959375         2.52205
LJ           1.68595      -0.0315797        -2.36324
LJ          0.745149        0.133547        -1.66342
LJ           1.56643       -0.743088        -1.56582
LJ           2.55642         0.98843        -2.42387
LJ          -1.70656         2.00507         2.37946
LJ          -2.48799         1.72297         -1.4853
LJ           -1.5753        0.752083        -2.00893
LJ         -0.461585        0.742551         2.51302
LJ          0.129097         1.66982         2.39116
LJ          -1.25289         1.71508         -1.6503
LJ        -0.0690487         1.05785        -1.69993
LJ           1.15497         1.01867         2.56173
LJ            1.7813         1.83454         2.50499
LJ           1.02116         1.85519        -1.82168
LJ           1.68258        0.812491        -1.69072
LJ           2.46948         2.48458       -0.715686
LJ          -1.44347        -1.71157       -0.850978
LJ          -2.37753        -1.65667       -0.149649
LJ          -1.64043         2.51169       0.0827148
LJ         -0.624671        -2.47869        -1.07971
LJ         0.0701669        -1.78205       -0.734768
LJ         -0.755657        -1.77275      -0.0762446
LJ        -0.0717902         2.31951        0.106888
LJ          0.663593         2.53923       -0.874642
LJ           1.92491        -1.62006       -0.934494
LJ          0.749539        -1.87001        0.193009
LJ           1.63188        -2.44814      -0.0064893
LJ          -2.42314        -0.81943        -0.85322
LJ          -1.84905       0.0994192        -0.97106
LJ          -2.38476        0.121066      0.00789354
LJ          -1.65917       -0.773133      -0.0305559
LJ         -0.793753       -0.722759       -0.771557
LJ         -0.149104       0.0673348         -1.0164
LJ         -0.671693      -0.0400995        0.100951
LJ        -0.0238973       -0.869472        0.130157
LJ          0.922581        -1.24104       -0.756182
LJ           1.85581       -0.187905       -0.659114
LJ          0.726294       0.0701559       0.0925898
LJ           1.98738        -1.01897      -0.0496642
LJ           2.45396        0.820291       -0.811512
LJ          -1.75665           1.694       -0.709261
LJ           2.43966         1.58618      0.00157077
LJ          -1.84809         1.07318        0.158388
LJ           -1.0759        0.750897       -0.981807
LJ           0.18353         1.71174       -0.877576
LJ         -0.844799         1.75716      -0.0789818
LJ         0.0287588        0.856711       -0.180355
LJ          0.868282        0.937926       -0.866371
LJ           1.71241         1.66849       -0.857863
LJ          0.937531         1.73485       -0.124512
LJ           1.59265        0.859705        0.138271
LJ          -2.54009         2.49051        0.628512
LJ          -1.53282        -1.83822        0.844891
LJ          -2.52481        -1.46074         1.59529
LJ          -1.96976        -2.33141          1.6942
LJ          -0.84453         2.40765         1.03933
LJ         0.0139003        -1.48161         1.06074
LJ         -0.997919        -1.73146          1.7868
LJ         0.0667788        -2.22392         1.80209
LJ          0.848885         2.38351        0.941826
LJ           1.65647        -1.50434         1.06549
LJ          0.880823        -1.65911         1.76892
LJ             1.812        -2.49486         1.56655
LJ          -2.48878        -0.84744        0.694043
LJ          -1.61038        0.073425        0.801978
LJ           2.40571     -0.00693634          1.6006
LJ          -1.69571       -0.914735         1.59118
LJ         -0.830041       -0.878512         1.01573
LJ          0.176436       -0.102553        0.875376
LJ         -0.980572       0.0166449         1.82685
LJ          0.238588        -0.71466         1.69986
LJ          0.888532       -0.920098        0.630154
LJ           1.83037       -0.316478        0.773992
LJ          0.835648       0.0382973         1.78009
LJ           1.46997       -0.734315         1.81116
LJ           2.29377        0.982384        0.981052
LJ          -1.76858         1.79279          1.0896
LJ           2.53093         1.91465         1.65015
LJ          -1.84673        0.771803         1.64698
LJ         -0.917265        0.891667        0.694464
LJ          0.365761         1.45189        0.746421
LJ          -0.71888         1.38644         1.71401
LJ          0.123346        0.850611         1.53983
LJ           1.15462        0.682876        0.988944
LJ           1.49461          1.7261        0.730803
LJ           1.02583         1.64425         1.67149
LJ            1.9212         1.16692         1.87427
