108
#Comment!
LJ           2.56031        -2.29427         2.49956
LJ          -1.68406        -1.46074         2.52111
LJ           -2.3449        -1.53948        -1.79229
LJ          -1.68673        -2.45268        -1.69667
LJ         -0.767494         2.36939        -2.45171
LJ         -0.145962        -1.46606         2.49658
LJ         -0.920352        -1.42925        -1.95662
LJ          0.101112        -2.48526        -1.95042
LJ          0.986876         -2.3713        -2.41344
LJ           1.64449        -1.51754         2.41141
LJ           1.19176        -1.68579        -1.74289
LJ           1.86778        -2.53772        -1.64819
LJ           2.48443       -0.721058        -2.42081
LJ          -1.85021      -0.0893422         2.35089
LJ           2.51435      -0.0155224        -1.66139
LJ          -1.60402         -0.4782        -1.66337
LJ         -0.772296       -0.645466        -2.52498
LJ           0.22026       -0.048969        -2.28161
LJ         -0.759244       0.0792403        -1.73331
LJ          0.139705       -0.922755        -1.55095
LJ          0.781813       -0.994992        -2.49863
LJ            1.7182       0.0345185        -2.39738
LJ          0.873893        0.239524        -1.62884
LJ           1.51804       -0.625718        -1.57344
LJ          -2.50073        0.864262        -2.43054
LJ          -1.79643         2.04603         2.42947
LJ          -2.53732         1.75383        -1.56542
LJ          -1.60221        0.632048        -2.14053
LJ         -0.543808        0.820833         2.51856
LJ         0.0912616          1.7881         2.46477
LJ          -1.26499           1.732        -1.62524
LJ        -0.0275609         1.05623        -1.63582
LJ          0.916097        0.935208        -2.56223
LJ           1.73009         1.87187         2.53615
LJ          0.933306          1.8334        -1.80317
LJ           1.73722          1.0009         -1.8035
LJ           2.53348        -2.52059       -0.751766
LJ          -1.38001        -1.65233       -0.866001
LJ          -2.24033        -1.58528      -0.0631484
LJ          -1.68006         2.43406        0.223383
LJ         -0.693225        -2.53468        -1.07504
LJ         0.0639344        -1.90722        -0.67509
LJ         -0.693377        -1.81711       -0.028528
LJ       -0.00740743         2.31067        0.154784
LJ           0.91644        -2.49644        -1.03907
LJ           1.83098        -1.58461       -0.898618
LJ          0.760823        -1.98172         0.18695
LJ           1.75115        -2.53762        0.107695
LJ          -2.33014       -0.768016       -0.805852
LJ          -1.89473         0.25491       -0.974285
LJ          -2.40801      -0.0243354    -0.000764745
LJ          -1.54171       -0.650741       -0.153546
LJ          -0.72644       -0.678181       -0.782326
LJ         0.0220391      -0.0569231       -0.943638
LJ         -0.692918       -0.111611      -0.0478417
LJ        0.00822937         -1.0732        0.173349
LJ          0.955814        -1.08939       -0.677533
LJ           1.89828       -0.264453       -0.637901
LJ          0.765647       0.0979538       0.0206912
LJ           1.90352        -1.03088       0.0426585
LJ           2.35999        0.815095       -0.809693
LJ          -1.81754         1.63459       -0.686569
LJ           2.42597          1.6973      -0.0106487
LJ          -1.76296        0.952073        0.133358
LJ         -0.989296        0.762221       -0.988655
LJ        0.00191148         1.77359       -0.823136
LJ         -0.728824         1.67283       -0.113707
LJ         0.0638433        0.903115       -0.101373
LJ          0.874784         1.03448       -0.988642
LJ            1.6527         1.70498       -0.782467
LJ          0.855399         1.76721       -0.112745
LJ           1.70804        0.823873        0.116869
LJ           2.47463         2.46235         0.70941
LJ          -1.43669        -1.83277        0.825885
LJ           2.45575        -1.53303         1.66018
LJ          -1.88548         -2.4193         1.69124
LJ         -0.850077         2.47797          0.9657
LJ         -0.063186        -1.52258         1.04878
LJ         -0.893019        -1.62266         1.77002
LJ       -0.00752465        -2.25155         1.77685
LJ          0.794389         2.44577        0.869434
LJ           1.66001        -1.65824        0.999542
LJ          0.808787         -1.5619         1.65294
LJ           1.70166        -2.46904         1.58287
LJ          -2.42886       -0.814288        0.769923
LJ          -1.80985        0.172481         0.79079
LJ           2.38771      -0.0062455         1.71522
LJ          -1.71555       -0.828824          1.6577
LJ         -0.844024        -0.86937        0.916438
LJ          0.160064      -0.0396549        0.880788
LJ         -0.908679       -0.055228         1.75836
LJ         0.0222141       -0.721778         1.74332
LJ          0.995026       -0.959939        0.474944
LJ           1.78651       -0.231422        0.833724
LJ          0.919399     -0.00241552         1.73384
LJ             1.569       -0.741848         1.70175
LJ           2.31259        0.894371         1.06494
LJ          -1.89292         1.57833        0.877634
LJ           2.45779         1.89433         1.58284
LJ          -1.71902        0.876972         1.67522
LJ         -0.916711        0.935214        0.848701
LJ          0.333481         1.41231        0.811086
LJ         -0.671923         1.51059         1.68745
LJ         0.0733674        0.705287         1.67129
LJ           1.10192        0.744882          1.0239
LJ           1.63829         1.76742        0.739733
LJ          0.914589         1.82276          1.6185
LJ           1.84281        0.980407         2.01256
