108
#Comment!
LJ           -2.5537        -2.32544         2.52667
LJ          -1.69454         -1.4841         2.48714
LJ          -2.35667        -1.54003        -1.81378
LJ          -1.65084         -2.4568        -1.71234
LJ         -0.777934          2.3774        -2.42512
LJ         -0.126927        -1.46241         2.50142
LJ         -0.924317        -1.42323        -1.98373
LJ         0.0785673        -2.49404        -1.98727
LJ          0.999409        -2.35358         -2.4157
LJ           1.68383        -1.53401         2.40244
LJ           1.20586        -1.66346        -1.74145
LJ           1.87886        -2.54798        -1.63901
LJ           2.48315       -0.725113        -2.44963
LJ          -1.88144      -0.0865072         2.34742
LJ            2.5413     -0.00315395        -1.63902
LJ          -1.58679       -0.495475        -1.64056
LJ         -0.764606       -0.668454        -2.53505
LJ          0.178989      -0.0337685        -2.29746
LJ         -0.801179       0.0805592         -1.7399
LJ          0.170262       -0.953419         -1.5525
LJ          0.779927       -0.986508        -2.49338
LJ           1.70346      0.00687259        -2.42124
LJ          0.888587        0.224031        -1.64128
LJ           1.55553       -0.635536        -1.54265
LJ          -2.47074        0.869659        -2.39816
LJ           -1.7733           2.036         2.43099
LJ          -2.49423         1.74903        -1.54721
LJ          -1.59376        0.672028        -2.11219
LJ         -0.538747        0.823614         2.53535
LJ         0.0616477         1.74913          2.4184
LJ          -1.27012         1.72985        -1.63335
LJ        -0.0248251         1.08591        -1.63358
LJ          0.938661         0.90131         2.55408
LJ           1.74093         1.89573         2.50121
LJ          0.905044         1.83728        -1.76219
LJ           1.74756        0.995897        -1.78971
LJ           2.51595        -2.53107       -0.755606
LJ          -1.38844        -1.66665       -0.857704
LJ          -2.28153         -1.5633        -0.11046
LJ          -1.67072         2.42517        0.198988
LJ         -0.702553         -2.5174        -1.05609
LJ         0.0424055        -1.88172       -0.679201
LJ         -0.744851        -1.82246       0.0166192
LJ        0.00181187         2.34526        0.171824
LJ          0.893546        -2.48003        -1.02667
LJ           1.83199        -1.57756       -0.873975
LJ          0.796769        -1.94068        0.192333
LJ           1.73206        -2.53148        0.138653
LJ          -2.37389       -0.755007       -0.845922
LJ          -1.87765        0.249799       -0.941336
LJ           -2.4195      -0.0137435       0.0267568
LJ          -1.54872       -0.673284       -0.138289
LJ         -0.731835        -0.72849       -0.756287
LJ       -0.00840019      -0.0556994       -0.948418
LJ          -0.66532       -0.117214      -0.0474752
LJ        0.00709278        -1.02109        0.174333
LJ          0.976683        -1.07548       -0.711987
LJ           1.90064       -0.263038       -0.640866
LJ          0.759563        0.114649       0.0552064
LJ           1.90024        -1.03535       0.0515349
LJ            2.3918        0.820045       -0.802825
LJ           -1.8235         1.70405        -0.68044
LJ           2.43745         1.73024      -0.0371794
LJ          -1.79104        0.980962        0.158159
LJ         -0.990852        0.752366       -0.989985
LJ        -0.0208246         1.75138       -0.800847
LJ         -0.718935         1.66077       -0.105484
LJ         0.0509836        0.892773        -0.11382
LJ          0.862167         1.05293       -0.982106
LJ           1.66953         1.70246       -0.784195
LJ          0.841277         1.78675      -0.0837174
LJ           1.67924         0.82404        0.130901
LJ           2.50163          2.4604        0.700041
LJ          -1.45619        -1.84696        0.816278
LJ           2.46552        -1.54235         1.64999
LJ          -1.85869        -2.40463          1.6547
LJ         -0.901901         2.45971        0.963668
LJ        -0.0892933        -1.50532         1.03767
LJ          -0.92323        -1.62416         1.76761
LJ        -0.0221613        -2.24202         1.74444
LJ          0.790695         2.46606        0.885804
LJ           1.67471        -1.67388         1.00748
LJ          0.771342        -1.59675         1.65966
LJ            1.7114        -2.48821         1.59597
LJ          -2.43537       -0.810263        0.802098
LJ          -1.76541        0.163982          0.8113
LJ           2.38418      -0.0251527         1.69201
LJ          -1.69315       -0.834475         1.60466
LJ         -0.824555       -0.892266        0.943313
LJ           0.16177      -0.0438841        0.851171
LJ         -0.911521      -0.0535612         1.78428
LJ         0.0564147       -0.729663         1.78813
LJ           1.02501       -0.910758        0.505829
LJ           1.80971       -0.243641        0.837606
LJ          0.889099     -0.00478949         1.72278
LJ           1.54273       -0.715093         1.70593
LJ           2.34835        0.902082         1.07452
LJ          -1.87585         1.63311        0.874641
LJ           2.43317          1.8733         1.55949
LJ          -1.77446        0.871984         1.67703
LJ         -0.904657        0.947873        0.878305
LJ          0.365306         1.42656        0.807756
LJ         -0.670884         1.52969         1.67146
LJ          0.124706        0.746359         1.64296
LJ           1.06656         0.73114        0.990367
LJ            1.6772          1.7764        0.746205
LJ          0.881794         1.81926         1.61695
LJ           1.85314        0.964845         1.97604
