108
#Comment!
LJ          -2.50789        -2.45629         2.55704
LJ          -1.72994          -1.488         2.49345
LJ          -2.22669        -1.56415        -1.75777
LJ          -1.62535        -2.40484        -1.82502
LJ         -0.811237         2.28663        -2.44458
LJ          -0.12055        -1.53958          2.4587
LJ         -0.950954        -1.53974        -1.91045
LJ         0.0247634         2.52537        -1.92085
LJ           1.02611        -2.33439        -2.40306
LJ           1.71917        -1.56835         2.41186
LJ           1.17996        -1.69338         -1.6569
LJ           1.87862         2.49204        -1.60476
LJ           2.38379       -0.668559         2.55189
LJ          -1.77973      -0.0644439         2.32279
LJ          -2.46227      -0.0739749        -1.77171
LJ          -1.47857        -0.65947        -1.73317
LJ         -0.866575       -0.732105        -2.54268
LJ          0.115783       -0.174811         -2.4154
LJ         -0.791223       0.0796563           -1.72
LJ          0.160874       -0.956885        -1.70401
LJ          0.737472       -0.955637        -2.49747
LJ            1.6433     -0.00796292        -2.44433
LJ           0.83554        0.192529        -1.73352
LJ           1.58649       -0.627062        -1.54915
LJ          -2.52075        0.843252        -2.42147
LJ          -1.86162         1.95378         2.38741
LJ          -2.48982         1.69877        -1.59956
LJ          -1.56957        0.759062        -2.02485
LJ         -0.508709        0.713012         2.51653
LJ         0.0605528          1.7267         2.29913
LJ          -1.26895         1.73641         -1.7584
LJ         0.0629522          1.0111        -1.70867
LJ           1.07556         1.05321        -2.51968
LJ           1.70339         1.86058         2.50035
LJ          0.945005         1.92684        -1.88448
LJ            1.8319        0.897509         -1.7882
LJ          -2.51252         2.52228       -0.721323
LJ          -1.43235        -1.64826       -0.928642
LJ          -2.29814        -1.63524       -0.128186
LJ          -1.59395         2.35409        0.118497
LJ         -0.666041         -2.4559        -1.00357
LJ          0.074567        -1.80882       -0.714605
LJ         -0.715155        -1.76723      0.00586221
LJ       2.13356e-05         2.30637        0.131418
LJ           0.76464         2.51178       -0.947764
LJ           1.94804        -1.62342       -0.904965
LJ          0.858142        -1.87836        0.211723
LJ           1.72319        -2.46857       0.0934607
LJ          -2.36005       -0.822371       -0.889129
LJ          -1.80797        0.157629       -0.933085
LJ          -2.39085       0.0585228     0.000324082
LJ          -1.58759        -0.67614       -0.045855
LJ          -0.74496       -0.739989       -0.724654
LJ       -0.00836369        0.122231          -1.029
LJ         -0.674753      -0.0426837        0.121872
LJ        -0.0716359       -0.856606        0.199048
LJ           1.00092        -1.04577       -0.751444
LJ           1.81612       -0.272039       -0.646837
LJ          0.805522        0.114277        0.164928
LJ           1.96222         -1.0591      -0.0135884
LJ           2.45929         0.76027        -0.79527
LJ          -1.83067         1.69702       -0.682578
LJ           2.51247         1.70257      -0.0500604
LJ          -1.79772        0.929511        0.127661
LJ          -1.06089        0.811248       -0.988514
LJ         0.0380262         1.69913       -0.841023
LJ         -0.753396         1.67504        -0.11591
LJ         0.0513139        0.819483       -0.105477
LJ          0.874693        0.974444       -0.901069
LJ           1.64521          1.7319       -0.821861
LJ          0.947083          1.7028       -0.113118
LJ           1.62083        0.820245       0.0812678
LJ            2.4808         2.40842        0.713634
LJ          -1.49167        -1.85368        0.782094
LJ           2.55854        -1.39884         1.57489
LJ          -1.94042        -2.34567         1.63173
LJ         -0.844604         2.43099        0.971247
LJ        -0.0176269        -1.48861         1.11883
LJ         -0.937207        -1.72836         1.78789
LJ         0.0183266        -2.25039         1.76134
LJ          0.769993         2.37454        0.876402
LJ           1.67023        -1.59138         1.06871
LJ          0.750706        -1.64823         1.74291
LJ           1.71253        -2.52773         1.48836
LJ          -2.36359       -0.743773        0.717524
LJ          -1.65911       0.0569165         0.81015
LJ           2.45372      0.00409713         1.61011
LJ          -1.71746       -0.924247         1.59778
LJ         -0.806864       -0.860835         1.02723
LJ          0.133999       -0.240109        0.855628
LJ         -0.916655       0.0235328         1.83186
LJ          0.194296       -0.743711         1.74731
LJ          0.996003       -0.900029        0.592157
LJ            1.7418       -0.319861        0.819114
LJ          0.831441       0.0543306         1.71964
LJ           1.48915       -0.762476         1.74191
LJ           2.38123        0.943514         1.07879
LJ           -1.8952         1.64937        0.970819
LJ           2.43227         1.83561         1.55603
LJ          -1.76885        0.859838         1.70985
LJ          -0.85227        0.962401         0.77867
LJ          0.364158           1.396        0.725361
LJ          -0.70086          1.4506          1.7032
LJ          0.132036        0.773885         1.70234
LJ           1.18421        0.596575         1.00592
LJ           1.56976         1.83489        0.719372
LJ          0.954105         1.69928         1.68881
LJ           1.84842         1.03291         1.88661
