108
#Comment!
LJ            2.5333         2.56071         2.53191
LJ           -1.7335        -1.88204        -2.54034
LJ          -2.46926        -1.71061        -1.70212
LJ          -1.83179        -2.54107        -1.70292
LJ         -0.861718          2.4197         2.44683
LJ         -0.219042         -1.7793        -2.47644
LJ         -0.876766        -1.67038        -1.53609
LJ        -0.0462471        -2.55431        -1.67914
LJ          0.890053         2.47549         2.50446
LJ           1.64704        -1.81569         2.56424
LJ          0.918207        -1.54096        -1.64771
LJ            1.8849        -2.49363        -1.70948
LJ           2.41982       -0.844541        -2.56435
LJ          -1.58788       0.0936431         2.51791
LJ            2.5414       0.0543831        -1.77761
LJ          -1.77955       -0.900391        -1.73353
LJ          -1.09491       -0.893434         2.52151
LJ         0.0226047       -0.112156         2.53317
LJ         -0.929376        0.108168        -1.70788
LJ         0.0633516       -0.878614        -1.70253
LJ          0.877789        -1.00146         -2.5096
LJ           1.84109        0.132726        -2.54496
LJ          0.755229        0.189326        -1.67374
LJ           1.67845       -0.852242        -1.70785
LJ           2.55113        0.813194         2.52194
LJ          -1.73938         1.71558         2.53669
LJ          -2.54121          1.5825        -1.78271
LJ          -1.73695        0.942122        -1.63079
LJ         -0.763296         0.93072         2.31633
LJ          0.165537         1.69355          2.4106
LJ         -0.839206         1.66824        -1.67639
LJ        -0.0207612        0.888031        -1.88522
LJ          0.854617        0.927688        -2.35844
LJ           1.81844          1.7417        -2.47988
LJ          0.978454           1.803        -1.66673
LJ           1.72948        0.879913        -1.67971
LJ          -2.49412        -2.47786       -0.843503
LJ          -1.49362        -1.73792       -0.741862
LJ           2.49538        -1.75315     -0.00451461
LJ          -1.60271        -2.55967       0.0659112
LJ         -0.762669         2.55083       -0.857654
LJ        0.00724442        -1.70781       -0.898386
LJ         -0.922796        -1.74255       0.0758488
LJ        -0.0845049         2.43658       0.0211749
LJ          0.805829          2.5268       -0.832798
LJ           1.59834        -1.81436       -0.804067
LJ          0.768572        -1.79734        0.173239
LJ            1.6513        -2.53708      -0.0831186
LJ           -2.5584       -0.853613       -0.826636
LJ          -1.93408        0.157394       -0.778575
LJ           2.47186      -0.0603585      -0.0577067
LJ          -1.70181       -0.930925      -0.0503566
LJ         -0.915804       -0.762736       -0.778784
LJ        -0.0583649     -0.00590397       -0.833889
LJ         -0.885209       -0.021382      -0.0466752
LJ        -0.0501191       -0.695928      -0.0434982
LJ          0.889269       -0.890478       -0.707266
LJ           1.69178       -0.176361       -0.845763
LJ          0.946968      -0.0644829       -0.116532
LJ           1.67749       -0.957398       -0.112491
LJ          -2.44676         0.99551       -0.842561
LJ          -1.75396         1.77963       -0.948536
LJ          -2.50467         1.74034        0.113671
LJ          -1.68474        0.934639        0.140602
LJ         -0.865825        0.803086       -0.670339
LJ         -0.125763         1.71727       -0.932896
LJ         -0.912335          1.7662       -0.215712
LJ        -0.0609184         0.91309       0.0496656
LJ          0.689678        0.927984       -0.817411
LJ           1.69957         1.89602       -0.871699
LJ          0.670068         1.75612       -0.162559
LJ           1.69906        0.742314        0.036038
LJ           2.48626         2.50966        0.984157
LJ          -1.62492        -1.72831        0.922963
LJ           2.32848        -1.70415         1.70471
LJ          -1.89439        -2.53751         1.65184
LJ         -0.858998         2.43098        0.784559
LJ         0.0440388        -1.77392        0.916641
LJ         -0.910232        -1.66784         1.74695
LJ          0.049671        -2.52327          1.8862
LJ           1.06314         2.43718        0.992008
LJ           1.67963        -1.79424        0.839881
LJ          0.905326        -1.60605         1.65384
LJ           1.65842        -2.53931         1.77159
LJ           2.37066       -0.580094        0.912273
LJ          -1.72203      -0.0315104        0.788664
LJ          -2.49588      -0.0255828         1.95484
LJ          -1.75664        -0.90937          1.7547
LJ         -0.742275       -0.911142         0.84978
LJ         0.0587363       0.0102572        0.856726
LJ         -0.701778       0.0451201         1.75424
LJ        -0.0320827       -0.891484          1.5909
LJ          0.775386       -0.945074         0.74978
LJ            1.6287      -0.0457918        0.732465
LJ          0.868615       -0.165493         1.74743
LJ           1.71202       -0.861869         1.73551
LJ           2.47279        0.926182        0.788332
LJ          -1.74044         1.70929        0.838536
LJ           2.53662         1.73133         1.78407
LJ          -1.69305        0.749034         1.75896
LJ         -0.881551        0.636151        0.835072
LJ        -0.0258827         1.61069        0.961429
LJ         -0.834883         1.77813         1.67149
LJ        -0.0120999        0.771633         1.52716
LJ          0.896992        0.765218         0.78773
LJ           1.75467         1.69665        0.725674
LJ          0.821605         1.58136         1.66425
LJ           1.64905          1.0579         1.64673
