108
#Comment!
LJ           2.52534        -2.52764          2.5374
LJ          -1.78508        -1.69327         2.49319
LJ          -2.52373        -1.73225        -1.60466
LJ          -1.76271         -2.4235        -1.77128
LJ         -0.937117         2.43556         2.50811
LJ       -0.00399599        -1.97722        -2.51019
LJ         -0.895489        -1.59428        -1.58943
LJ          0.101481         2.29001        -1.69706
LJ           1.02968         2.43625        -2.35758
LJ           1.81085        -1.73467         2.51627
LJ          0.944085        -1.73593        -1.68709
LJ           2.04212        -2.53463        -1.49073
LJ           2.46417       -0.796282         -2.5087
LJ          -1.76836      0.00624067        -2.54651
LJ          -2.53499        0.192587        -1.76119
LJ          -1.61016       -0.542203        -1.38237
LJ          -1.20288       -0.867829        -2.45735
LJ         -0.166813       -0.243426        -2.45397
LJ         -0.804744        0.136149        -1.83102
LJ        -0.0883308       -0.970955         -1.7586
LJ           1.03624        -1.09982        -2.49092
LJ           1.62336        0.126241         2.53235
LJ          0.773519      -0.0871628        -1.52982
LJ           1.70709       -0.809137        -1.66977
LJ          -2.47941         1.06534         2.30345
LJ          -1.74705         1.80914         2.55746
LJ          -2.49799         1.70956        -1.74648
LJ          -1.65951        0.955894        -1.85348
LJ         -0.717385         1.06666        -2.48747
LJ         0.0877849         1.84535         2.54697
LJ         -0.761848         1.73329        -1.75043
LJ         0.0473074        0.844626        -1.88185
LJ           0.88153        0.808421        -2.43711
LJ           1.77484         1.84133         2.41742
LJ          0.957428         1.60539        -1.56592
LJ           1.81588        0.797654        -1.77811
LJ          -2.52497         2.46802       -0.729104
LJ          -1.46932        -1.84546        -0.70668
LJ           2.56433        -1.73264       -0.200853
LJ          -1.68574         2.46936      -0.0815403
LJ         -0.669113         2.55546       -0.930561
LJ         0.0226989        -1.71965       -0.946844
LJ         -0.627247        -1.78376        0.130065
LJ         -0.183633         2.30371        0.103114
LJ          0.827804        -2.47011        -0.94631
LJ            1.8036        -1.67942       -0.832221
LJ          0.739686        -1.96241        0.108913
LJ           1.64364        -2.38389      -0.0677473
LJ          -2.54491       -0.919772       -0.771899
LJ          -1.92215        0.105216        -0.70331
LJ           2.38963      -0.0075026      -0.0511291
LJ          -1.62117       -0.905411       0.0174246
LJ         -0.658909       -0.811385        -0.84696
LJ        0.00764056        0.183512       -0.944693
LJ         -0.759984      -0.0656953      -0.0426499
LJ         0.0723297        -0.78265        0.180766
LJ          0.763659       -0.841329       -0.795029
LJ           1.81888       -0.158113       -0.863484
LJ          0.745959       0.0463424       -0.126517
LJ           1.71408       -0.929344      -0.0575783
LJ          -2.38593        0.964417        -0.93543
LJ            -1.659          1.6925        -1.02825
LJ           2.53353         1.59828       0.0717383
LJ          -1.93423        0.834253       0.0810547
LJ         -0.987555        0.725202        -0.88797
LJ        -0.0543769         1.56436       -0.848363
LJ         -0.830216         1.51201      -0.0926573
LJ          0.036616        0.992545        0.054006
LJ          0.826166         1.08949       -0.710523
LJ           1.75713         1.71716       -0.896309
LJ          0.860355         2.01721       -0.013441
LJ           1.82667        0.827825       -0.118801
LJ           2.50964        -2.49317        0.825236
LJ           -1.4979        -1.71355        0.745172
LJ           2.54219        -1.49515         1.71411
LJ           -1.9257         2.46867         1.58936
LJ         -0.751268        -2.49011          1.0503
LJ         0.0980402        -1.73981        0.935751
LJ         -0.926533        -1.66916         1.75234
LJ          0.134869         -2.4101         1.75238
LJ            1.0231         2.53432        0.966374
LJ           1.84279        -1.54948        0.758079
LJ          0.894743        -1.67385         1.64533
LJ           1.60847        -2.51945         1.77807
LJ           2.51415       -0.603131         1.06066
LJ          -1.85394      -0.0258379        0.764179
LJ           2.50334       0.0696393         1.90973
LJ          -1.65034       -0.902749         1.49221
LJ          -0.76022       -0.890475        0.957693
LJ         0.0907474      -0.0701491         1.01088
LJ         -0.839481        0.121921         2.11559
LJ          0.115428       -0.961006         1.66447
LJ          0.913837       -0.848184        0.800888
LJ           1.61568      -0.0551469        0.574212
LJ          0.700185       -0.104895         1.89859
LJ           1.67565       -0.831951         1.66844
LJ           2.44635        0.600048        0.798426
LJ          -1.45225         1.89803        0.768187
LJ          -2.50884         1.60716         1.50545
LJ          -1.59779        0.920653         1.61725
LJ         -0.878556        0.740702        0.684632
LJ          0.194351         1.60634        0.909103
LJ         -0.744491         1.69746         1.53318
LJ        0.00597545        0.942731         1.58043
LJ           0.84305        0.622725        0.920301
LJ           1.73622         1.65437        0.739614
LJ          0.887263         1.61153         1.72966
LJ            1.6844        0.771815         1.67526
