108
#Comment!
LJ           2.53691        -2.49443         2.45137
LJ          -1.67644        -1.83406         2.55524
LJ           2.52632        -1.67876        -1.58874
LJ          -1.92442         2.54993        -1.81458
LJ         -0.945024         2.54336         2.36264
LJ         -0.227154         -1.8509        -2.50587
LJ          -0.93849        -1.52506        -1.70903
LJ         0.0640958         2.38157        -1.76617
LJ          0.886324         2.48807        -2.47367
LJ           1.77895        -1.70379        -2.52362
LJ          0.835215        -1.59601        -1.55353
LJ           1.95458        -2.52333        -1.60143
LJ           2.50629       -0.908342        -2.54376
LJ          -1.77381        0.186015         2.50122
LJ          -2.49851        0.212892        -1.79258
LJ          -1.78707       -0.733503        -1.49362
LJ          -1.17864       -0.896695        -2.56294
LJ         0.0623532      -0.0912586         2.50746
LJ         -0.835453        0.111613         -1.7541
LJ         0.0741818       -0.834897        -1.73636
LJ          0.987293        -1.03318         -2.5372
LJ           1.66407       0.0872144         2.52825
LJ          0.764781        0.102811        -1.56367
LJ           1.67184       -0.922866        -1.76399
LJ           -2.5574        0.993296         2.41985
LJ          -1.67162         1.90764          2.5098
LJ          -2.56228         1.58534        -1.85553
LJ           -1.6615         0.94049        -1.83046
LJ         -0.698387         1.05772          2.3533
LJ         0.0518632         1.70639         2.42188
LJ         -0.741416         1.62233         -1.7262
LJ        -0.0783161        0.847024        -1.86013
LJ          0.768256        0.917521        -2.51217
LJ           1.74958         1.86802         2.53336
LJ          0.977298         1.79898         -1.4891
LJ            1.7255        0.860527        -1.74019
LJ          -2.42268         2.54398       -0.846367
LJ          -1.56897        -1.83071       -0.657717
LJ           2.54357        -1.73954      -0.0500217
LJ           -1.6801         2.45253      0.00195895
LJ          -0.82375         2.44489       -0.881402
LJ         0.0535097        -1.66819       -0.904896
LJ         -0.789198        -1.75348        0.156374
LJ         -0.204359         2.33315      0.00789379
LJ          0.929412        -2.51973       -0.938483
LJ           1.71318        -1.69441       -0.782224
LJ          0.638635        -1.90565       0.0474928
LJ           1.61925        -2.40879      -0.0791479
LJ           2.48203       -0.914759       -0.754369
LJ          -1.85544        0.125797       -0.811996
LJ          -2.55389       0.0156552      -0.0318791
LJ          -1.80942       -0.774978      -0.0928172
LJ         -0.810098       -0.777512       -0.891839
LJ        -0.0491815        0.180862        -0.83147
LJ          -0.90703     -0.00439442      -0.0116075
LJ        -0.0920003       -0.727455      -0.0771944
LJ          0.719838       -0.920188        -0.74809
LJ           1.75548       -0.110319         -0.7945
LJ          0.815521       0.0967084       -0.158218
LJ             1.743        -1.00873      -0.0509884
LJ          -2.49654         1.06551       -0.784467
LJ          -1.58245         1.66728          -1.051
LJ           -2.5581         1.67806       0.0545504
LJ          -1.89759        0.865966       0.0842329
LJ         -0.967676        0.818757       -0.858809
LJ        -0.0230802         1.71432       -0.924696
LJ         -0.875513          1.4655      -0.0936591
LJ        0.00737606         1.09801       0.0813216
LJ          0.742511        0.948891       -0.773944
LJ           1.87526         1.66531       -0.912568
LJ          0.739922           1.858      -0.0405065
LJ           1.75404        0.890089       -0.137069
LJ           2.46523        -2.54939         1.02269
LJ          -1.49642        -1.80836         1.02566
LJ          -2.52015        -1.57993         1.81735
LJ          -1.88163         2.50338         1.61988
LJ         -0.718378         2.54476        0.871123
LJ          0.149346        -1.66113        0.953037
LJ          -0.95885        -1.67916         1.76084
LJ         0.0660597        -2.47403         1.76331
LJ           1.10839        -2.48707         1.00735
LJ           1.84604        -1.50351        0.916961
LJ          0.840301        -1.60457         1.69566
LJ            1.5746        -2.42641         1.83377
LJ           2.52014       -0.671411        0.904393
LJ          -1.88099       0.0128917        0.833829
LJ          -2.54802      -0.0345202         1.92125
LJ          -1.67061       -0.883182         1.63747
LJ            -0.639       -0.866741        0.870915
LJ       -0.00958612      -0.0489675        0.830518
LJ         -0.774744        0.118909         1.90521
LJ          0.127513       -0.895809         1.60557
LJ          0.889945       -0.932375        0.951132
LJ           1.59533      -0.0534512        0.666483
LJ          0.838051      -0.0427755         1.90455
LJ           1.64796       -0.869848         1.75859
LJ           2.34923        0.711079         0.72989
LJ          -1.54333         1.90628        0.906985
LJ           2.48895         1.65823         1.64073
LJ          -1.57801        0.815533         1.64725
LJ         -0.956627        0.665684        0.833876
LJ         0.0664025         1.67862        0.834952
LJ         -0.771567         1.69393         1.48816
LJ        -0.0264014        0.872371         1.62079
LJ          0.806589        0.800303         1.01259
LJ           1.80432         1.71048         0.79521
LJ           1.00662         1.60145         1.83963
LJ           1.69841        0.933996         1.66074
