108
#Comment!
LJ           2.50846        -2.46726         2.44253
LJ          -1.67797        -1.87144          2.5155
LJ           2.51427        -1.66646        -1.54601
LJ          -1.90083        -2.51198         -1.7675
LJ         -0.945289         2.52142         2.39998
LJ           -0.2379        -1.83594        -2.54939
LJ         -0.917358         -1.5241        -1.69469
LJ         0.0544257          2.3751        -1.73132
LJ          0.879166         2.51345        -2.44566
LJ           1.80904        -1.70672         2.56327
LJ          0.825825         -1.6001        -1.54226
LJ            1.9411        -2.53648        -1.58061
LJ           2.44328       -0.863242        -2.51143
LJ          -1.76041        0.143727         2.51015
LJ          -2.49815        0.207321        -1.79775
LJ          -1.76431       -0.704567        -1.44701
LJ          -1.18599       -0.913108         2.54341
LJ          0.072107       -0.128858         2.55898
LJ         -0.839314        0.118336        -1.79464
LJ         0.0657517       -0.859541        -1.73125
LJ          0.987766        -1.03174         2.55193
LJ           1.66521       0.0720441         2.54483
LJ          0.771152       0.0331452        -1.51645
LJ           1.66688        -0.91562        -1.78297
LJ          -2.54732        0.996467         2.40601
LJ          -1.70154         1.85711          2.5321
LJ          -2.52774         1.60537        -1.82289
LJ          -1.66158        0.910808        -1.84252
LJ         -0.690545         1.09058         2.35795
LJ         0.0124429         1.71353         2.42469
LJ         -0.738939         1.62643        -1.77398
LJ        -0.0337439          0.8139         -1.8088
LJ          0.793446        0.865873         -2.4774
LJ           1.77651         1.88424        -2.55909
LJ          0.973019         1.78878        -1.53471
LJ           1.79123        0.862093        -1.75288
LJ          -2.43801         2.52893       -0.845765
LJ          -1.54698        -1.85095       -0.656259
LJ          -2.55268        -1.73677      -0.0616571
LJ          -1.66994         2.44163     -0.00623794
LJ         -0.822858         2.46537        -0.89591
LJ         0.0431714        -1.68122       -0.927697
LJ         -0.798681        -1.74945        0.124743
LJ         -0.229472         2.25756       0.0390091
LJ          0.915961        -2.49291       -0.989427
LJ           1.72953        -1.66138       -0.795891
LJ          0.689191        -1.90409       0.0368698
LJ           1.58267         -2.4332       -0.103853
LJ           2.50968        -0.89258       -0.760887
LJ          -1.80685        0.132106       -0.792089
LJ           2.55904       0.0497155      -0.0172687
LJ          -1.78774       -0.722839      -0.0735848
LJ         -0.773347       -0.750149       -0.878555
LJ        -0.0253808         0.15539       -0.809475
LJ         -0.860826      0.00467522      -0.0371172
LJ        -0.0742457       -0.746205      -0.0334656
LJ          0.730424       -0.958901       -0.754545
LJ            1.7279      -0.0804222       -0.798444
LJ          0.792474       0.0449836       -0.119554
LJ           1.75247       -0.953637      -0.0144401
LJ           -2.5185         1.01984       -0.834703
LJ          -1.61032         1.68499        -1.06126
LJ          -2.55058         1.75082       0.0612878
LJ          -1.92933        0.851924       0.0738751
LJ         -0.989646        0.757193       -0.857387
LJ       -0.00529545         1.72462       -0.919464
LJ         -0.866067         1.45302      -0.0576281
LJ         0.0528792         1.05842       0.0639175
LJ          0.746044        0.985519       -0.764963
LJ           1.86859         1.69442       -0.914722
LJ          0.773407         1.87962      -0.0128961
LJ           1.75459        0.844749       -0.129673
LJ           2.44067        -2.51407        0.983298
LJ           -1.5153        -1.74829         1.03232
LJ          -2.51733        -1.55531         1.86509
LJ          -1.87396         2.52949         1.63773
LJ         -0.695316        -2.56181        0.909199
LJ          0.192433        -1.70652        0.947705
LJ          -0.97327        -1.64058         1.77787
LJ         0.0695662         -2.4823         1.81546
LJ            1.1613        -2.50148        0.945265
LJ           1.83189        -1.50832        0.889806
LJ          0.850536        -1.63234         1.67027
LJ           1.59011        -2.44514         1.82358
LJ            2.5007       -0.638314         0.90138
LJ          -1.86432       0.0219275        0.829523
LJ          -2.55271      -0.0333299         1.90087
LJ          -1.65925       -0.951445         1.59506
LJ         -0.660284       -0.869142        0.883875
LJ         0.0682017       -0.073552        0.831361
LJ         -0.777427        0.100577         1.93457
LJ          0.120797       -0.940187         1.61892
LJ          0.920065       -0.913801        0.938687
LJ           1.59917      -0.0669833          0.6398
LJ          0.794636      -0.0713682         1.90068
LJ           1.68779       -0.921709         1.72271
LJ           2.41366        0.753635        0.715283
LJ          -1.58088         1.88225        0.892537
LJ           2.49088         1.63648         1.58516
LJ          -1.55012        0.845688         1.63896
LJ         -0.977172        0.660335        0.818334
LJ         0.0707247         1.64143        0.822352
LJ         -0.764636         1.72527         1.46169
LJ       -0.00228732         0.84636         1.69933
LJ          0.798958        0.790674        0.997299
LJ           1.81388         1.73219        0.807256
LJ          0.981139         1.61568         1.84539
LJ           1.70886        0.920686         1.68866
