108
#Comment!
LJ          -2.55014        -2.51267         2.45656
LJ          -1.73585        -1.65324          2.4884
LJ          -2.40612        -1.57676        -1.82079
LJ          -1.70949         2.54897        -1.59328
LJ         -0.830935         2.54695        -2.47474
LJ        -0.0497324        -1.95945        -2.47636
LJ          -1.14148         -1.4983        -1.81298
LJ        -0.0762935         2.20689        -1.81014
LJ          0.819306        -2.56029         2.39485
LJ           1.76056         -1.7096        -2.53791
LJ          0.680713        -1.86695        -1.75465
LJ           1.96536         2.46977          -1.713
LJ           2.45957       -0.826558         2.53838
LJ          -1.75201       0.0290344        -2.55537
LJ           2.45209        0.133277        -1.86245
LJ          -1.70285       -0.591256        -1.57252
LJ          -1.07917       -0.766095        -2.47552
LJ         -0.128123        -0.21346        -2.51338
LJ         -0.850599        0.040488        -1.86129
LJ        -0.0930426        -1.14304        -1.90148
LJ          0.902091        -1.12614        -2.53646
LJ           1.67373      -0.0595511         2.47668
LJ           0.95031       0.0600225        -1.84034
LJ           1.69564       -0.663563        -1.77417
LJ           2.53522        0.900482         2.54755
LJ          -1.72126         1.90904         2.49444
LJ          -2.34486         1.63088        -1.63012
LJ          -1.61447        0.749436        -1.85976
LJ         -0.591456        0.940202         2.50005
LJ          0.133819         1.76542         2.32847
LJ          -1.04122         1.71609        -1.72769
LJ          0.134636         1.12835        -1.81151
LJ          0.830474        0.918662         2.45194
LJ           1.81423         1.83548         2.41548
LJ          0.954499         1.96369        -1.89732
LJ           1.59403         1.01682          -1.677
LJ           2.44916         2.45005        -0.70101
LJ          -1.39623        -1.73947       -0.799031
LJ          -2.35183        -1.90392       -0.146765
LJ          -1.76074          2.4075      -0.0886248
LJ         -0.809601        -2.55594        -1.07793
LJ          0.162562        -1.66813       -0.830822
LJ         -0.652964        -1.94752       -0.178476
LJ         -0.135458         2.30931    -0.000957952
LJ          0.790189        -2.50085       -0.951973
LJ           1.88272         -1.7997        -1.04861
LJ          0.722318         -1.9132        0.227213
LJ           1.69882         -2.4983      -0.0628527
LJ          -2.52235       -0.868791       -0.819803
LJ          -1.95412        0.110372       -0.820326
LJ          -2.49609        0.123442      -0.0185668
LJ          -1.79399       -0.855962        0.118126
LJ         -0.616605       -0.823729       -0.662841
LJ        -0.0984094        0.234486        -1.01154
LJ         -0.662608       0.0940599       0.0237506
LJ        -0.0562296       -0.748281        0.200046
LJ          0.896591       -0.924809       -0.673074
LJ           1.87693      -0.0455609       -0.642056
LJ          0.670711       0.0670681       0.0613653
LJ           1.80587        -1.25759       -0.153051
LJ          -2.55355         1.02345       -0.769219
LJ          -1.56888         1.73735       -0.796857
LJ           2.50186         1.65301      -0.0657736
LJ          -1.85605         1.12857         0.30364
LJ          -1.08048        0.779012        -0.81857
LJ          0.103407         1.67042       -0.982751
LJ           -0.7855         1.54734      -0.0888377
LJ          0.127218        0.938342       -0.180381
LJ          0.960202        0.971984       -0.784702
LJ           1.69794         1.74927       -0.836603
LJ          0.765638         1.93153      -0.0375048
LJ           1.63742        0.829359       -0.105501
LJ           2.43786         2.31221        0.731038
LJ           -1.3953        -1.76678        0.712142
LJ           2.52836        -1.58558         1.79391
LJ          -2.08863        -2.41174         1.36441
LJ         -0.785024         2.47107         1.07557
LJ          0.105422        -1.49887        0.970041
LJ         -0.965263        -1.83438         1.82565
LJ         0.0784389        -2.34817          1.6967
LJ          0.827857         2.28548         1.03677
LJ           1.95864        -1.58634        0.862903
LJ           1.01019        -1.82566         1.72187
LJ            1.7177        -2.46017         1.59976
LJ           2.49493       -0.658849         0.86812
LJ          -1.69858       0.0693125        0.795501
LJ           2.46958       0.0791558         1.70087
LJ          -1.66883       -0.737695          1.8018
LJ         -0.769474        -1.07002        0.990419
LJ         0.0513838      -0.0737489         1.09915
LJ          -0.90831        0.153432         1.99049
LJ          0.142421       -0.944674         1.87325
LJ           1.08322        -1.07258        0.761581
LJ           1.58746      -0.0853662        0.605303
LJ          0.791076      -0.0490968         2.01066
LJ           1.57065       -0.788066         1.79724
LJ           2.26956        0.858885        0.774536
LJ          -1.62466         1.86489        0.936237
LJ           2.43666          1.5432         1.51113
LJ          -1.82395        0.985278         1.57263
LJ         -0.835823        0.705223        0.854317
LJ          0.194167         1.47208        0.790894
LJ         -0.877841         1.47651         1.59338
LJ          0.187585        0.869582         1.62572
LJ           1.10328        0.761461         1.00794
LJ           1.54857         1.64555        0.615455
LJ          0.882032         1.56536         1.64825
LJ           1.67495           0.907         1.85035
