108
#Comment!
LJ          -1.85662        -2.27893         1.08513
LJ          -2.11713        -1.28395       -0.736619
LJ          -1.01825        -1.00109        0.861998
LJ         -0.191165         -1.8353       -0.423453
LJ         -0.267624         2.09966         2.45319
LJ             1.157       -0.519754        0.275432
LJ          0.803735        0.177916        0.911764
LJ          0.781365        0.256336        -1.82569
LJ           0.93367        0.733684         2.06962
LJ          -1.14387         2.50642       -0.853014
LJ          -1.87402       -0.570088         1.14478
LJ           -2.4019         2.10244         1.84121
LJ          0.308618         1.33447        -2.13133
LJ          0.574211         1.44085         1.23284
LJ           1.87475        0.907553         1.38881
LJ           2.25186        -2.33747        0.714278
LJ           2.46608        -1.99645         1.77568
LJ         0.0273154         0.35457       -0.643936
LJ          0.211808        -2.07928         1.87346
LJ          -1.59893         1.73433       -0.161416
LJ          -2.06315        -1.63983        0.295669
LJ       0.000755858         2.41024        -1.03926
LJ           2.27264         2.14728        -1.11478
LJ         -0.704675        -1.93761         2.30917
LJ           1.37393        -1.79057          2.0039
LJ        -0.0606762        -1.01538         1.81865
LJ            1.6355        -1.75554        -1.40051
LJ          -1.91703       -0.277738        -2.41302
LJ          -1.18125         1.33965        0.682911
LJ         -0.156963       -0.221656        0.921891
LJ          -1.45784         0.32372         1.55092
LJ           1.83498        0.248994      -0.0230267
LJ           2.51245       -0.819333        -1.64772
LJ           1.73408         2.32747         1.97755
LJ           2.16272        -1.14321         1.44466
LJ         -0.828727        -2.23614        0.235161
LJ         -0.498222         1.99586          1.4536
LJ           1.31718        -0.95082         2.48048
LJ           1.03779        -1.86235         0.39239
LJ         -0.844257        0.715185       -0.412616
LJ         -0.492421         1.89737        -0.16291
LJ           0.14866        -2.52789        0.671952
LJ          -1.15001        -2.39097        -1.82253
LJ          0.227132       -0.590785        -1.55851
LJ           1.05489        -2.36782        -2.26193
LJ          -2.25296        0.613795        -2.17795
LJ           2.24345        -0.48286         2.55252
LJ           1.89253        -1.33281        0.322925
LJ          -1.77512        -1.41278         2.02142
LJ           0.83853         1.92814         2.18392
LJ          -1.80776        -2.27353         2.47363
LJ           2.11682      -0.0542874        0.973715
LJ           -1.1082        -1.27548       -0.347135
LJ           2.31173         1.44749        -2.40881
LJ          -1.67029         1.18342        -1.38859
LJ          0.365097        -1.39717        -2.34948
LJ           1.50874         1.55135       -0.602247
LJ          -2.36245         2.37409       -0.145517
LJ          0.840963        0.560264      -0.0775617
LJ           0.89253         2.12642        -1.46118
LJ          0.975913        -2.41155       -0.557749
LJ         -0.141506         -1.2536        0.762424
LJ          -1.75937         1.83725        -2.43391
LJ         -0.895176        -2.18266         1.27221
LJ           1.25655       -0.827479        -1.63752
LJ          -1.03417         1.03663        -2.30343
LJ         -0.196478        0.915464        0.491757
LJ          -1.97945        0.598302         0.28014
LJ           2.41982         1.28967       -0.157869
LJ          -2.30118       -0.628246        0.128174
LJ          -2.51217       -0.166674       -0.768742
LJ           2.30439        0.918938        -1.10825
LJ          -2.06176         1.91111        0.860655
LJ          0.441937       -0.347392         2.33578
LJ          -1.50621       -0.500333         -1.5633
LJ           1.32764         1.17669        -1.90427
LJ           2.22965        -2.53936        -2.33547
LJ          0.491171        -1.84974        -1.30685
LJ            1.7485       -0.943308       -0.705498
LJ          -1.24412         1.45188         1.88277
LJ           1.55845      -0.0678637         1.75403
LJ           1.41494        0.415825        -1.09935
LJ          -1.43165        -1.34042        -2.14085
LJ         -0.489564         1.33264        -1.42449
LJ           1.99522        -1.87146       -0.436634
LJ           1.37731         1.16322        0.515628
LJ          -2.27553         1.06659         1.56111
LJ         -0.109239        0.475348        -2.56006
LJ           1.12934          2.4988         1.12939
LJ           2.56435        -1.51753        -2.41932
LJ          0.936136        -1.00827         1.32094
LJ         -0.230634        0.924885         1.68657
LJ             2.113         1.81633         1.02493
LJ          -2.52414         0.13951         1.91006
LJ          0.112092       -0.651564      -0.0879507
LJ          -2.19796         -2.1641        -1.66768
LJ          -0.55786       -0.702121        -2.39343
LJ         -0.408118        -1.48508         -1.6349
LJ         -0.641907       -0.420232       -0.946848
LJ           1.89349        0.470139        -2.54639
LJ          0.608775         1.14544        -1.03871
LJ           1.74588         2.08585        0.148731
LJ          -1.14602       -0.575762         1.87222
LJ          0.551715         1.58175        0.146719
LJ          -1.24687       -0.308935       -0.148088
LJ          -1.80454        0.496286       -0.684268
LJ          0.939456       -0.416438       -0.695008
LJ         -0.892592        0.421433        -1.61175
