108
#Comment!
LJ          -2.52243        -2.40375         2.40456
LJ          -1.73658        -1.70404         2.52542
LJ          -2.38741         -1.5126        -1.73174
LJ          -1.72789         2.52515        -1.66804
LJ         -0.813291         2.49678        -2.42548
LJ         -0.103149        -1.93494        -2.48718
LJ          -1.05307        -1.52471        -1.84987
LJ        -0.0538864         2.22948        -1.80331
LJ          0.778579         2.50757         2.46281
LJ           1.76785        -1.68706        -2.53948
LJ          0.712342        -1.85481        -1.74698
LJ           2.02557         2.47242        -1.72627
LJ           2.49143       -0.770848         2.51394
LJ          -1.73913       0.0640159        -2.52159
LJ           2.49661       0.0671719        -1.84008
LJ          -1.74288       -0.513944         -1.6246
LJ          -1.12002       -0.784414        -2.46842
LJ         -0.129304       -0.144856        -2.45254
LJ         -0.915147       0.0504056        -1.81876
LJ         -0.105243        -1.08266        -1.85811
LJ          0.839482        -1.14893         -2.5433
LJ           1.71165      0.00607433         2.49488
LJ          0.909895       0.0635559        -1.85378
LJ             1.713       -0.673377         -1.7577
LJ           2.52553        0.965755         2.54454
LJ          -1.65938         1.90559         2.44513
LJ            -2.387         1.57035        -1.58202
LJ          -1.62535         0.75133        -1.79975
LJ         -0.588359        0.904719        -2.55056
LJ         0.0937747         1.69695         2.29635
LJ          -1.07656         1.71639        -1.74017
LJ         0.0422069           1.149        -1.86031
LJ          0.837214        0.906504         2.54718
LJ            1.7515          1.7637         2.42508
LJ          0.911261         1.92784        -1.84687
LJ           1.60021         1.05504        -1.68353
LJ           2.49998         2.44011       -0.707817
LJ          -1.49327        -1.71984       -0.829846
LJ          -2.33074        -1.82292       -0.177561
LJ          -1.75131         2.44925      -0.0434988
LJ         -0.771065         2.55314        -1.00753
LJ          0.169373        -1.66831       -0.780584
LJ         -0.725679        -1.95896       -0.143341
LJ         -0.213536         2.27202       0.0432787
LJ          0.836332        -2.50354       -0.947142
LJ           1.86345        -1.84003        -1.03997
LJ          0.759405        -1.89558        0.306677
LJ            1.6919        -2.49578       -0.112703
LJ          -2.44968        -0.92886        -0.70492
LJ          -1.93716     -0.00774615       -0.778692
LJ          -2.53263        0.244294      0.00210385
LJ          -1.81605       -0.744654        0.125637
LJ         -0.630858       -0.871246       -0.713957
LJ         -0.130323        0.312237        -1.02426
LJ         -0.667212       0.0994669      -0.0889407
LJ         -0.114738       -0.663795        0.154477
LJ          0.938761        -0.98199       -0.731407
LJ           1.88213      -0.0347851       -0.591279
LJ          0.726567       0.0542702        0.118728
LJ           1.84276        -1.10301      -0.0728963
LJ          -2.52431        0.955053       -0.763997
LJ          -1.66818         1.85322       -0.829559
LJ           2.48797         1.65572      -0.0795742
LJ          -1.88601         1.14501        0.359084
LJ          -1.13545        0.782383        -0.85057
LJ         0.0918609         1.63846        -1.00256
LJ         -0.844966         1.46224       -0.126255
LJ        -0.0284131          0.8959       -0.228398
LJ          0.999891        0.958461       -0.808206
LJ           1.60617         1.80752       -0.741955
LJ          0.784604         1.99554      -0.0478344
LJ           1.70057        0.861736      -0.0507198
LJ           2.43383         2.33296        0.744649
LJ          -1.33908        -1.78827        0.739114
LJ           2.54303        -1.51512         1.73889
LJ          -2.06034        -2.35576         1.41321
LJ         -0.861727         2.49511        0.992866
LJ          0.112342         -1.4978        0.973831
LJ         -0.982233        -1.87169         1.86501
LJ         0.0371649        -2.35653         1.71062
LJ          0.799323         2.36905         1.00785
LJ            1.8896        -1.68649        0.830255
LJ          0.978346        -1.79847         1.77635
LJ           1.76019        -2.40942         1.66534
LJ            2.4861       -0.657085        0.834654
LJ          -1.58459       0.0477861        0.820057
LJ           2.43566       0.0156506         1.76569
LJ          -1.75809       -0.746734         1.74367
LJ         -0.737224        -1.03003         1.00964
LJ          0.184257       -0.140868         1.10104
LJ         -0.960429        0.120281         1.98547
LJ          0.162762       -0.935522         1.87246
LJ           1.00694        -1.02594        0.821618
LJ           1.65386       -0.182714        0.617728
LJ          0.663392      0.00701851         2.02206
LJ           1.57224       -0.760954         1.75818
LJ           2.27362        0.822155        0.835888
LJ          -1.61938         1.85801        0.982322
LJ           2.45168          1.6388         1.47733
LJ          -1.81442        0.899604          1.5652
LJ         -0.784163        0.705894        0.814851
LJ          0.255583         1.37873        0.795896
LJ         -0.910555         1.41916         1.56176
LJ          0.166114         0.86469         1.61428
LJ           1.14273        0.706088         1.01073
LJ           1.50775         1.68496        0.628687
LJ          0.940336         1.49486         1.65933
LJ           1.64903        0.799448         1.89257
