108
#Comment!
LJ          -2.14724          2.5643         1.38175
LJ          -2.07478        -1.83613       -0.755766
LJ         -0.264121        -1.19797         1.06243
LJ        -0.0859726        -1.97258      -0.0783939
LJ         -0.900041         1.21144         2.43256
LJ          0.680052        0.123745        0.130547
LJ           1.27599        0.659368          1.7258
LJ          0.244754        0.350048         2.15584
LJ         -0.330883         1.19205         1.43196
LJ          -1.63973          2.4085       -0.561144
LJ          -1.88794       -0.841986          1.3556
LJ           2.12798         2.27568         1.89079
LJ          0.458602          1.5566         2.33509
LJ          0.675303         1.35524         1.20679
LJ           1.57599        0.586945        -1.91276
LJ           1.35565        -1.73079        0.506531
LJ           2.51309        -1.82027         2.11742
LJ          0.403773        0.859556        -2.07104
LJ          0.967097         2.41517         1.82014
LJ          -1.76935         1.32257       -0.795519
LJ           -1.9272        -1.32868        0.203852
LJ         -0.659502        -2.19588       -0.987851
LJ          -2.37714         2.55844        -1.32161
LJ         -0.819827        -2.00213        -2.10192
LJ           1.95621        -2.14136          1.2683
LJ         -0.327991        -1.33602         2.27853
LJ           2.46629        -1.50263         -1.8502
LJ           2.41693       -0.761637         1.90786
LJ          -1.59071         1.58462        0.120735
LJ          0.538927      -0.0525363         1.19137
LJ          -1.70787       0.0686596        -2.51855
LJ           1.36477       -0.475613       -0.873741
LJ           2.55647        -0.78443       -0.568301
LJ           1.53974         1.48015         2.37404
LJ           1.29837        -1.11345         1.48429
LJ          -1.37379        -1.80403         1.17111
LJ         -0.780364         2.23682         1.12252
LJ           1.54444        -1.27379         2.47049
LJ          0.682446         -0.9084         0.51964
LJ          -0.89893        0.430819      -0.0983018
LJ         -0.415469         1.63008       -0.728519
LJ         -0.795631         2.29271        0.116069
LJ          -1.58499         1.92508        -1.92948
LJ          0.555219       -0.922574        -2.47024
LJ          0.847997         2.35493         -2.2106
LJ           2.38879       -0.076352        -1.31036
LJ           2.32759       -0.112229        -2.36847
LJ           1.65815       -0.421044        0.259133
LJ            2.2428        -1.16852         0.86216
LJ         -0.460457        -2.50293         1.98021
LJ          -1.39917         2.11578         2.03084
LJ          -2.32251       -0.267697        0.291909
LJ          -1.05566        -1.91056        0.237851
LJ          -2.39933        0.922678        -2.44535
LJ          -2.17902        0.322481       -0.531224
LJ          0.161342         -2.1165        -2.28606
LJ           1.50188         2.46404        -1.02655
LJ          -2.06252         -2.4416         0.39992
LJ          0.790289        0.669241         -1.0597
LJ         -0.473045         2.15361        -2.08732
LJ          0.636202         -2.1978       -0.778026
LJ           0.31996        -2.24453        0.842253
LJ           2.19918         1.92172         -2.1101
LJ          -1.56089        -1.85028         2.13207
LJ           1.49328       -0.515492        -1.88019
LJ          -1.76187        0.808432        -1.65253
LJ         -0.657727         1.35518         0.43803
LJ          -1.61432        0.418218          1.5694
LJ           2.42338         1.80547       -0.277135
LJ          -1.54452       -0.538056       -0.569327
LJ           1.79539        0.509176       -0.529989
LJ           2.35065         1.07408        -1.28459
LJ          -2.43562         1.22738        0.950819
LJ          -0.42752       -0.311402         1.66791
LJ          -1.47706       -0.284137        -1.62718
LJ           1.32202         1.62946        -1.72029
LJ           1.77391        -2.28527        -2.30481
LJ           1.03336        -1.74532        -1.89277
LJ           1.69076        -1.44556          -1.042
LJ          -2.25665         1.52222         1.97515
LJ           1.30111       -0.289221           2.301
LJ           1.22456          1.5896       -0.424514
LJ          -1.35761        -1.30291        -1.29878
LJ         -0.796152         1.09108        -1.41447
LJ           2.15879        -2.14013        -0.22755
LJ           2.08722        0.545882        0.574897
LJ           2.44767        0.552146         1.65602
LJ         -0.793056        0.376412        -2.14801
LJ            0.3575         2.17192      -0.0297776
LJ          -2.08495       -0.895667         -2.3174
LJ          0.632207        -1.75457         1.92324
LJ          -1.44452         1.37893         1.20875
LJ           1.67904         1.44193         1.24269
LJ           1.80522        -0.29375         1.25877
LJ         -0.417365        0.382737        0.855798
LJ          -1.93582        -2.17071        -2.13472
LJ         -0.389746       -0.544309        -2.18857
LJ        -0.0249333        -1.42194        -1.52641
LJ         -0.494137       -0.982121       -0.357359
LJ          0.383471        -0.42544         -1.3911
LJ          0.447296         1.92138        -1.34528
LJ           1.64105         2.21562        0.316867
LJ          -1.24426       -0.849638         2.30766
LJ          0.302569         1.15229        0.177602
LJ          -1.19047       -0.455433        0.736013
LJ          -1.75309        0.602471         0.53468
LJ           0.63343        -1.19536       -0.633584
LJ         -0.705173      -0.0163998        -1.06759
