108
#Comment!
LJ          -2.52789         1.56156        0.173003
LJ        0.00803547        0.588215         0.10653
LJ           2.50472       -0.729435         1.96559
LJ          0.493928        -2.10026        -2.52286
LJ          0.140016        -2.36552       -0.301548
LJ           -2.3795        -1.77962        -1.00928
LJ          0.812592        -1.44574        0.955166
LJ          -1.85239        0.103401         1.18222
LJ          0.872068        -1.48993        -1.67381
LJ          -2.45683        -1.19792       -0.101357
LJ          -1.93362         2.14299        -1.02071
LJ          0.210052         -2.4132         1.46571
LJ          -2.00764        0.570388          2.2657
LJ           1.07414        -1.69217       -0.461633
LJ          -1.71496       0.0222861       -0.430435
LJ         -0.253541         2.39845        -1.98185
LJ          0.164025        -1.40538         1.75846
LJ          0.763336         1.17435       -0.367953
LJ           1.64065      -0.0266059         2.18005
LJ         -0.730162        0.501644         1.93269
LJ          -2.35719         1.32644         1.60211
LJ           1.30728        0.860652         1.87692
LJ           1.45193       -0.268262        -1.16167
LJ           1.75039        -2.34504         -1.0774
LJ           1.04654        0.526967        -2.33497
LJ          0.204778        -1.71419        -1.05475
LJ        -0.0787922         1.59149       -0.771633
LJ           1.00495        0.112234       -0.109684
LJ           1.79847        0.912083      -0.0311198
LJ          0.747998       -0.254271          1.3798
LJ          -1.38782       -0.156199        -1.55005
LJ           1.49387        -2.08414        -2.09839
LJ          -1.89562        -1.84795        0.861053
LJ           2.52819        0.642686        0.746118
LJ           1.89343         1.36436         1.09688
LJ         -0.608428       -0.220459       -0.822074
LJ          -1.76209         1.85454        0.738005
LJ           -1.0206        -2.34902       -0.919465
LJ           2.45625         2.27528        -1.82701
LJ           1.94233        -1.69509         0.66919
LJ           2.27798        0.402829         1.63203
LJ         -0.892373        -2.33292       0.0590118
LJ          0.710845        0.865169         1.01717
LJ           1.62609       -0.885375       0.0585377
LJ         -0.813754         1.47981        0.653111
LJ           2.07811        -2.28395       -0.124108
LJ           1.79132        -1.24441       -0.913645
LJ          0.307287        -0.52144        0.505177
LJ           1.00222       -0.584851        -2.08315
LJ           0.40269       -0.648921        -1.21693
LJ           2.48678        -0.71372        0.779206
LJ           -1.4831       -0.870871         1.10967
LJ         -0.693393       -0.320476        -2.47024
LJ           2.36871       -0.196304       -0.357311
LJ           -0.3769        -1.68959        0.747511
LJ          -1.05733          0.4093        0.678571
LJ           2.52761         2.41319         1.02329
LJ          0.603053          1.5462        -1.55703
LJ           2.29788         1.28703        -2.22193
LJ           1.32282        -1.51102         2.21867
LJ          0.136174      -0.0198565        -1.99454
LJ         -0.846356        -1.82219        -2.15262
LJ        0.00753365        -1.11061        -2.04033
LJ         -0.934292         2.50758         1.04231
LJ         -0.782577        0.872082       -0.925316
LJ          -1.38774        -0.87899          2.1634
LJ          -1.87945        -1.37439        -1.94148
LJ          -1.12909         1.72726        -1.60537
LJ           1.00586         2.06583       -0.728858
LJ         -0.179749         1.55609         1.38859
LJ          -1.85513         2.50342         1.66693
LJ          0.936463        -2.35316        0.433679
LJ           1.30198         1.73301         -2.4318
LJ          -1.03528        -1.78635         1.72404
LJ           2.14956        -1.07135        -2.00504
LJ          -1.80282        0.877172        0.035562
LJ          -1.01326        -1.14528         -1.1441
LJ           1.50656        -2.40658         1.47897
LJ           1.69101         2.02188        0.383184
LJ           0.27094       -0.465484         2.19124
LJ          -2.23326       -0.710619         -1.1303
LJ           1.42225        0.870336         -1.3528
LJ          -1.22925         1.83254        -0.26852
LJ          -2.43886        0.834308        -1.02692
LJ          -1.90508         1.61446        -2.36835
LJ          -1.37988         1.61926         1.68683
LJ           1.53392        0.232432        0.932875
LJ          0.354175         1.07997         2.32762
LJ         -0.872499       -0.737074        0.183919
LJ         0.0427475         -1.2425       -0.183353
LJ           1.97981         1.70158       -0.904663
LJ           0.89503         1.82003         1.64634
LJ          0.364313         1.78258        0.529908
LJ           2.38375        -1.65381         1.54638
LJ           0.11037         2.09009         2.18641
LJ           1.61677       -0.837932          1.4581
LJ           2.51543       0.0621443        -1.95449
LJ          -1.77179        0.766114         -1.8287
LJ          -2.06639        -2.54973        0.108486
LJ         -0.318063        0.927352        -1.93531
LJ          -1.84224        -2.39969        -2.24509
LJ         -0.869722         2.35823         2.08902
LJ          0.737025        -2.45345        -1.46717
LJ           2.20393         1.98387         2.20081
LJ          0.284319         0.45594       -0.972797
LJ          -1.47306        -1.53631       -0.179025
LJ         -0.502015       -0.407621          1.2582
LJ           2.36213        -2.05081        -2.55985
