108
#Comment!
LJ            2.4454         2.42579        -2.48015
LJ          -1.87897        -1.95387        -2.52624
LJ          -2.52594        -1.59574        -1.47974
LJ          -1.84023        -2.43114         -1.6769
LJ         -0.975397         2.39183         2.47342
LJ        -0.0830994        -1.88887        -2.37017
LJ         -0.878964        -1.98686        -1.64085
LJ          0.132907        -2.54843        -1.51745
LJ          0.920555        -2.31425         2.54119
LJ           1.88746        -1.73363        -2.28112
LJ          0.802866        -1.54301        -1.82121
LJ           1.43799        -2.54973        -1.73299
LJ          -2.24051       -0.583021         2.45775
LJ          -1.45324         0.10269        -2.47797
LJ           2.49472       0.0844886        -1.73387
LJ          -1.63578        -1.08422        -1.80287
LJ          -0.70146       -0.698358        -2.41127
LJ          0.242106       -0.148757         2.44076
LJ         -0.819279        0.197814        -1.65283
LJ         0.0791605       -0.792481        -1.84742
LJ           1.11724        -1.00542         2.40695
LJ           1.68121        0.281514        -2.45622
LJ          0.782486       0.0483631        -1.87418
LJ           1.70629       -0.671323         -2.0014
LJ           2.49189         1.01415        -2.48822
LJ          -1.78858         1.61802        -2.42828
LJ          -2.55625         1.71748        -1.67428
LJ          -1.74623        0.912242        -1.60582
LJ         -0.765836         1.15886         2.30425
LJ           0.15138         1.68616         2.55921
LJ         -0.697466         1.60941        -1.78601
LJ           0.21255        0.810016        -1.90296
LJ          0.898926        0.932984         2.44881
LJ           1.50471         1.75565         -2.5563
LJ          0.779775         1.64496        -1.77128
LJ            1.6079        0.974568        -1.72771
LJ          -2.53281         2.55789       -0.798125
LJ          -1.46734        -1.62549        -0.90918
LJ           2.44053        -1.90267        0.013785
LJ          -1.65531        -2.36785       -0.125275
LJ         -0.778034        -2.49731        -0.64874
LJ        -0.0361324        -1.56046         -1.0237
LJ          -0.60576        -1.58639       -0.107888
LJ         0.0800364        -2.50097        -0.26445
LJ           1.04454         2.50422       -0.645076
LJ           1.64149         -1.8288       -0.894165
LJ          0.784037        -1.75735       -0.029533
LJ           1.71204         2.55142       0.0994792
LJ           2.30699       -0.847166       -0.709193
LJ          -1.68448       -0.161641        -1.31366
LJ           2.52587       0.0838741        -0.05877
LJ          -1.87316        -1.00527      -0.0800056
LJ         -0.932523       -0.800512        -0.69372
LJ         0.0575424       0.0850473        -1.11058
LJ          -1.06744      -0.0681016        0.223171
LJ         -0.046405       -0.513158        0.199684
LJ          0.768033       -0.674886       -0.994646
LJ           1.62517        0.126584        -1.08898
LJ          0.784829       0.0557165       -0.196919
LJ           1.49516       -0.955957        -0.11814
LJ          -2.46446        0.894914       -0.860684
LJ          -1.71906         1.58027       -0.844006
LJ          -2.50459         1.69582      -0.0931058
LJ          -1.64811        0.814034        0.112516
LJ         -0.932642        0.560268       -0.727174
LJ         -0.230553         1.24536       -0.928202
LJ         -0.846913         1.70534       0.0826766
LJ         0.0278825        0.793108        0.215609
LJ          0.893294         1.01703       -0.917515
LJ           1.66137         1.68912        -1.04878
LJ          0.889557         1.63623      -0.0472411
LJ           1.85182        0.925281      -0.0987246
LJ          -2.27796        -2.45217        0.857136
LJ          -1.39036        -1.92183         1.09723
LJ           2.45006          -1.691         1.85393
LJ          -1.78341         2.53328         1.67901
LJ         -0.683219        -2.44305        0.552263
LJ         0.0371381        -1.65102         1.02967
LJ         -0.925398         -1.8018         2.08016
LJ        -0.0374469        -2.38733         1.85365
LJ          0.891971         2.33914        0.823122
LJ           1.73634        -1.86205         1.05313
LJ          0.886795        -2.01091         1.52216
LJ           2.00223         2.48155         1.71682
LJ           2.33488        -0.84953        0.667481
LJ          -2.03646       -0.064878         0.96931
LJ          -2.35716        0.405028         1.87193
LJ          -1.64697        -0.93645         1.61335
LJ         -0.830603        -1.07997        0.795207
LJ          0.106668      -0.0169819         1.08807
LJ         -0.878769       -0.120274         1.41098
LJ         -0.302914         -1.0036         1.83856
LJ          0.855255       -0.990307        0.853816
LJ            1.6792       0.0432168        0.640659
LJ           1.15892       -0.158515         1.76169
LJ           2.18062       -0.480688         1.64988
LJ          -2.41646          1.0823        0.832439
LJ          -1.67302         1.90322        0.807869
LJ          -2.45159         1.76837         1.89109
LJ          -1.67069         1.09279         1.83693
LJ         -0.744527        0.956584        0.937201
LJ        0.00552237           1.714        0.885631
LJ         -0.773892         1.87763         1.62525
LJ         0.0475212        0.677342          1.8917
LJ          0.691082        0.833827        0.987051
LJ           1.73232         1.69482        0.646733
LJ          0.683795         1.77363          1.6784
LJ           1.65698        0.902349         1.57413
