108
#Comment!
LJ           2.47879         2.40669        -2.38891
LJ           -1.8419        -1.85081         2.49544
LJ           2.54345        -1.87227        -1.47786
LJ          -1.67252        -2.52483        -1.69329
LJ         -0.899304        -2.33732         2.53409
LJ         0.0989596        -1.65417        -2.49136
LJ         -0.701956        -1.66997        -1.77407
LJ        -0.0827328        -2.48569        -1.32933
LJ           1.08453         2.44572         2.38611
LJ           1.75375        -1.96895        -2.35923
LJ          0.906989         -1.6825        -1.78237
LJ           1.76556        -2.55942        -1.57234
LJ          -2.27807       -0.588649        -2.42978
LJ          -1.35128       0.0961776         2.46433
LJ           2.36872      -0.0852376        -1.48971
LJ          -1.70096        -1.35513        -1.60504
LJ         -0.786919       -0.794293        -2.40989
LJ         0.0175061       0.0724687         2.54886
LJ         -0.702394        0.231319        -1.65298
LJ          -0.14458       -0.744595        -1.63393
LJ           1.12318        -1.22268         2.38039
LJ           1.91411        0.133472        -2.39094
LJ          0.630369        0.106648        -1.66282
LJ           1.81263       -0.959757        -1.97942
LJ          -2.49912        0.955958           -2.42
LJ          -1.55552         1.84857        -2.44197
LJ          -2.55373         1.63112         -1.7017
LJ          -1.57578        0.974806        -1.77768
LJ         -0.635146        0.909469         2.34084
LJ          0.125126         1.99994        -2.51585
LJ         -0.702435          1.7504        -1.90507
LJ         0.0229986        0.972571        -1.91714
LJ          0.938885        0.785587          2.5302
LJ           1.61597         1.58427        -2.40206
LJ          0.720465         1.79565        -1.67977
LJ           1.47244        0.807194        -1.73161
LJ           2.50072        -2.54166       -0.765639
LJ          -1.28804        -1.69419       -0.619897
LJ          -2.50918        -1.81712      -0.0257061
LJ            -1.901         2.31708      -0.0187423
LJ         -0.952062         2.43481       -0.797229
LJ         -0.158147        -1.53236       -0.815574
LJ         -0.459483          -1.758        0.308462
LJ         -0.136935         2.30324       -0.177002
LJ          0.887318        -2.51987       -0.823797
LJ           1.59962        -1.69891         -1.0064
LJ          0.635166        -1.83366        0.322903
LJ           1.69973        -2.38575       -0.147334
LJ           2.49128       -0.963195       -0.701032
LJ          -1.71216       0.0726858        -1.26469
LJ          -2.54289      -0.0934256       -0.178902
LJ           -1.7352       -0.850426      -0.0300405
LJ         -0.805802       -0.667846       -0.584952
LJ        -0.0917956       0.0634955       -0.882078
LJ          -1.30498        -0.11543        0.356501
LJ         -0.239169       -0.138392        0.223003
LJ          0.889125       -0.795996       -0.982315
LJ           1.51268       -0.118302       -0.914556
LJ          0.816517        0.115546       -0.133408
LJ           1.51264        -1.08296      -0.0426312
LJ          -2.56086        0.923992       -0.933385
LJ          -1.83498          1.7325       -0.964684
LJ           2.34842          1.7409     -0.00884611
LJ          -1.95733          1.0393       0.0439458
LJ         -0.981839         0.54678        -0.31457
LJ         -0.106526         1.50224         -1.0322
LJ         -0.840867         1.64346         0.05261
LJ         0.0197249        0.895547         0.11186
LJ          0.664028        0.880941       -0.800208
LJ            1.6959         1.73414       -0.849941
LJ            0.7022         1.72491       -0.159415
LJ           1.42243        0.841085       0.0996936
LJ          -2.42716        -2.53306         0.85812
LJ           -1.5446        -1.79651        0.417661
LJ          -2.53009        -1.54734         1.71235
LJ          -1.63816        -2.22109         1.54671
LJ         -0.824188         -2.5094        0.927802
LJ         0.0902546        -1.73875         1.32343
LJ         -0.765623        -1.53588          1.9772
LJ          0.138415         2.39558         1.62149
LJ          0.850192         2.11208        0.876552
LJ           1.90694         -1.7967        0.825401
LJ           1.07144        -2.05975         1.30206
LJ           1.86232         2.19569         1.69246
LJ           2.42852       -0.798654        0.530368
LJ          -2.01725      -0.0101282         1.08619
LJ          -2.50029        0.172787         1.96518
LJ          -1.68055       -0.724684         1.78172
LJ         -0.965865        -1.03452         1.03268
LJ          0.251159       -0.177636         1.14833
LJ         -0.878054       -0.016678         1.44788
LJ         0.0195983       -0.897248         1.93344
LJ           1.16621       -0.756221        0.909117
LJ           1.74856        0.111049        0.818617
LJ           1.13787       -0.175313         1.85638
LJ           2.05889       -0.817668         1.46806
LJ           -2.3619         1.07042         1.15399
LJ          -1.55452         1.84243        0.920409
LJ          -2.21414         2.00393         1.86266
LJ           -1.5128         1.03816         1.65666
LJ          -0.98387         0.86066        0.829355
LJ         -0.124923         1.59065        0.776763
LJ         -0.776852         1.76801         1.60642
LJ         -0.162468        0.765399         1.40902
LJ          0.764593         0.94834        0.961743
LJ           1.77697         1.50541        0.986595
LJ          0.888212          1.5247          1.8596
LJ           1.88631         0.92352         1.90076
