108
#Comment!
LJ           2.52184         2.55011         2.50079
LJ          -1.72408         -1.8254        -2.55555
LJ          -2.48123        -1.76207         -1.6945
LJ          -1.81784         2.55602        -1.71887
LJ         -0.851185         2.44907         2.48874
LJ         -0.235486          -1.785        -2.50139
LJ         -0.878935         -1.6597        -1.56191
LJ        -0.0607458         -2.4985        -1.63642
LJ          0.906621         2.48887         2.51807
LJ           1.60023        -1.83863         2.55906
LJ          0.873249        -1.56549        -1.64738
LJ           1.83374        -2.50541        -1.70165
LJ           2.40838       -0.868655         2.55826
LJ          -1.56296       0.0578888         2.52105
LJ           2.53982        0.026344        -1.76324
LJ          -1.75279       -0.877112        -1.73605
LJ            -1.072       -0.950917        -2.54601
LJ         0.0326118        -0.11344         2.49447
LJ         -0.899808        0.133887        -1.74594
LJ         0.0587313       -0.889705        -1.72075
LJ          0.858639        -0.97242        -2.48055
LJ           1.81375        0.121264        -2.50659
LJ          0.729837         0.13375        -1.68473
LJ           1.66111        -0.87485        -1.69571
LJ           2.51252        0.786105         2.50465
LJ          -1.75922          1.6502         2.54124
LJ          -2.52401          1.5532        -1.76588
LJ          -1.75424        0.908966        -1.66737
LJ         -0.812731         1.01791          2.3047
LJ           0.14877         1.61708         2.42134
LJ         -0.808028         1.71531        -1.62971
LJ        -0.0265604        0.904504        -1.87121
LJ           0.86201        0.906728        -2.39108
LJ            1.8136         1.74893        -2.52251
LJ          0.994165         1.81577         -1.6989
LJ             1.719        0.841666        -1.70099
LJ          -2.56385        -2.47832       -0.916915
LJ          -1.52478        -1.73448       -0.768575
LJ           2.50165        -1.76794       0.0206371
LJ          -1.65844          2.4895       0.0558768
LJ         -0.793569        -2.55888       -0.894579
LJ         0.0189729        -1.69679       -0.874568
LJ         -0.825552        -1.73425       0.0753599
LJ         -0.105995          2.4785       0.0277866
LJ          0.888974         2.54568       -0.802682
LJ           1.61836        -1.79853       -0.744052
LJ          0.793475        -1.85401        0.173273
LJ           1.68062        -2.52495      -0.0760098
LJ          -2.52732       -0.884975       -0.781551
LJ          -1.91304        0.128072       -0.781668
LJ            2.4227      -0.0475107      -0.0571878
LJ          -1.70043       -0.900785      -0.0577426
LJ         -0.946836       -0.757769       -0.787683
LJ        -0.0928138      -0.0488692       -0.832796
LJ         -0.932541       -0.044284      -0.0306599
LJ        -0.0773338       -0.701396      0.00175874
LJ          0.907358       -0.880284       -0.789751
LJ           1.69787       -0.183132       -0.867731
LJ          0.940233      -0.0679975       -0.153427
LJ           1.69598       -0.950183        -0.17252
LJ          -2.42678        0.993115       -0.830123
LJ          -1.79633          1.7787        -0.97063
LJ          -2.48082         1.77539        0.127992
LJ          -1.64949        0.921208        0.148099
LJ         -0.881354        0.787186       -0.684898
LJ         -0.133753         1.72453       -0.930026
LJ         -0.918618           1.758        -0.15441
LJ        -0.0739836        0.918346       0.0702158
LJ          0.686584         0.89036       -0.874595
LJ           1.67951         1.89905       -0.880256
LJ          0.660511         1.73899       -0.197776
LJ           1.71852        0.720636       0.0112287
LJ           2.49392         2.52209        0.983544
LJ          -1.62261        -1.75241         1.00035
LJ           2.28091        -1.72101         1.69218
LJ          -1.85941        -2.55158         1.66683
LJ         -0.853638         2.41153         0.81593
LJ         0.0619274        -1.80222        0.913092
LJ         -0.867989         -1.6495         1.74392
LJ         0.0644905        -2.50543         1.85652
LJ           1.03538         2.43945        0.916989
LJ           1.71078        -1.79352        0.795895
LJ          0.972248        -1.64059         1.63984
LJ           1.71065        -2.49473         1.75937
LJ           2.38062       -0.629533        0.956813
LJ          -1.72839      -0.0183075        0.804963
LJ          -2.49007     -0.00444773         1.92965
LJ          -1.79085       -0.926039         1.76582
LJ         -0.743384       -0.897446        0.803441
LJ         0.0752161       0.0128833        0.864696
LJ         -0.728828     0.000663193         1.73335
LJ        -0.0266005       -0.880841         1.65543
LJ          0.806289       -0.906664        0.764362
LJ           1.60497      -0.0345138        0.772302
LJ          0.870809       -0.159035         1.70982
LJ           1.70362       -0.847494         1.72562
LJ           2.50964        0.903318        0.755991
LJ          -1.81457           1.697        0.842341
LJ           2.55694         1.75653         1.75204
LJ          -1.68584        0.811527         1.79305
LJ         -0.860232        0.661962        0.788417
LJ        -0.0804039         1.64291        0.951779
LJ          -0.82058         1.80148          1.7242
LJ          0.034333        0.786082         1.53208
LJ          0.897936        0.710715        0.793959
LJ           1.73169         1.65369        0.747545
LJ          0.855553         1.57788           1.665
LJ           1.67808         1.01178          1.6957
