108
#Comment!
LJ           1.19236       -0.353448        0.887443
LJ          -2.19396        -1.10103         1.07055
LJ         -0.268752        0.178682         2.44045
LJ          0.269645       -0.194119       -0.765304
LJ           1.39041        0.399868         1.65224
LJ           2.36573         2.20939       -0.297936
LJ           1.76378        0.050084        -1.75382
LJ           1.58823        0.809841        0.337318
LJ           1.29102         1.36737         2.26668
LJ         -0.914677         1.00844         1.67988
LJ           1.25043       -0.714853       -0.486585
LJ          0.216716         0.21658         1.49633
LJ         -0.977315        -1.59581       -0.574397
LJ           1.42349          2.4275         1.66892
LJ           2.28264       -0.380943         1.46934
LJ         -0.843435      -0.0618361       0.0788604
LJ         -0.954307        -2.07965         2.05402
LJ          -2.36402        0.110832       0.0184797
LJ          0.349758          2.4903         1.92009
LJ           2.02584        0.153012       -0.774507
LJ           1.10092         2.28683        -2.37252
LJ         -0.486333         1.59132       -0.842295
LJ          -1.08848        0.573458        -1.40039
LJ          -1.57414        0.490123        -2.51992
LJ            1.0139        -1.43651        -1.05201
LJ          -2.42295         2.26428        0.791777
LJ           1.86742        -1.92539       -0.612638
LJ          0.442269       -0.157262        -1.75102
LJ          0.679492         2.06488         1.01009
LJ          -1.14893        -1.16613         2.54856
LJ           1.74749        -2.03979        -1.75203
LJ           -1.9561        -1.52866        -2.15067
LJ           2.27626       -0.925918        -1.28494
LJ          -0.39264        -2.38191       -0.998929
LJ          -1.86044        -2.10288       -0.319507
LJ         -0.528758          2.5622         1.20302
LJ           1.68685         1.64763        0.913796
LJ         -0.949093       0.0176702          1.5417
LJ           1.16841       -0.918699        -2.09587
LJ          0.926518       0.0460444       0.0217136
LJ          0.880023        -2.20611       -0.419805
LJ          -1.59996        -1.05727       0.0212835
LJ         -0.753636       -0.384929        -1.86612
LJ          -1.90437         1.47561         2.01041
LJ           1.78818        -2.41807        0.698604
LJ          -1.37667        -2.09589         -1.3868
LJ         -0.668918         1.07841        -2.28918
LJ           1.61953       -0.308704         2.25596
LJ           0.79656        -1.89803         1.09981
LJ          0.829567        -1.74551         2.41008
LJ          -1.78593       -0.401543         1.91292
LJ         0.0580911         1.03583         1.99534
LJ           2.15906          2.0464         -2.3264
LJ         0.0928537         1.82743         0.10027
LJ          -1.96842        0.802758        0.948408
LJ          -1.97255         1.52733        -2.02585
LJ         -0.491425         1.85274         2.22896
LJ        -0.0231497        -1.16002        -1.12669
LJ           1.25282        -1.33496        0.360889
LJ           1.14725         1.31273        -1.79494
LJ           -1.4894        -2.11804        0.829929
LJ         0.0339009       -0.847955         2.36929
LJ          -1.41697          1.7922        0.621508
LJ          -2.48521        0.119602          2.3811
LJ            2.0844       -0.749663        0.460799
LJ           1.20393        0.610558       -0.963001
LJ          -1.43066        0.819878       -0.105397
LJ          0.970129       -0.812404         1.73503
LJ         -0.918147         2.45995       -0.142632
LJ          -2.31632        0.442851        -1.72207
LJ           2.29249        -2.04897         2.38927
LJ         -0.989388         1.94575        -1.85235
LJ          0.453723         1.93036         -1.0959
LJ          -2.32775         1.44466        0.178923
LJ          -2.33005        -2.36861        -1.37899
LJ         -0.609668        -1.13089        0.602864
LJ           0.43457        -2.30068        -1.83392
LJ          -1.65294       -0.121603       -0.716163
LJ         -0.108394        -1.53434          1.4069
LJ         -0.404101         1.18362        0.724385
LJ          -2.02336       -0.483959        -1.94091
LJ         -0.272731        0.721636       -0.452245
LJ           2.43486        -1.76362         0.19008
LJ           0.73913         1.02337        0.987536
LJ           2.08327         1.06918          -2.289
LJ           2.43169         2.19935         1.78214
LJ           2.39265        -0.92582         2.55764
LJ          0.765522        0.551821         2.55463
LJ          0.197813        -1.25205      -0.0811431
LJ            0.1537        -2.24345        0.323602
LJ           -2.0124        -1.91808          1.8407
LJ          0.259991       -0.646726         1.04767
LJ          -1.65121         2.53901        -2.22358
LJ          -1.21263        -1.07997         1.48312
LJ          -1.72254        -1.11425        -1.10733
LJ           2.27234         1.09161         1.72568
LJ           2.02491         1.11147       -0.582986
LJ          0.198585         1.77657        -2.10241
LJ            1.8028        -1.67317         1.32806
LJ          -1.78631       -0.224379        0.796412
LJ          0.822706         1.16972       -0.151774
LJ           1.34532         2.04772       0.0335392
LJ          -1.72924         2.06236       -0.758637
LJ          -2.14572         1.15484       -0.843068
LJ           1.48337         2.09053        -1.15719
LJ          -1.46481         2.32696         1.65148
LJ         -0.600891        -1.73603        -1.94252
LJ         0.0888374        0.872745        -1.42587
