108
#Comment!
LJ         -0.775449        -2.55523        0.759279
LJ          -1.25418        -1.79312        -1.16693
LJ          0.410529        -1.18414         1.34957
LJ          0.737351         2.44288        -1.15399
LJ         0.0115232        -2.40243         1.56221
LJ           2.28766       -0.331508        0.194809
LJ          0.722338         1.20527       -0.865833
LJ          0.965647        -2.32585        -2.42715
LJ           2.14551        -1.89075         1.21918
LJ          0.540865        -2.12426        0.496369
LJ          -1.85032        0.479351         2.32089
LJ          -1.78753         2.35423         2.39183
LJ          0.104574         0.96072         1.08585
LJ          -2.48453         2.20778         1.10753
LJ          -1.63846         2.19387       -0.371676
LJ          -1.56642         1.16312       -0.994844
LJ         -0.896979        -1.52218         1.69192
LJ           1.84196         1.40106        -1.22649
LJ          0.994185       -0.319357        0.712677
LJ         0.0399644         2.44361        -2.15182
LJ           1.29097        -1.35047        0.781676
LJ          -1.52271         1.42282         -2.2787
LJ          0.353003         1.77414         2.23597
LJ          -1.34892       -0.690757        -1.12594
LJ           1.00659        -1.94391         1.76343
LJ         -0.203752       -0.432183        -1.86423
LJ          -2.27415        -2.37216        -1.27506
LJ          -1.15252        0.152684       -0.661883
LJ          -2.25881        0.199443       -0.576042
LJ         -0.158361        -1.54791       -0.611537
LJ         -0.447014        0.550079        -1.79978
LJ          -1.39612       -0.149022         1.34601
LJ          -1.49655       -0.670661         2.18512
LJ           1.70979         1.42492         1.01704
LJ            2.2075        -1.36487        0.371549
LJ         -0.784907         1.40178        0.633733
LJ           1.63062        -2.22725     -0.00930769
LJ           1.17293       -0.913736         1.81158
LJ           -1.4834         2.26016        -1.51402
LJ          0.390389        0.341735        0.087646
LJ         -0.724603        0.360961        0.554441
LJ           1.90506         2.51457        -0.89374
LJ         -0.904739         -1.1628        -2.07898
LJ            1.5119         2.14093         2.08739
LJ           2.18001        -1.64618        -1.57754
LJ           1.25444         1.19872         2.08754
LJ           1.32194          1.5292       0.0160078
LJ          -1.53135        -2.40086         1.44414
LJ          -2.47284         -0.7989       -0.809064
LJ        -0.0785889        -1.62539          2.2585
LJ          -0.86356        -2.25438       -0.262305
LJ          -1.62112        -1.27918       -0.320515
LJ          0.827392       -0.160516        -0.75233
LJ           2.07537        -1.42449         2.47494
LJ          0.625892        0.979229        -2.10012
LJ          0.657056         1.91674         1.35092
LJ           1.49139         -1.0715       -0.228478
LJ          -1.39016        -1.59382        0.605981
LJ           2.51642         1.03341      -0.0911602
LJ           1.20722         1.76834        -1.94801
LJ           2.44329        -2.37904         2.11301
LJ          0.989669        -1.54533       -0.924844
LJ         -0.728783         1.58948       -0.362381
LJ          0.470799        0.402912         2.22492
LJ           2.52137        -1.73619       -0.521769
LJ         -0.430144         1.41708        -2.29141
LJ           2.29818         2.10245       0.0623793
LJ          -0.71507         2.06894         1.74673
LJ          -2.03398         1.36947        0.621491
LJ         -0.989663       -0.564974        0.213535
LJ          -1.41098        0.831142       0.0105361
LJ          -1.88343        -2.00147        -2.12879
LJ         -0.859903        -2.20742        -2.05762
LJ         -0.825655        0.924096         1.64074
LJ          0.487153       -0.989771       0.0789564
LJ           2.10152       -0.596396         1.25158
LJ          -2.25363        -1.28181         1.66812
LJ          0.943513       -0.202194         -2.2199
LJ          -2.17187        -1.03204        -1.73944
LJ          0.331261         1.49815       0.0665791
LJ           1.32145        0.173198         1.68856
LJ          -2.21179        0.181056        -1.65316
LJ         -0.254499       -0.515479       -0.682587
LJ        -0.0719749        0.536602       -0.801152
LJ         0.0851732         2.53363       -0.203871
LJ            2.5106          1.5297        -2.48108
LJ           2.26355         0.78963         1.83791
LJ           1.88685        0.702107        -2.08772
LJ         -0.356981         -1.5411        0.590874
LJ          -1.20553       -0.140173        -1.91388
LJ           1.51485         2.40973        0.807508
LJ         -0.542466        0.188343         2.31975
LJ          -2.03946       -0.671274        0.721015
LJ           1.86763        0.319612        0.824655
LJ         -0.132829         1.60519        -1.31819
LJ         -0.239766        -2.51747        -1.17293
LJ           1.56173       -0.587174         -1.4272
LJ          0.108841         -1.3613        -1.62156
LJ           1.68442        0.546384       -0.233178
LJ          -1.81674         1.28409         1.62317
LJ          -2.34217         1.71346        -1.42762
LJ          -2.06478        -2.26838        0.406038
LJ          0.128044       -0.559488         2.21432
LJ           2.18411         2.38623        -1.93364
LJ         -0.356173       -0.217988         1.38075
LJ          -2.28604        0.397815         1.04436
LJ                 1        -1.23731        -2.45661
LJ           2.11514       -0.394952         2.39107
