108
#Comment!
LJ          -2.52026        -2.47657          2.3708
LJ          -1.70455        -1.64706         2.52849
LJ          -2.39121         -1.5223        -1.80465
LJ          -1.76054          2.4928        -1.63397
LJ         -0.831128         2.49937         -2.5082
LJ        -0.0869821        -1.96379        -2.48208
LJ          -1.10126        -1.53451        -1.76372
LJ        -0.0437106         2.19857        -1.79435
LJ          0.773478         2.50564           2.419
LJ            1.7958        -1.72699         -2.5237
LJ          0.702624         -1.8601        -1.76065
LJ           2.02029         2.45293        -1.72484
LJ           2.48454       -0.769735          2.5263
LJ          -1.74065       0.0522821        -2.54821
LJ           2.46077       0.0791645        -1.83911
LJ          -1.75783       -0.576758        -1.64047
LJ          -1.06642       -0.724455        -2.44681
LJ         -0.116544        -0.15786        -2.50734
LJ         -0.907022       0.0289202        -1.79532
LJ         -0.110264         -1.0668         -1.8493
LJ          0.865852        -1.11909        -2.51881
LJ            1.6784     -0.00520482          2.4842
LJ          0.892749         0.11629        -1.80503
LJ            1.6859       -0.654858        -1.72481
LJ           2.54842        0.919068         2.52466
LJ          -1.72326         1.89437         2.45086
LJ          -2.38068         1.60418        -1.62851
LJ          -1.56597        0.765513        -1.79767
LJ         -0.580244        0.898573         2.49816
LJ          0.072005         1.74033         2.31309
LJ          -1.02104         1.67488        -1.70555
LJ         0.0455675         1.10862        -1.81883
LJ          0.806198        0.930541          2.5197
LJ           1.74511         1.81322         2.43676
LJ          0.946927         1.94678        -1.89138
LJ           1.58476         1.05206        -1.65401
LJ           2.47829         2.44141        -0.78083
LJ          -1.45324        -1.71219       -0.852671
LJ          -2.30516         -1.8868       -0.177664
LJ           -1.7359         2.41505      -0.0629129
LJ         -0.806956         2.54111       -0.995345
LJ          0.187352        -1.69815       -0.823886
LJ         -0.683197        -1.95699        -0.15168
LJ         -0.174109         2.30644        0.018907
LJ          0.839583        -2.49824       -0.904344
LJ           1.88799        -1.79455        -1.07897
LJ          0.701705        -1.91898        0.282697
LJ           1.70914        -2.48703        -0.07389
LJ          -2.45397       -0.902531       -0.717029
LJ          -1.92889       0.0492534       -0.792263
LJ          -2.50073        0.188045      0.00061879
LJ          -1.78914       -0.826728         0.12846
LJ         -0.635768       -0.862944       -0.717319
LJ        -0.0845939        0.322055       -0.967958
LJ         -0.677942       0.0997116      -0.0639591
LJ        -0.0874471       -0.673756        0.136819
LJ          0.945705       -0.994223       -0.656904
LJ           1.85539      -0.0517537       -0.601809
LJ          0.693647       0.0520764       0.0950106
LJ           1.79865        -1.21688      -0.0890743
LJ          -2.50039        0.977598       -0.796586
LJ          -1.63038         1.81649       -0.819319
LJ           2.47004         1.64522       -0.028576
LJ           -1.8219         1.15203        0.347818
LJ          -1.11152        0.753669       -0.846333
LJ         0.0615171         1.64887         -1.0176
LJ           -0.8552         1.49558      -0.0620786
LJ         0.0282329         0.91126       -0.254043
LJ          0.957293        0.965725       -0.776215
LJ           1.68856         1.77911       -0.812522
LJ          0.761687          1.9399      -0.0247621
LJ           1.64775        0.894032      -0.0215003
LJ           2.44974         2.31228        0.723923
LJ          -1.34819        -1.77819        0.758256
LJ           2.53373        -1.59072         1.73429
LJ          -2.08499        -2.42425         1.43952
LJ         -0.798454         2.49464         1.04172
LJ         0.0827768        -1.49934        0.982801
LJ         -0.955363        -1.84906         1.84495
LJ         0.0718914        -2.33367         1.69577
LJ          0.806635         2.35786         1.00195
LJ             1.926        -1.62657        0.812259
LJ           1.00523        -1.78541         1.75978
LJ           1.74208        -2.40789         1.64427
LJ            2.5089       -0.645084        0.850413
LJ          -1.61353       0.0789515        0.815637
LJ           2.43485       0.0445531         1.73428
LJ          -1.73452       -0.769149         1.73895
LJ         -0.745226          -1.039         1.01604
LJ          0.156701      -0.0819561         1.06192
LJ         -0.944517        0.167469         1.97872
LJ          0.154523       -0.924736         1.87772
LJ            0.9903        -1.03062        0.797118
LJ           1.57485       -0.120438        0.641612
LJ          0.708967      -0.0144961         2.04631
LJ           1.52809       -0.804932         1.80066
LJ           2.24479        0.807609        0.797106
LJ          -1.66799         1.89516        0.946618
LJ           2.47285          1.5496         1.47867
LJ          -1.80698        0.903886         1.56649
LJ         -0.864124        0.766064         0.79457
LJ          0.227312         1.43852        0.764921
LJ         -0.889621         1.46835         1.56401
LJ          0.187736        0.871046         1.62301
LJ            1.1094        0.712306         1.01876
LJ           1.51516          1.6443        0.636005
LJ          0.913309         1.51536         1.65374
LJ           1.65728        0.852193         1.87624
