108
#Comment!
LJ            2.5123        -2.44962        -2.55523
LJ          -1.74733         -1.6703         2.45411
LJ           2.53115        -1.71875        -1.65509
LJ          -1.77882        -2.45989        -1.65409
LJ         -0.848164         2.54364         2.49196
LJ        0.00371159        -2.05454        -2.41976
LJ          -1.10608        -1.49028        -1.65935
LJ        0.00681597         2.24201        -1.77396
LJ          0.936891         2.50734         2.49527
LJ           1.76869        -1.81593         2.56128
LJ          0.866042        -1.78579        -1.77045
LJ           1.86525         2.55571        -1.68959
LJ           2.45315       -0.846316        -2.54668
LJ          -1.88256      0.00694995         2.52884
LJ           2.49299        0.138712        -1.99355
LJ          -1.74926       -0.551662         -1.5227
LJ          -1.19926       -0.766986        -2.44369
LJ         0.0128909       -0.162869        -2.47267
LJ         -0.735257       0.0373411        -1.78156
LJ         -0.117664        -1.12873        -1.92765
LJ          0.818046        -1.16307        -2.54621
LJ           1.71063       0.0179164        -2.55512
LJ          0.823237        0.120869        -1.81874
LJ            1.6539       -0.705881         -1.6581
LJ          -2.45417        0.982171         2.47092
LJ          -1.68921         1.93753         2.53505
LJ          -2.52139          1.6938        -1.60823
LJ          -1.55745        0.771152        -1.81033
LJ         -0.597672         1.03407         2.50077
LJ          0.185433         1.78218         2.50328
LJ         -0.951444         1.57999        -1.74016
LJ         0.0987969         1.05912        -1.81184
LJ          0.917921        0.920888         2.49964
LJ           1.87279         1.87548         2.47621
LJ          0.931543         1.82842        -1.65663
LJ           1.67867        0.933445        -1.68858
LJ           2.37346         2.34718       -0.804672
LJ          -1.51301        -1.77122       -0.785478
LJ          -2.42618        -1.89968       -0.102512
LJ          -1.66163         2.51623       0.0292135
LJ         -0.849706        -2.54257        -1.09789
LJ          0.175882        -1.74142       -0.901952
LJ         -0.548789         -1.8273      -0.0041182
LJ         -0.195651         2.40911       0.0513358
LJ          0.866126        -2.49996        -0.90459
LJ           1.78179        -1.69311       -0.960341
LJ          0.678602        -2.05062        0.162271
LJ           1.68121        -2.40462      -0.0388531
LJ          -2.54594       -0.934407       -0.689507
LJ          -1.92584        0.153397       -0.815357
LJ          -2.51876        0.103936        0.053144
LJ          -1.69746       -0.938658      -0.0421135
LJ         -0.576376        -0.86778       -0.638955
LJ        -0.0809499        0.317018       -0.974741
LJ         -0.740901      -0.0450037      -0.0388405
LJ          0.173409       -0.749009        0.254197
LJ          0.804805       -0.970167       -0.634065
LJ           2.04146       -0.150488       -0.878505
LJ          0.651477       0.0794808      -0.0276872
LJ           1.66644        -1.07141      -0.0990107
LJ          -2.47745         1.03012        -0.86754
LJ          -1.56172         1.84145       -0.816413
LJ           2.38129         1.76119       0.0142611
LJ          -1.92554        0.963222        0.150467
LJ          -1.01819         0.67882       -0.947259
LJ         0.0405717         1.86094         -0.8804
LJ         -0.781282         1.60642      -0.0735334
LJ        -0.0499887         0.87792      -0.0305322
LJ          0.746752        0.982316       -0.706556
LJ           1.67035         1.66488       -0.892133
LJ          0.772572         2.01065      -0.0828409
LJ           1.71768        0.840736       -0.216016
LJ           2.45979         2.33148        0.829693
LJ          -1.41059        -1.89162        0.729069
LJ           2.51371         -1.5937         1.79919
LJ          -1.96575        -2.46145         1.59863
LJ         -0.677188         2.56119         1.12375
LJ          0.120177        -1.61477        0.927257
LJ         -0.857481        -1.83194         1.75574
LJ          0.084291        -2.35484         1.72061
LJ          0.835536         2.30235        0.923978
LJ           2.03209        -1.57653        0.701114
LJ          0.969037        -1.79025         1.73744
LJ           1.68604        -2.52778         1.69739
LJ           2.51278       -0.619998        0.938623
LJ          -1.73536        0.071658        0.799678
LJ           2.55035      -0.0415682         1.74669
LJ          -1.87992       -0.827848         1.72022
LJ         -0.704606       -0.930483        0.999018
LJ        -0.0158167      -0.0615172        0.979812
LJ         -0.861228         0.16636         1.93053
LJ           0.22375       -0.962622         1.82079
LJ           1.04831        -1.03775        0.658934
LJ           1.60153        -0.17294        0.731083
LJ          0.887932       0.0074162          1.9315
LJ           1.57161       -0.894117         1.78223
LJ           2.35314        0.694964        0.843637
LJ          -1.43261          1.9673         0.82501
LJ           2.45957         1.64458         1.55523
LJ          -1.83698        0.926438         1.58145
LJ         -0.870405        0.661785        0.819785
LJ          0.233796         1.48903        0.646532
LJ         -0.861352         1.62304         1.61649
LJ        -0.0182258        0.756813         1.53783
LJ          0.996415        0.773911        0.861089
LJ           1.56831         1.67227        0.571106
LJ          0.815302         1.62367         1.72481
LJ           1.81859        0.822571         1.77531
