108
#Comment!
LJ         -0.471583         1.17115        0.936007
LJ          -1.84738         1.95633        -1.53267
LJ         -0.795721        0.276952         2.51854
LJ          0.121725         2.54097       -0.520853
LJ         -0.641407        -1.84134        0.446051
LJ          -1.27396         1.68213         2.22525
LJ         -0.821887       -0.701337         1.35771
LJ          0.100269       -0.822068        0.749496
LJ          -0.48838         2.00571        0.191588
LJ          0.554331       -0.156338          1.6668
LJ           2.15444        0.591722       -0.535843
LJ           2.43497        -1.62258         1.79986
LJ          -2.05245       -0.766764         1.18461
LJ           1.76639      -0.0197009        0.149943
LJ          -2.13467       -0.969414       -0.766765
LJ           2.14098        -1.53166       -0.546859
LJ         -0.360821        -1.64943         1.33676
LJ           1.12234      -0.0330116        -1.35812
LJ           2.11052       -0.204171        -2.13384
LJ          -0.59271          1.4559         -2.0146
LJ          -2.09973        0.274591        -2.40891
LJ           2.37882         1.70989       -0.717826
LJ          -2.10785         1.04055         0.63396
LJ          -2.09821        -1.81885        -1.38867
LJ          0.192693       -0.140572        -2.00471
LJ          -1.27273        -2.10238       -0.943883
LJ        -0.0481713       -0.755319        -1.16134
LJ          0.652182       -0.348811       -0.149328
LJ           1.35554         1.23537       -0.189562
LJ         -0.167766        -1.45493        -2.38419
LJ          -1.14511        -1.52136        -1.80178
LJ          -1.49764        0.906021        -1.65001
LJ          0.925095        -1.80315       0.0116952
LJ          -1.88311        0.644152       -0.392051
LJ          -1.79156        -2.42932         1.59379
LJ          -1.55136        -2.48431        0.283093
LJ          -1.38836       -0.608333         2.32945
LJ         -0.725329        -2.34369         2.03341
LJ           2.08236       -0.562493       -0.636847
LJ         -0.415551        0.128135         1.62965
LJ          -2.30684        0.264266        -1.30501
LJ          -1.07202         1.95282        -0.89994
LJ         -0.172155         1.42905         1.91153
LJ         0.0171876        -1.33299       -0.170048
LJ         -0.298114       -0.598214         2.25638
LJ            1.9358        -2.47797        -1.29292
LJ          0.526499        -1.11357         2.02849
LJ         -0.879958       -0.862659        0.367807
LJ          -2.27332        -1.90552        0.844058
LJ           1.03666       -0.953948        -1.87675
LJ           1.18386       -0.124456        -2.52094
LJ            1.1427       -0.366199        0.925549
LJ          -2.26774       -0.262316       0.0705632
LJ         -0.826791        0.987721       -0.392656
LJ          -1.71165         1.72178      -0.0747443
LJ           2.44411         1.96576        0.461827
LJ          0.724541         1.64799        -2.49618
LJ         -0.421152        0.341925        -1.05428
LJ            1.6515        0.731939         2.41706
LJ          0.414479        0.890771         -1.6232
LJ          -1.87801        -1.35911       0.0779681
LJ           1.85533         1.05559           1.183
LJ          0.767196        -1.91482        -2.42809
LJ          -1.39199         1.78771        0.920622
LJ          -1.91127        -0.70446        -1.86478
LJ           1.84761        -2.04853         -2.2107
LJ          -2.43615         2.50362         2.52343
LJ          -2.24433          1.4115         2.55745
LJ           1.32428         2.46462         1.95731
LJ           1.12859         2.41652        -0.45824
LJ           1.88281         1.73112         -2.5384
LJ         -0.248476        -2.22973        -1.50531
LJ          0.604717        -1.73552        -1.04112
LJ          -1.47119        -1.58897         1.94287
LJ           1.24758         -1.0582       -0.661168
LJ         0.0367873         2.44906        -2.31969
LJ           -2.1541        -2.38637       -0.549677
LJ          0.779262        -1.55955         1.11832
LJ          0.971428         1.58161         1.54754
LJ         -0.429542         2.24415         1.30644
LJ          -2.45376       -0.620416         2.07257
LJ          0.650272        0.626414       -0.587285
LJ           1.43837        -1.54471         2.00225
LJ           2.52254         0.21395         1.01775
LJ             2.033        0.869051         -1.7176
LJ          0.593105         1.64094        0.436797
LJ          0.431282        0.420165        0.748374
LJ            2.4011         1.99212         1.52827
LJ           1.67789       -0.527236         1.73261
LJ          -0.23855      -0.0328588     -0.00814703
LJ          -1.40594       -0.266435       -0.842875
LJ          0.345566         -2.3739         1.82625
LJ           1.97084        -2.26203       0.0719725
LJ          0.224558        -2.43656        0.514874
LJ          0.639734         2.37056        -1.41542
LJ          -1.32835       0.0450067        0.565487
LJ          -0.93346       -0.382052        -1.73465
LJ           2.17182         -1.1615        -1.54399
LJ           1.50928         2.01168        0.829543
LJ           0.51179         0.71025         2.42184
LJ           1.72462        -2.07887         1.12993
LJ          -2.27772        0.850959         1.74306
LJ         0.0683761         1.47789        -0.73482
LJ         -0.839457        -1.23195       -0.704193
LJ          -1.28233         0.82749         1.57016
LJ          -2.43662        -1.43327        -2.35163
LJ           2.06372        -1.14004        0.586544
LJ           1.46432          1.5141        -1.26443
