108
#Comment!
LJ             2.488        -2.47355         2.56384
LJ          -1.76481        -1.69034         2.43539
LJ           2.52703        -1.73654        -1.77639
LJ          -1.76854         2.56269        -1.56121
LJ         -0.856184         2.50019         -2.5295
LJ         0.0349077        -2.03659        -2.46141
LJ          -1.20276        -1.48473        -1.73126
LJ        -0.0531675         2.22854        -1.81413
LJ           0.87437         2.50113         2.47737
LJ           1.77116        -1.73076          2.5648
LJ          0.861929        -1.85751         -1.7764
LJ           1.89783         2.52621        -1.69553
LJ           2.52858       -0.919723         2.56437
LJ          -1.83535       0.0574232         2.53582
LJ            2.4957        0.126469        -1.99607
LJ           -1.8067        -0.56875        -1.62434
LJ          -1.20281       -0.782247        -2.43644
LJ        -0.0215001       -0.223049        -2.48143
LJ         -0.702842     0.000364969        -1.80572
LJ         -0.155808        -1.13869        -1.86804
LJ          0.913752        -1.15206        -2.51781
LJ           1.74274       0.0366035         2.51549
LJ          0.920807       0.0796348        -1.81299
LJ           1.68507       -0.628206        -1.74061
LJ          -2.51065        0.933405          2.4501
LJ          -1.72382         1.96982         2.48952
LJ          -2.46047         1.63191         -1.5971
LJ          -1.59221        0.770472        -1.78134
LJ         -0.581427         1.06189         2.50829
LJ          0.178926         1.74284         2.45438
LJ          -0.97191         1.64099        -1.75196
LJ         0.0996461         1.04163        -1.82013
LJ          0.875886         0.84434         2.47169
LJ           1.87247         1.83144         2.49636
LJ          0.912902         1.85203        -1.63214
LJ           1.58217        0.956149        -1.64824
LJ           2.45492         2.36748       -0.746902
LJ          -1.49455        -1.71031         -0.7671
LJ          -2.44535        -1.91871      -0.0743198
LJ          -1.66447         2.53844      -0.0172721
LJ         -0.829912        -2.56032        -1.03472
LJ          0.199881        -1.73662       -0.924117
LJ         -0.590407        -1.86583       0.0287012
LJ         -0.193393         2.36547       0.0933617
LJ          0.838303        -2.46166       -0.903539
LJ           1.83578        -1.72648       -0.946619
LJ          0.793794        -2.02226        0.233536
LJ            1.6886        -2.42714       0.0117889
LJ           2.55616       -0.925274       -0.684027
LJ          -1.87125         0.17029       -0.825833
LJ          -2.51747       0.0867405       0.0450941
LJ          -1.74019       -0.961932       0.0211145
LJ         -0.586325       -0.863454       -0.686165
LJ         -0.104162        0.328335       -0.969678
LJ         -0.710775      -0.0267407      -0.0182523
LJ         0.0818562       -0.795464        0.271846
LJ          0.772577       -0.953015       -0.580217
LJ           2.01405       -0.157613        -0.81734
LJ          0.726624      -0.0282942      -0.0209789
LJ           1.71753        -1.07888       -0.125168
LJ          -2.54139         0.98075       -0.892895
LJ          -1.57137         1.84863       -0.821959
LJ           2.37557         1.68852      0.00981608
LJ          -1.96205         1.08168        0.177748
LJ          -1.06691        0.727008       -0.958324
LJ          0.171504          1.8537        -0.90342
LJ         -0.758498          1.6071       -0.103529
LJ          0.051431        0.906145       -0.113508
LJ          0.745568         1.00836       -0.783457
LJ           1.66272         1.71308       -0.851721
LJ           0.75916          2.0726      -0.0308144
LJ           1.75886        0.837781       -0.136962
LJ           2.38131         2.32418        0.812407
LJ          -1.41406        -1.88082        0.688902
LJ           2.54779        -1.54478         1.69807
LJ          -1.99231        -2.40884         1.50379
LJ         -0.590715         2.52219         1.10629
LJ         0.0951949        -1.62996        0.931451
LJ         -0.921964        -1.87306         1.76092
LJ         0.0995425        -2.32137         1.72586
LJ          0.788814         2.31455        0.946446
LJ           1.98318        -1.63963        0.694123
LJ          0.985524        -1.78225         1.72396
LJ           1.66701          2.5464         1.67753
LJ           2.50293        -0.68966        0.940652
LJ          -1.75853        0.076766        0.855989
LJ           2.50279       0.0161883         1.73972
LJ          -1.89111       -0.755286         1.76547
LJ         -0.728282       -0.905571         1.02812
LJ         0.0304068        -0.11491         1.01017
LJ         -0.907241        0.211149         1.89153
LJ          0.233867       -0.978589         1.80024
LJ           1.11374        -1.00771        0.673601
LJ           1.62353       -0.137966         0.75811
LJ          0.827491      -0.0570039         1.91113
LJ           1.58744       -0.831077         1.82694
LJ           2.37216        0.861682        0.847391
LJ           -1.4499         1.96051         0.86926
LJ           2.43191         1.63868         1.57141
LJ          -1.83255        0.981387         1.59958
LJ         -0.910224        0.652954        0.849066
LJ          0.179902         1.48184        0.664057
LJ         -0.793342         1.59279         1.62947
LJ         0.0594595        0.789572         1.56345
LJ           1.09324        0.786044        0.916847
LJ            1.5545          1.6989        0.567594
LJ          0.810531         1.58527         1.69508
LJ           1.74943        0.768988         1.80419
