108
#Comment!
LJ          -2.45067        -2.47213         2.46221
LJ          -1.86843        -1.50936         2.51482
LJ          -2.35697        -1.55833        -1.79838
LJ           -1.5115        -2.48139        -1.79401
LJ         -0.850877         2.38041        -2.53668
LJ         -0.154649        -1.59257         2.47219
LJ          -1.02694        -1.57684        -1.80729
LJ         0.0605807         2.48364        -1.89266
LJ          0.922326        -2.42896        -2.55222
LJ           1.72368        -1.65588         2.44766
LJ           1.14737        -1.79919        -1.70473
LJ           1.92643          2.3741        -1.59441
LJ            2.4974       -0.628159         2.50611
LJ          -1.86036      -0.0397555         2.31767
LJ          -2.46259      -0.0341359        -1.80436
LJ          -1.51647       -0.583346        -1.59146
LJ          -1.12569       -0.716545        -2.50025
LJ        -0.0274887        -0.21713        -2.46264
LJ         -0.807198        0.067648        -1.83724
LJ         0.0708246        -1.00426        -1.72431
LJ          0.761861        -0.95041         2.51486
LJ           1.74761      -0.0894137        -2.38926
LJ          0.758606        0.155939        -1.67728
LJ           1.52211       -0.774985        -1.55165
LJ          -2.55029        0.959756        -2.43883
LJ          -1.75141         2.01426         2.38485
LJ          -2.42558         1.68822        -1.46614
LJ          -1.58889        0.706224        -2.05358
LJ         -0.514138        0.766852           2.548
LJ          0.146104         1.68593         2.41199
LJ          -1.19933         1.70484        -1.63216
LJ        -0.0137591         1.07102        -1.69787
LJ           1.10653        0.992258         2.55229
LJ           1.79264         1.78495         2.55362
LJ          0.957707          1.8135        -1.88213
LJ           1.69139        0.800308        -1.68804
LJ           2.52555          2.4311       -0.729689
LJ            -1.467         -1.7066       -0.824662
LJ          -2.41433        -1.65009       -0.113726
LJ          -1.58709         2.50891        0.136081
LJ         -0.614332        -2.45719        -1.10202
LJ         0.0757484        -1.77409       -0.771757
LJ         -0.716842         -1.7479      -0.0509169
LJ        -0.0449415         2.39771        0.151357
LJ          0.698162         2.56278       -0.842814
LJ           1.92129        -1.67095       -0.949917
LJ          0.744521        -1.88657        0.161961
LJ           1.63337        -2.47682       0.0323827
LJ          -2.43949       -0.844223       -0.837848
LJ          -1.91156        0.121794       -0.989202
LJ          -2.40526        0.113323       0.0135067
LJ          -1.66031       -0.768187    -7.80512e-05
LJ         -0.827352       -0.783192       -0.832871
LJ         -0.179741       0.0368368       -0.998739
LJ         -0.689036       -0.071809        0.137787
LJ        -0.0273205       -0.817049        0.146199
LJ          0.916585        -1.19583       -0.738202
LJ           1.83892        -0.19588       -0.665869
LJ          0.792715       0.0303465        0.059342
LJ           1.95121        -1.07429      -0.0299476
LJ           2.49708        0.839558       -0.800315
LJ           -1.7904         1.72418       -0.709931
LJ            2.4436         1.58937       0.0576092
LJ          -1.86109         1.07777        0.195462
LJ          -1.04481        0.719184       -0.939239
LJ          0.191826         1.69577       -0.882064
LJ          -0.83947         1.69711       -0.147889
LJ         0.0590587        0.853218       -0.131053
LJ          0.867965        0.914912       -0.918188
LJ           1.75488         1.69045       -0.841485
LJ          0.966864         1.67237       -0.104885
LJ           1.58838        0.877563       0.0936441
LJ          -2.50356         2.47012        0.602827
LJ          -1.50724        -1.84934        0.838377
LJ          -2.47721        -1.49054         1.63113
LJ          -1.97094        -2.31375         1.63718
LJ         -0.850539         2.37988         1.03566
LJ         -0.042304        -1.50967         1.06273
LJ          -1.02629        -1.67494         1.85977
LJ          0.152129        -2.32761         1.74306
LJ          0.836577         2.40015        0.956441
LJ           1.70312        -1.48245         1.03034
LJ           0.88087        -1.66132         1.74501
LJ           1.82715        -2.47289         1.60974
LJ          -2.42582       -0.841456        0.760101
LJ          -1.58245       0.0672108        0.813048
LJ           2.43652      0.00632887         1.58984
LJ          -1.67571       -0.863591         1.60368
LJ         -0.883005       -0.857826        0.978963
LJ          0.152611       -0.104518        0.884039
LJ         -0.966578      -0.0323629          1.7705
LJ          0.222362       -0.755989         1.71786
LJ          0.873461       -0.882485        0.631273
LJ           1.79129       -0.319066        0.752155
LJ          0.849029      -0.0274491          1.7842
LJ           1.50981       -0.739361         1.82036
LJ           2.33414         0.95282         1.00088
LJ          -1.76897         1.82217         1.11559
LJ           2.54225         1.96601         1.65122
LJ           -1.8562         0.80411         1.62612
LJ         -0.964739        0.870717        0.624838
LJ          0.406018         1.49451        0.769902
LJ         -0.775702         1.38612         1.68822
LJ          0.120396        0.832783         1.52956
LJ           1.19559        0.720654         1.00232
LJ           1.51262         1.69549        0.758257
LJ           1.02334          1.6956         1.71602
LJ           1.88302         1.12711         1.83347
