108
#Comment!
LJ           -2.5555        -2.27101         2.32866
LJ          -1.70025        -1.60259         2.39334
LJ          -2.21422        -1.57375        -1.71497
LJ          -1.66978        -2.44637        -1.76963
LJ         -0.791017         2.41654         2.44607
LJ        -0.0616951        -1.80658        -2.49644
LJ          -1.18326        -1.50056        -1.85331
LJ          0.117661         2.37721        -1.90089
LJ          0.954684        -2.52943         2.53702
LJ           1.78097        -1.61148         2.45198
LJ          0.900652        -1.89434        -1.69082
LJ            1.9928         2.44862        -1.86148
LJ          -2.52535       -0.856315         2.39557
LJ           -1.7958        0.034309          2.4957
LJ           2.56369       0.0165702        -1.79669
LJ           -1.7695       -0.523641        -1.61143
LJ          -1.12681       -0.841826        -2.50261
LJ        -0.0460421       -0.162066        -2.39715
LJ         -0.927394      -0.0271896        -1.74835
LJ         0.0598744        -1.03972        -1.75586
LJ          0.972738       -0.982725        -2.55604
LJ           1.65721     -0.00249421        -2.48054
LJ           0.93932        0.180548        -1.74554
LJ            1.5735       -0.642847        -1.74837
LJ          -2.49344         1.05767        -2.50759
LJ          -1.67694          1.9371         2.38524
LJ           2.56323         1.54964        -1.60014
LJ          -1.72247        0.781931        -1.82618
LJ         -0.510247        0.840763         2.43703
LJ          0.229375         1.65462         2.37946
LJ          -1.20141         1.69466        -1.85165
LJ         0.0314701         1.15388        -1.83579
LJ          0.967132        0.924403         2.52035
LJ           1.82242         1.74303          2.5192
LJ          0.985324         1.79387        -1.89038
LJ           1.69572        0.976266        -1.66178
LJ           -2.5574         2.29762        -0.80248
LJ          -1.41045        -1.77223       -0.784939
LJ            -2.209        -1.72468      -0.0832691
LJ          -1.65035         2.49899        0.140889
LJ         -0.569323        -2.51236        -1.01825
LJ         0.0497934        -1.62667       -0.814837
LJ         -0.772267        -2.02245      -0.0892977
LJ        -0.0927437         2.35245        0.035716
LJ          0.836844         -2.5499       -0.811714
LJ           2.04004        -1.77449       -0.939119
LJ          0.788581        -1.71914        0.325315
LJ           1.71001         2.56301      -0.0469798
LJ          -2.28932       -0.945516       -0.797936
LJ          -1.93896    -2.75107e-05       -0.781336
LJ          -2.44549       0.0469606        0.165735
LJ          -1.61456       -0.728158      -0.0134588
LJ         -0.683164       -0.795238       -0.852337
LJ         -0.154518      -0.0289267        -1.11312
LJ         -0.732361      0.00731288       -0.059696
LJ         0.0681783       -0.682175       0.0353065
LJ           1.02268        -1.17344       -0.901554
LJ           1.94115        -0.13571       -0.627028
LJ          0.961238       0.0933811        0.132745
LJ           2.04671       -0.964003      -0.0532251
LJ           2.48028        0.970017       -0.782377
LJ           -1.6086         1.76026       -0.825216
LJ           2.29389         1.59705       0.0466215
LJ          -1.80709         1.02441        0.312536
LJ          -1.09425        0.729408       -0.853848
LJ         0.0286408         1.68482       -0.924617
LJ         -0.836652         1.56585       -0.281953
LJ        -0.0623849        0.741908       -0.192334
LJ           1.11963        0.791776       -0.873918
LJ           1.66546         1.71151       -0.719238
LJ          0.880455         1.75049       -0.151163
LJ           1.70198        0.865738      -0.0738444
LJ           2.49908         2.43079        0.744454
LJ          -1.30049        -1.84453        0.758482
LJ          -2.53694        -1.49899         1.51663
LJ          -1.85952        -2.29285         1.55119
LJ         -0.725259         2.44135        0.977383
LJ        -0.0233618        -1.54361        0.930481
LJ         -0.867129        -1.74564         1.92416
LJ         0.0651802        -2.30548         1.65954
LJ          0.811489         2.52924         1.03396
LJ           1.73082        -1.63674        0.888471
LJ           0.94435        -1.65346         1.69826
LJ           1.79814        -2.47629         1.60023
LJ          -2.47157       -0.818363        0.714178
LJ          -1.53409      -0.0508854        0.850623
LJ           2.47041      -0.0294493         1.73454
LJ           -1.7715       -0.668918         1.57776
LJ         -0.832794       -0.861912          1.0651
LJ          0.214916      -0.0959987         1.00211
LJ         -0.933494        0.129591         1.82763
LJ          0.197155       -0.815666         1.72781
LJ          0.901725       -0.848489        0.773592
LJ             1.735       -0.200393        0.696353
LJ          0.696013       0.0178159         1.93851
LJ           1.53368        -0.85349           1.607
LJ           2.17407        0.822419        0.959809
LJ          -1.72456          1.9323          1.0221
LJ           2.38168          1.7588         1.62506
LJ          -1.87424        0.755419         1.42607
LJ         -0.826908        0.862705        0.640775
LJ          0.396161         1.51755        0.825002
LJ         -0.886902         1.44404         1.59685
LJ         0.0799119        0.872716         1.54732
LJ           1.12653        0.698136         1.08379
LJ           1.46443          1.7059        0.616352
LJ           1.14453         1.58658         1.69757
LJ           1.76636        0.951905         1.88508
