108
#Comment!
LJ          0.151392        0.704688        0.311742
LJ          -1.73468         2.15805        -1.73828
LJ         -0.569867        0.532786        -2.56158
LJ         -0.742797        -2.06337       -0.195131
LJ         -0.433789        -1.59358          1.0134
LJ          -1.03062         1.60248        -2.54668
LJ         -0.799539       -0.676585         0.70591
LJ           0.22539       -0.641657        0.963665
LJ         -0.657224         2.11496        0.224884
LJ          0.989618       -0.349624         1.61762
LJ            2.1005         1.00189       -0.550312
LJ          -2.18204          -2.204         1.52522
LJ           -2.0691        -1.11584         1.16664
LJ           1.95356         0.14535        0.108162
LJ          -1.95338       -0.748344       -0.971271
LJ           2.35722        -1.74651       -0.725541
LJ         -0.566339        -1.23765         1.99336
LJ           1.01856        -0.16161        -1.41661
LJ           2.51082      -0.0467761         -2.3603
LJ         -0.285705         1.20208        -1.92491
LJ          -1.68397        0.622303        -2.54539
LJ          -2.44033         1.60791         -1.1514
LJ          -2.14316         1.10125        0.413669
LJ            2.4081        -2.50046        -1.29101
LJ           0.20749       0.0575865        -1.93832
LJ          -1.30783        -2.27803        -1.21911
LJ         0.0266533       -0.666862        -0.99893
LJ          0.806346       -0.214977        0.157517
LJ           1.19931         1.45582       0.0754855
LJ        -0.0307473         -1.7143        -2.41166
LJ          -1.16345        -1.58443        -1.98019
LJ          -1.21417        0.994498        -1.62097
LJ           1.04923        -1.75371        0.134046
LJ           -2.1515        0.360921       -0.460875
LJ          -1.83055         1.91348         1.72312
LJ          -1.72842        -2.38975         0.65449
LJ          -1.08697      -0.0262975         1.68481
LJ          -1.29147        -2.43364        -2.48595
LJ           2.10089       -0.190604       -0.931562
LJ          0.160523        0.360246         1.46983
LJ          -2.09759        0.213678        -1.58601
LJ          -0.84567         1.77129        -1.19219
LJ         -0.160289         1.44571         1.81111
LJ         0.0902142        -1.23483      -0.0544218
LJ        -0.0124584       -0.469432         2.35207
LJ           1.29836        -2.26472        -1.06791
LJ          0.975868        -1.25519         2.37666
LJ          -1.17647       -0.670717       -0.416317
LJ           2.39397        -1.89811        0.298943
LJ          0.736657        -1.13055        -1.78609
LJ           1.22752       -0.140627         -2.5247
LJ           1.54762       -0.951249        0.899768
LJ          -2.36114       -0.590992       0.0611468
LJ         -0.828782        0.996548       0.0901957
LJ          -1.54382         1.55039       -0.459277
LJ           2.48752         1.94053        0.647841
LJ          0.848552         1.61873         -2.3659
LJ        -0.0826579        0.700278       -0.871739
LJ           1.71435        0.725173         1.97672
LJ          0.885868        0.824043        -1.73358
LJ           -1.6272        -1.72453       -0.318535
LJ           1.94243         1.03072        0.939612
LJ          0.769022        -2.50177        -2.13941
LJ          -1.43911         1.57691        0.831589
LJ          -1.76597       -0.661927        -1.94834
LJ           1.76612        -1.83523        -2.03171
LJ          -2.27144        -2.25312        -2.43072
LJ          -2.38253         1.59518         -2.4718
LJ            1.5086         2.56122         2.21417
LJ          0.852134         2.35421        -0.32222
LJ           1.78167         2.22471        -1.99562
LJ         -0.526133          -2.406         -1.7759
LJ          0.317337        -2.10976        -1.16087
LJ          -1.57029        -1.19693         2.08547
LJ          0.946804       -0.938823       -0.650516
LJ          -0.14227         2.22849         -2.5178
LJ          -2.28948          2.4678       -0.335195
LJ          0.531748        -1.65557         1.05202
LJ          0.984979         1.67649         1.59381
LJ         -0.540991         2.53863         1.52863
LJ          -2.15405       -0.417293         2.02087
LJ           1.12647        0.519717        -0.47194
LJ           2.11342        -1.25288          1.9655
LJ          -2.45798      -0.0960123        0.972702
LJ           2.05865        0.923397        -1.84012
LJ          0.395411         1.81066        0.753512
LJ           1.07187         0.60128         1.08281
LJ           2.09835         1.71407         1.86206
LJ           2.04136        -0.21856         1.72849
LJ          -0.23383       -0.165511       -0.243281
LJ          -1.15887         0.26325       -0.948905
LJ           0.53991        -2.40133         1.89199
LJ           1.80992         2.46472      -0.0504994
LJ         0.0752862        -2.28547        0.430253
LJ          0.328124         1.95255        -1.36216
LJ          -1.56859        0.102074        0.595456
LJ         -0.762882       -0.541131        -1.75182
LJ           1.85179       -0.856438        -1.64144
LJ           1.39075         2.27514         0.90037
LJ          0.607138        0.626091         2.31089
LJ           1.76454        -1.89247          1.2334
LJ          -2.41758        0.858748          1.6363
LJ          0.137368         1.51194       -0.273936
LJ         -0.754461         -1.3897        -1.02241
LJ         -0.750361        0.844813         1.29885
LJ          -2.42368        -1.33389        -2.18193
LJ           1.76885       -0.928598       -0.154111
LJ           1.43514         1.79076        -1.13944
