108
#Comment!
LJ           1.87515       -0.796142       -0.859424
LJ          -2.12233        -0.48497        -1.19908
LJ          0.125382         2.21531         2.26713
LJ         -0.594984        -2.25132          2.4209
LJ          -0.99862         1.08127        -1.27507
LJ           2.13828         0.26508        -1.65969
LJ          -1.73929        -1.41818        -2.49867
LJ           2.24519        0.684301        0.506265
LJ           1.79963         1.27022         -2.3872
LJ           1.61355         2.44181        0.131094
LJ          -1.05938        -2.50967        0.635102
LJ         -0.717931        -1.16567         2.25989
LJ           2.54348        -2.18042        -1.78514
LJ          0.261986        0.250049        0.711862
LJ          0.689068          1.9973       -0.305247
LJ           2.28174         2.28623         2.21007
LJ           1.54867        -1.54299        -1.53747
LJ         0.0927342        -1.19018        0.305259
LJ         -0.506731          2.0567        -1.03778
LJ           -1.5555         1.82463          1.3539
LJ          -0.89441        0.415798        0.978071
LJ         -0.214994         1.43437         1.63026
LJ          0.915634       -0.053344        -1.43633
LJ           1.06169         -2.1613       -0.843551
LJ          -2.41486          -1.172        -1.82704
LJ          0.461243         1.88074        0.713837
LJ          -2.16165         2.30384        0.435109
LJ           1.25599        -2.01979         1.96546
LJ           1.87434          -2.497         1.23518
LJ           2.45054         1.55215      -0.0967557
LJ          -2.17384        0.819038         1.52084
LJ           1.73262        0.753712         1.60197
LJ           2.45998         1.72044         1.34675
LJ         -0.806673        -2.21844        -1.34789
LJ          0.234594       -0.718006       -0.709149
LJ          0.764579         1.06706         1.63603
LJ          -1.70037        -2.47618         2.53811
LJ         -0.455933         1.81883        -2.00271
LJ             0.892       -0.134148       0.0176909
LJ           2.50994         1.71079        -1.57816
LJ          -1.75333        0.358787        -1.50533
LJ         0.0553915        0.615706        -1.66242
LJ           1.46101          1.2631       -0.470694
LJ         -0.695574       -0.130646        -2.47017
LJ           2.42836       -0.334884         1.06082
LJ         -0.674154        0.023581        -1.20119
LJ           2.14671        -1.68666         2.44332
LJ           1.50331         2.34816        -2.00298
LJ          0.781457        0.534716       -0.676374
LJ         -0.290484       -0.733252         1.27789
LJ         -0.470485        -1.22876        -1.33039
LJ         -0.367873         1.05309         2.50852
LJ            1.1126        -1.95767        0.836172
LJ         -0.622358       -0.263902       -0.176662
LJ           2.52784        0.493924       -0.725894
LJ           1.26741         1.95537         1.97607
LJ           1.68091         1.54585        0.773474
LJ          -2.34759       -0.870886       -0.281483
LJ          -1.23337       -0.829355       -0.709863
LJ           1.48316       -0.719424          -2.249
LJ           1.29263        0.404543        -2.47733
LJ          -1.21854        0.773183         2.11011
LJ            1.1779        0.897472         -1.5437
LJ          -1.13231         1.79616         2.28917
LJ          -2.20298        -2.36682         1.32523
LJ          -1.92416         1.29139       -0.889234
LJ          0.430622       -0.305062        -2.23139
LJ           1.94704        -1.86025       -0.428608
LJ          0.782568         1.84399        -1.32378
LJ           0.74727         1.32735        -2.42735
LJ          -1.13489         1.47955       -0.323684
LJ          -1.57118       -0.585893        0.640906
LJ          -2.25926        -2.50973       -0.620261
LJ         0.0363499         1.21707       -0.671848
LJ           2.07308        -1.49024        0.571499
LJ          0.508644        -1.25719        -1.76032
LJ          0.205223        -1.74806           1.452
LJ          -2.25412        -1.24907         1.44371
LJ          -2.08421      -0.0577268        -2.43211
LJ          0.372348        -2.23433        0.203803
LJ           2.46986       -0.702323         2.24492
LJ          -1.82334        0.387457        0.529431
LJ          -1.80276        -1.56262        -1.18858
LJ         -0.225522          1.0739        0.661574
LJ         0.0597877        -1.94613       -0.720726
LJ            0.5857        -2.19973        -2.12531
LJ         -0.438588         2.41001         1.43632
LJ          0.805117       -0.672453        0.915595
LJ           1.83174       -0.617481        0.132373
LJ           1.75287         2.24688       -0.928161
LJ          -1.45271       -0.197367         1.71936
LJ          -1.40022        0.457339       -0.468532
LJ          -1.36484        -1.77725         1.60217
LJ           1.01036        -1.25077       -0.277606
LJ          -1.61983         2.28277         -1.5206
LJ           1.32114        0.173292        0.967886
LJ         -0.384479         2.09459       0.0174633
LJ          0.615906        -1.10216         2.29439
LJ         0.0660663        0.262841         1.79588
LJ          -1.32872       -0.671292        -1.87334
LJ          0.880304        0.993931        0.395196
LJ          -1.97416        -1.66672        0.623784
LJ          -1.75605         1.49692        0.469107
LJ          -1.11889        -2.55601       -0.346404
LJ          -2.22575         1.40946         2.34813
LJ         -0.942816        -1.54085        0.128523
LJ          -1.56721         1.15395        -2.13721
LJ           1.45002        -0.47863         1.78467
