108
#Comment!
LJ          -2.55011        -2.27559         2.35076
LJ           -1.6759        -1.64092         2.50081
LJ          -2.25463        -1.57855        -1.68358
LJ          -1.72935        -2.52266        -1.67011
LJ         -0.719983         2.35949         2.51911
LJ       -0.00204525        -1.82764        -2.50136
LJ          -1.16648        -1.55396        -1.72703
LJ        -0.0970147          2.2565         -1.8556
LJ          0.858828        -2.53907        -2.56002
LJ           1.71903        -1.65694         2.48575
LJ          0.865848        -1.89704        -1.63945
LJ           1.97718         2.42767        -1.82829
LJ           2.53593       -0.901365         2.33135
LJ          -1.81418        0.113394        -2.55743
LJ           2.42134       0.0758321        -1.81509
LJ          -1.83212       -0.562598        -1.69038
LJ          -1.13493       -0.794103        -2.39946
LJ        -0.0125853       -0.267218        -2.41467
LJ          -1.00761      0.00292999        -1.72646
LJ        -0.0152079        -1.06083        -1.71969
LJ          0.877227        -1.00703        -2.51048
LJ           1.61852      -0.0165526         2.56189
LJ          0.929736        0.164258        -1.75258
LJ           1.60737       -0.697123        -1.67352
LJ          -2.48025         0.94695        -2.52824
LJ          -1.66193         1.96785         2.36212
LJ          -2.55916         1.64944        -1.60976
LJ          -1.71404        0.856803        -1.80678
LJ         -0.533373        0.909926        -2.52195
LJ          0.131265         1.57648         2.39561
LJ          -1.17803         1.64826        -1.81674
LJ           0.16939           1.169        -1.80818
LJ          0.937909        0.893951         2.55644
LJ           1.77749          1.7206          2.4931
LJ           1.02229         1.84878        -1.91048
LJ           1.72774         1.09604        -1.65697
LJ           2.49514          2.3634       -0.693407
LJ          -1.45128        -1.79526       -0.789852
LJ          -2.31584        -1.76192      -0.0892944
LJ          -1.75737         2.45656        0.105964
LJ         -0.646573        -2.50408        -1.05365
LJ          0.064367        -1.55211        -0.80954
LJ         -0.812168        -2.07479      -0.0937855
LJ         -0.156184         2.30371       0.0581665
LJ           0.88324        -2.52938       -0.825958
LJ           2.00724         -1.7273       -0.977974
LJ          0.765237        -1.84815        0.368936
LJ           1.73863         2.52043      -0.0822174
LJ          -2.34863       -0.932711       -0.764852
LJ          -1.91275      0.00961367       -0.787881
LJ          -2.48063        0.130774       0.0878173
LJ          -1.59034       -0.618155       0.0941788
LJ         -0.754896       -0.859167       -0.758931
LJ         -0.117701       0.0443955        -1.06352
LJ         -0.742712     -0.00695102      -0.0950283
LJ         0.0187697       -0.653548       0.0377132
LJ           1.07285        -1.24895        -0.79691
LJ           1.93185       -0.116558       -0.571324
LJ          0.886943       0.0507394        0.122968
LJ           2.00132         -1.0819      -0.0259281
LJ           2.47891        0.951223       -0.834274
LJ           -1.6381         1.74803       -0.899352
LJ           2.36027         1.65595      -0.0938706
LJ          -1.85628         0.98063        0.224862
LJ           -1.0615        0.683331       -0.852138
LJ         0.0546715         1.69647        -0.91129
LJ          -0.84531         1.54707        -0.31207
LJ        -0.0842116        0.879517       -0.203305
LJ           1.12404        0.838197        -0.79347
LJ           1.66565          1.7189       -0.728767
LJ          0.734169         1.86945       -0.207399
LJ           1.75068        0.809532      -0.0598027
LJ           2.41872         2.40057        0.736112
LJ          -1.29618        -1.84582        0.758474
LJ           2.53805        -1.39442         1.52836
LJ           -1.8897        -2.36578         1.47779
LJ         -0.801717         2.50554        0.897814
LJ         0.0379124        -1.51966        0.950532
LJ         -0.865833        -1.81068         1.89456
LJ         0.0920297        -2.40282         1.78178
LJ          0.698463         2.41818         1.04338
LJ           1.69596        -1.66827        0.920919
LJ          0.951293        -1.75883         1.65483
LJ           1.76818         -2.5296         1.62131
LJ          -2.49958       -0.713955        0.694943
LJ          -1.52871      -0.0232123        0.808714
LJ           2.42947      0.00160541         1.68909
LJ          -1.76819       -0.713223         1.66011
LJ         -0.883103       -0.996811         1.08191
LJ          0.211149       -0.251559        0.977459
LJ         -0.987953        0.131115         1.89192
LJ          0.239315       -0.951501         1.77819
LJ           0.95052       -0.885313        0.726947
LJ            1.7827       -0.151567        0.703601
LJ          0.616058       0.0864225         2.00128
LJ           1.53022       -0.825406          1.7213
LJ           2.24448        0.891079        0.850054
LJ          -1.60899         1.87871         1.01922
LJ           2.41405          1.7471          1.5486
LJ          -1.83588        0.825081         1.43936
LJ         -0.734274        0.803558        0.591967
LJ          0.326505         1.51693        0.816607
LJ         -0.973971         1.43933         1.60807
LJ         0.0157878        0.884125         1.56289
LJ           1.13564        0.689899         1.01336
LJ           1.49159         1.67893        0.608675
LJ          0.993021         1.55367         1.68432
LJ           1.73838        0.919752         1.90609
