108
#Comment!
LJ           2.56068         2.51641        -2.55244
LJ          -1.71638        -1.81953        -2.56496
LJ           2.53149        -1.82771        -1.77133
LJ          -1.80218         2.51803        -1.68738
LJ         -0.940549          2.4677         2.50159
LJ        -0.0546447        -1.74508        -2.50742
LJ         -0.723744        -1.66977        -1.69159
LJ        -0.0269065        -2.50636        -1.57104
LJ          0.935967          2.5534         2.46121
LJ           1.72216        -1.83222        -2.50205
LJ          0.885522        -1.67556        -1.66213
LJ           1.76173         2.53889        -1.70791
LJ           2.45651       -0.868331          2.5579
LJ          -1.62922       0.0396349         2.48816
LJ           2.52578      0.00165996        -1.71825
LJ           -1.5959       -0.900353        -1.69324
LJ         -0.916355       -0.853309         2.55619
LJ         0.0835868      -0.0520697        -2.50105
LJ          -0.82849        0.163088        -1.62894
LJ        -0.0329583       -0.925781        -1.70666
LJ          0.807781        -0.96591        -2.52313
LJ           1.75415       0.0758894         2.53213
LJ          0.751214       0.0336697        -1.71142
LJ           1.66064       -0.918542        -1.60528
LJ           2.53808        0.809803         2.52551
LJ          -1.76724          1.7241        -2.54306
LJ          -2.45983         1.56749        -1.75418
LJ          -1.74618        0.821244        -1.70844
LJ         -0.766746        0.922768         2.39999
LJ         0.0726553         1.65329          2.4685
LJ         -0.820625         1.68572        -1.71867
LJ        -0.0209022        0.871369        -1.82712
LJ          0.862379        0.942423         -2.5416
LJ            1.7131         1.74079         2.56476
LJ           1.00097         1.72219        -1.77734
LJ           1.63832        0.763538        -1.65411
LJ          -2.50845         2.54573       -0.836017
LJ          -1.60431        -1.69873       -0.816405
LJ          -2.54793        -1.78324       0.0072878
LJ          -1.67177         2.52922      -0.0288482
LJ         -0.793229         2.52049       -0.790768
LJ       -0.00509646        -1.60032       -0.838668
LJ         -0.884351        -1.72875       0.0169521
LJ         -0.116495         2.45247      -0.0582102
LJ          0.893388         2.53404       -0.755096
LJ           1.61739         -1.7331       -0.796973
LJ          0.784794        -1.87836       0.0883981
LJ           1.70019        -2.48348       0.0169508
LJ           2.56456       -0.881746       -0.790728
LJ          -1.81696        0.106019       -0.997178
LJ           2.54182       0.0112298       -0.075352
LJ          -1.75378       -0.922675       0.0257919
LJ         -0.788937        -0.79213       -0.822427
LJ         0.0232897       -0.190051       -0.890145
LJ         -0.915988      -0.0853028       0.0773233
LJ        0.00971638       -0.706747       0.0996561
LJ          0.928408       -0.792571       -0.891531
LJ           1.72388      0.00420306       -0.888652
LJ          0.868502       0.0196303       -0.118808
LJ           1.65429       -0.925444        -0.11158
LJ           -2.5225        0.931349        -0.80931
LJ          -1.74153          1.6846       -0.925865
LJ           2.51797         1.67875       0.0281386
LJ           -1.7141        0.940431          0.1345
LJ         -0.754878        0.837226        -0.70243
LJ         -0.148799         1.69936       -0.967558
LJ         -0.972024         1.73146      -0.0946707
LJ        -0.0365777        0.856435         0.15475
LJ          0.782335        0.949788       -0.837815
LJ           1.78929         1.78049       -0.806029
LJ          0.717067         1.72318       -0.119529
LJ           1.70704        0.789306       0.0587979
LJ           -2.5183         -2.5357        0.811471
LJ           -1.6422        -1.75198        0.926742
LJ           2.47442        -1.70721         1.69694
LJ          -1.80403        -2.56437         1.61852
LJ         -0.916267         2.52542        0.753964
LJ         0.0489818        -1.73637        0.869668
LJ         -0.846645        -1.71667         1.80459
LJ          0.098467        -2.53379         1.77049
LJ           0.87828         2.42453        0.870964
LJ           1.74442        -1.88654        0.863802
LJ          0.949763        -1.81177         1.53694
LJ           1.78187          -2.532         1.73973
LJ           2.50691       -0.769861        0.893532
LJ          -1.75418      0.00527624        0.861007
LJ          -2.54058      -0.0815199         1.84201
LJ          -1.75596       -0.831961         1.84612
LJ          -0.86111       -0.819617        0.770735
LJ          0.117616      -0.0233761        0.905123
LJ         -0.743652      -0.0201647         1.68425
LJ         0.0223301       -0.928934         1.66312
LJ          0.801034       -0.882453        0.826382
LJ            1.6457       -0.120399        0.851998
LJ          0.829371      -0.0260609         1.69665
LJ           1.80689       -0.792349         1.69405
LJ           2.53114        0.848271         0.83436
LJ           -1.6833         1.64542        0.861807
LJ          -2.51692         1.65708         1.83179
LJ          -1.63437        0.773202         1.74954
LJ          -0.81615        0.818007        0.845059
LJ         0.0392497         1.57426        0.898201
LJ         -0.805377         1.73288         1.64798
LJ        -0.0285114        0.735939         1.62429
LJ          0.827774        0.755077        0.694404
LJ           1.57224         1.61844        0.826137
LJ          0.890002         1.55713         1.72631
LJ           1.71831        0.929329         1.64265
