108
#Comment!
LJ          -2.45575        -2.31784         2.40166
LJ          -1.70017        -1.60361         2.39018
LJ          -2.25626        -1.55287        -1.67873
LJ          -1.63482        -2.40476        -1.76879
LJ         -0.773976         2.41707         2.47487
LJ         -0.142159        -1.79645        -2.55128
LJ           -1.1043        -1.53535        -1.75921
LJ          0.114802         2.37781        -1.89422
LJ          0.933194        -2.53356         2.45466
LJ           1.73525        -1.57961         2.37283
LJ          0.970786         -1.8869        -1.72146
LJ           2.00993         2.40745        -1.85717
LJ          -2.48453       -0.838201         2.45551
LJ          -1.74787      -0.0257443         2.44365
LJ          -2.50783       0.0713521        -1.76373
LJ          -1.71443       -0.625201        -1.62056
LJ          -1.12003       -0.837087        -2.49372
LJ       -0.00332184       -0.183025         -2.3884
LJ         -0.985985       0.0536843        -1.83336
LJ         0.0655543         -1.0812        -1.70381
LJ          0.915098       -0.930919        -2.54615
LJ            1.6423       0.0148013        -2.49768
LJ          0.911206         0.13707        -1.72794
LJ           1.64155       -0.675906        -1.70125
LJ          -2.47008          1.0304        -2.49264
LJ          -1.68556          1.9428         2.39763
LJ          -2.52441         1.56512        -1.54583
LJ          -1.73522        0.739657        -1.87447
LJ          -0.43943        0.752132         2.44719
LJ          0.174841         1.60916         2.35022
LJ          -1.31614         1.62776        -1.81544
LJ         0.0505811         1.13963        -1.82011
LJ          0.992603        0.921977         2.49639
LJ           1.89377         1.72963        -2.54421
LJ          0.981034         1.79191        -1.91224
LJ           1.62597        0.938027        -1.71175
LJ           2.55298         2.36217       -0.855044
LJ          -1.40129        -1.73649       -0.844591
LJ          -2.26474        -1.77597      -0.0852656
LJ          -1.64744         2.52354        0.117404
LJ          -0.48837          -2.468        -1.05182
LJ         0.0547735         -1.6995       -0.790948
LJ          -0.74449        -1.97693      -0.0340948
LJ        -0.0602204         2.32131       0.0441478
LJ          0.815627        -2.54844       -0.864847
LJ           1.96727        -1.74734       -0.908119
LJ          0.800523        -1.79838        0.356878
LJ            1.7435        -2.54197      -0.0258643
LJ          -2.33068       -0.931522       -0.815818
LJ          -1.91135       0.0315286         -0.8758
LJ          -2.47982       0.0378781        0.126774
LJ          -1.66567       -0.696913       0.0296643
LJ         -0.709351       -0.837553       -0.839235
LJ         -0.181709        -0.02359        -1.10969
LJ         -0.719867       0.0207224       0.0118966
LJ         0.0128649        -0.79853       0.0475149
LJ          0.992573        -1.20989       -0.917388
LJ           1.89353       -0.135024       -0.658347
LJ          0.979551        0.114819        0.130958
LJ           1.94652       -0.941889      -0.0412998
LJ           2.40857        0.925136       -0.835914
LJ           -1.5927         1.71478       -0.843014
LJ           2.31043         1.59014       0.0329692
LJ          -1.84372         1.02386        0.376884
LJ           -1.0565        0.736145       -0.984306
LJ          0.112998         1.70095       -0.883442
LJ         -0.854834         1.55103       -0.203804
LJ        -0.0729567        0.820397       -0.222374
LJ           1.00919        0.782208       -0.836341
LJ           1.66678         1.65454       -0.782798
LJ          0.890645          1.7027        -0.16641
LJ           1.68689        0.856423      -0.0530298
LJ           2.52001         2.41753        0.655038
LJ          -1.29149        -1.78954        0.791341
LJ          -2.54016        -1.47622         1.54022
LJ          -1.94818        -2.29186         1.50618
LJ         -0.701888         2.39761        0.957248
LJ        -0.0539897        -1.56199        0.889173
LJ         -0.857439        -1.74838         1.97483
LJ         0.0438978        -2.31676         1.69593
LJ          0.831589         2.45237         1.07622
LJ            1.6753        -1.52442        0.896233
LJ          0.891665        -1.66928         1.72498
LJ           1.82377        -2.46394         1.61903
LJ          -2.49789       -0.866898        0.713493
LJ          -1.50289      -0.0183005        0.823929
LJ           2.51811      -0.0722618         1.72206
LJ          -1.74868       -0.714371         1.66829
LJ          -0.86489       -0.879593         1.09905
LJ          0.192217       -0.101942         1.05281
LJ         -0.905716       0.0698065         1.77517
LJ          0.232849       -0.808479         1.76686
LJ           0.87558       -0.838459        0.751275
LJ           1.73655       -0.250714        0.723162
LJ          0.725744       0.0523985         1.87229
LJ           1.56609       -0.859002         1.64089
LJ           2.23935        0.850504         0.91995
LJ          -1.67749         1.84432        0.977405
LJ           2.39062         1.79424         1.65369
LJ          -1.91252        0.825611          1.5019
LJ         -0.791847        0.848822        0.603206
LJ          0.394042         1.52501         0.77152
LJ         -0.924403         1.40823         1.60993
LJ         0.0800197        0.931539         1.52369
LJ            1.1233        0.661301         1.07609
LJ           1.49768         1.64974        0.699001
LJ           1.14096         1.67078         1.70519
LJ           1.78827          1.0077         1.85445
