108
#Comment!
LJ           2.49154        -2.54176         -2.5494
LJ          -1.70087        -1.89264         2.52362
LJ          -2.48123         -1.6842        -1.74245
LJ          -1.84273         2.55527        -1.72733
LJ         -0.886435         2.36104         2.48026
LJ         -0.201489        -1.83805        -2.54937
LJ         -0.857682        -1.62917        -1.57328
LJ       -0.00787712         -2.5574        -1.69112
LJ          0.886201         2.52317        -2.56405
LJ            1.6292        -1.81961        -2.53908
LJ          0.856106        -1.52631        -1.62507
LJ           1.87848         -2.4588        -1.72651
LJ           2.42793       -0.881328         2.54157
LJ          -1.56129       0.0518965         2.54919
LJ           2.53703        0.103661        -1.81903
LJ          -1.80799       -0.884814        -1.71043
LJ          -1.10566       -0.850529         2.55684
LJ         0.0271461       -0.146172         2.49563
LJ         -0.857865       0.0897239        -1.71987
LJ         0.0722381       -0.862232        -1.74592
LJ          0.905133       -0.955527        -2.54431
LJ           1.79981        0.144593        -2.53784
LJ          0.762567        0.210622        -1.66766
LJ           1.66019       -0.821091        -1.65611
LJ          -2.52806        0.823259         -2.5628
LJ          -1.75604         1.76409         2.53975
LJ           -2.5151         1.56906        -1.78024
LJ          -1.78999        0.933916        -1.63159
LJ         -0.707857        0.969404         2.27284
LJ          0.218231          1.7542         2.43567
LJ         -0.902063         1.62765        -1.61089
LJ         -0.129979        0.888832        -1.89153
LJ          0.793577        0.935224        -2.37903
LJ            1.7668         1.74402        -2.48347
LJ           1.00982         1.80372        -1.63082
LJ           1.72771        0.852275        -1.72764
LJ          -2.48932        -2.42739       -0.777126
LJ          -1.49067        -1.65607       -0.753198
LJ           2.48978        -1.75756     -0.00321674
LJ          -1.59594         2.53961      0.00871686
LJ         -0.780139        -2.54711       -0.832793
LJ        -0.0672892        -1.75537       -0.896228
LJ         -0.890194        -1.71642        0.153411
LJ         -0.115406         2.42762      -0.0344213
LJ          0.826997         2.55783       -0.894985
LJ            1.5729        -1.82773       -0.808337
LJ          0.714986        -1.76807        0.165823
LJ            1.6257        -2.52928      -0.0607996
LJ          -2.47482       -0.915107       -0.808125
LJ          -1.96696        0.191548       -0.793848
LJ           2.41889      -0.0129272      -0.0488861
LJ          -1.71147       -0.866806      -0.0729361
LJ         -0.902368       -0.757923       -0.856588
LJ          0.015006      -0.0116003       -0.794642
LJ         -0.865966      0.00138861      -0.0292213
LJ        -0.0719761       -0.694958      -0.0118621
LJ          0.941608        -0.84603       -0.750604
LJ           1.68974       -0.194366       -0.823305
LJ          0.890708       -0.050898       -0.107293
LJ           1.73539        -1.04045      -0.0971235
LJ          -2.47813         1.05683       -0.862842
LJ          -1.73058         1.76656        -0.99091
LJ          -2.54223         1.78046        0.088835
LJ          -1.75318        0.925833        0.128363
LJ         -0.876294        0.763947       -0.741826
LJ         -0.118737         1.70891         -1.0069
LJ         -0.896733         1.73901       -0.136858
LJ         -0.120751        0.990349      -0.0101391
LJ          0.670981        0.917529       -0.820148
LJ            1.7038         1.85628       -0.908944
LJ          0.701903         1.76893      -0.0960058
LJ           1.67274        0.784814       0.0827923
LJ            2.5271         2.55063        0.960116
LJ          -1.61883        -1.74048        0.931244
LJ           2.34386        -1.67417         1.72289
LJ          -1.87581           2.515         1.64017
LJ         -0.842682         2.43449        0.780214
LJ         0.0298751         -1.6935        0.892662
LJ         -0.856763        -1.72518         1.66685
LJ         0.0690338         -2.4364         1.90489
LJ           1.07397         2.50177        0.999757
LJ           1.71614        -1.78803        0.845298
LJ          0.928626        -1.54564         1.68016
LJ           1.69193         2.56121         1.79442
LJ            2.4309        -0.59975        0.932203
LJ          -1.80054       0.0225048        0.855622
LJ          -2.46849      -0.0526374         1.99972
LJ          -1.75499       -0.882844           1.711
LJ         -0.683882       -0.885237        0.808272
LJ         0.0460783      -0.0568037        0.833629
LJ         -0.648531       0.0587852         1.75061
LJ        -0.0273461       -0.854252         1.62531
LJ          0.750658       -0.973074        0.774031
LJ           1.64016      -0.0260409        0.748887
LJ          0.874164       -0.140145         1.76142
LJ           1.69193        -0.86076         1.72503
LJ           2.45634        0.953476        0.857666
LJ          -1.77138         1.70812        0.813516
LJ          -2.51162         1.70927         1.76933
LJ          -1.76265        0.788828         1.69807
LJ          -0.88008        0.647078        0.835417
LJ        -0.0499864         1.63498        0.873965
LJ         -0.805941         1.74471         1.65013
LJ         0.0208038        0.755585          1.5566
LJ          0.857267        0.787897        0.784826
LJ           1.77886         1.78311        0.809683
LJ           0.82561         1.62371         1.64789
LJ           1.65094         1.04718         1.60516
