108
#Comment!
LJ          -2.43478        -2.42303         2.52925
LJ          -1.76953        -1.46547         2.50236
LJ          -2.26018         -1.5363        -1.77659
LJ          -1.62499        -2.37471        -1.84981
LJ         -0.827811         2.26295        -2.40337
LJ         -0.115696        -1.56269         2.40519
LJ         -0.900337        -1.52602        -1.95677
LJ         0.0306378         2.50802        -1.92192
LJ           1.02894        -2.37789        -2.43331
LJ           1.69265        -1.60679         2.43648
LJ           1.20312        -1.68685        -1.65055
LJ           1.90162         2.47092        -1.54354
LJ           2.39139       -0.619635        -2.54298
LJ          -1.84628      -0.0343671          2.2973
LJ          -2.47611      -0.0723253        -1.74296
LJ          -1.50872       -0.638694        -1.70763
LJ          -0.93697       -0.699092        -2.52892
LJ         0.0423291       -0.187104        -2.48267
LJ         -0.822881       0.0899622        -1.72637
LJ          0.161448       -0.926632        -1.62893
LJ          0.767847       -0.922847        -2.50417
LJ           1.62287      -0.0143713        -2.42756
LJ          0.763823        0.142752        -1.68674
LJ           1.60659       -0.603834        -1.54045
LJ          -2.51689         0.87265        -2.39346
LJ          -1.78203         1.96207          2.4188
LJ          -2.47603         1.68659         -1.5531
LJ          -1.59791        0.756281        -2.05924
LJ         -0.521611        0.720729         2.52777
LJ          0.105414         1.75598         2.33272
LJ           -1.3064         1.78745        -1.69906
LJ         0.0278048         1.01404        -1.70174
LJ           1.09965         1.00588        -2.45209
LJ           1.71151         1.87525         2.48576
LJ          0.969975         1.90196         -1.9049
LJ           1.80514        0.853173         -1.7921
LJ           2.56355         -2.5567       -0.744324
LJ          -1.46004        -1.69328       -0.900831
LJ          -2.29613        -1.62889        -0.13087
LJ          -1.65543         2.39202         0.10399
LJ         -0.666112        -2.44879        -1.01209
LJ         0.0240806        -1.76629       -0.656379
LJ         -0.747084        -1.75213      -0.0216495
LJ         0.0512554         2.35684        0.134638
LJ          0.782582         2.46806       -0.893014
LJ           1.93749        -1.61082       -0.922819
LJ          0.804275        -1.87502        0.186084
LJ           1.69853        -2.46255       0.0353647
LJ           -2.3621       -0.812581       -0.898367
LJ          -1.80478        0.105565       -0.937415
LJ          -2.38146      0.00454685     -0.00281099
LJ          -1.61626       -0.678904      -0.0378205
LJ         -0.771339       -0.770242       -0.701704
LJ        -0.0585484        0.105648        -0.98979
LJ         -0.624508      -0.0349362       0.0883997
LJ        -0.0357422        -0.86286        0.140178
LJ           1.00265        -1.09202       -0.786086
LJ           1.82999       -0.218628       -0.583651
LJ          0.778643       0.0488573        0.164213
LJ            1.9732         -1.0425       0.0308108
LJ           2.42197        0.783259       -0.767688
LJ          -1.84374         1.67979       -0.735438
LJ           2.55745         1.66931      -0.0684336
LJ           -1.8389        0.938771        0.111297
LJ          -1.05607        0.839625       -0.951011
LJ         0.0857159         1.74849       -0.822135
LJ         -0.786979         1.65863       -0.134429
LJ          0.058356        0.874772        -0.14235
LJ          0.902188        0.920998       -0.907276
LJ           1.60143         1.73219       -0.854092
LJ          0.886773         1.71596      -0.0826113
LJ            1.5902        0.803573        0.103975
LJ            2.5006         2.47993        0.694513
LJ          -1.47542        -1.84871        0.779045
LJ          -2.56388        -1.43702          1.5582
LJ          -1.95777        -2.39934         1.66045
LJ         -0.891695         2.40935         1.01095
LJ         0.0271421        -1.46892         1.08899
LJ          -1.01647        -1.65021         1.79469
LJ         0.0131641        -2.30709         1.74175
LJ          0.714087         2.39743        0.899775
LJ           1.68123        -1.52361         1.07685
LJ          0.821262         -1.7102          1.8243
LJ           1.74891        -2.54389         1.44668
LJ          -2.37517       -0.779614        0.721715
LJ          -1.63509       0.0737856        0.808215
LJ             2.396      -0.0176341         1.63942
LJ          -1.68246       -0.894867         1.59231
LJ         -0.842908       -0.838054         1.02043
LJ          0.131397       -0.153591        0.864488
LJ         -0.918035       0.0547475         1.86735
LJ          0.214324       -0.757585         1.77853
LJ          0.984074       -0.903108        0.574125
LJ           1.76365       -0.352411        0.797208
LJ          0.850344       0.0760634          1.7405
LJ           1.51809       -0.797894         1.77374
LJ           2.39071        0.981536         1.05155
LJ          -1.85911         1.65647        0.970649
LJ           2.46235         1.89275          1.5395
LJ          -1.73831        0.851063         1.70796
LJ          -0.84039        0.927138        0.805884
LJ          0.353825         1.39666        0.787191
LJ         -0.697059         1.40221         1.73458
LJ         0.0673512        0.828915         1.66686
LJ           1.16273        0.631075         1.05896
LJ           1.56705         1.77149        0.689541
LJ          0.948131         1.71218         1.67882
LJ           1.81739         1.08195         1.93702
