108
#Comment!
LJ          -2.53086        -2.35542         2.55685
LJ          -1.82392        -1.50478         2.52442
LJ          -2.24684         -1.6141        -1.80364
LJ          -1.54094        -2.44515        -1.80073
LJ         -0.849006         2.38883        -2.48506
LJ         -0.102035        -1.59227         2.47181
LJ         -0.932086        -1.54628        -1.88885
LJ         0.0478272         2.43712        -1.88535
LJ           1.01307        -2.37033        -2.45911
LJ             1.725        -1.63146         2.38177
LJ           1.22982        -1.71784        -1.66927
LJ           1.93384         2.42528        -1.54693
LJ           2.42045       -0.634467          2.5447
LJ          -1.81511     -0.00515968         2.35451
LJ           -2.4098       -0.063474        -1.84329
LJ            -1.616       -0.601324        -1.64359
LJ          -1.01219       -0.745429        -2.49481
LJ        -0.0491488       -0.169699        -2.49609
LJ         -0.790894        0.144037        -1.74951
LJ         0.0870461       -0.920857        -1.61499
LJ          0.773962       -0.985696         2.56331
LJ           1.63973     -0.00655418        -2.37322
LJ          0.760652        0.146789        -1.70465
LJ           1.54657        -0.68287        -1.60503
LJ          -2.54461        0.928136        -2.46262
LJ          -1.73253          1.9675         2.42145
LJ          -2.47382         1.69341         -1.5144
LJ          -1.60235        0.721074        -2.04087
LJ         -0.493265        0.771336         2.54404
LJ          0.110888         1.72842          2.3347
LJ          -1.23301          1.7199        -1.67873
LJ        -0.0153702         1.04725        -1.71036
LJ           1.10331         1.03827        -2.47627
LJ           1.74105           1.886         2.48312
LJ          0.983262          1.8792        -1.85496
LJ           1.77577        0.825591        -1.75964
LJ           2.50505         2.56291       -0.667317
LJ          -1.46471        -1.73346       -0.916148
LJ          -2.30578         -1.6502        -0.21003
LJ           -1.6038         2.46674        0.156888
LJ          -0.62041        -2.48747        -1.05269
LJ         0.0170113        -1.79821       -0.742194
LJ         -0.714301        -1.76902      -0.0309449
LJ        -0.0391606           2.324        0.119187
LJ          0.698332         2.53382       -0.862689
LJ           1.92535        -1.51464       -0.896237
LJ          0.809357        -1.90157         0.16492
LJ             1.674        -2.53271      0.00683764
LJ          -2.38841       -0.819744       -0.844632
LJ          -1.81695       0.0966689       -0.968533
LJ          -2.31465       0.0876793       0.0109895
LJ          -1.66072       -0.769311      -0.0245502
LJ         -0.750005        -0.72198       -0.689605
LJ         -0.114275        0.156408         -1.0349
LJ         -0.673636      -0.0570173        0.089271
LJ        -0.0446818       -0.858064        0.139283
LJ          0.901066        -1.16391        -0.71774
LJ           1.82642       -0.209091       -0.567964
LJ          0.750181       0.0557342        0.116556
LJ           1.97473        -1.01171     -0.00193745
LJ           2.45087        0.825899       -0.793663
LJ          -1.78242         1.66062       -0.730166
LJ           2.48471         1.60421      -0.0141151
LJ          -1.87145         1.00645        0.178751
LJ          -1.10212        0.768699       -0.967042
LJ          0.183994         1.73078       -0.890389
LJ         -0.853642          1.7181      -0.0585847
LJ         0.0630373        0.833364       -0.179109
LJ          0.908427        0.919147         -0.9129
LJ           1.71458         1.73575       -0.876899
LJ          0.844662         1.74362      -0.0901482
LJ             1.636        0.845936        0.155421
LJ           2.51344         2.46781        0.632525
LJ          -1.51762        -1.78985         0.78673
LJ          -2.49639        -1.45154         1.57503
LJ           -2.0001        -2.38997         1.66969
LJ         -0.828343         2.45081         1.05007
LJ         0.0310704         -1.4735         1.05558
LJ          -1.04572        -1.71938         1.84949
LJ         0.0258306         -2.2446         1.70686
LJ          0.869203         2.37286        0.880941
LJ            1.6796        -1.57943         1.10739
LJ          0.813559        -1.67662          1.7999
LJ           1.78032        -2.49898         1.46845
LJ          -2.44042       -0.831772        0.725257
LJ          -1.61969       0.0881285        0.865424
LJ           2.40143      -0.0170028         1.64975
LJ          -1.67619         -0.9264         1.59586
LJ          -0.85957       -0.945997         1.04395
LJ          0.151342       -0.102161        0.928045
LJ         -0.973493       0.0633632           1.817
LJ          0.235632       -0.700179         1.74821
LJ          0.881531       -0.892274        0.664216
LJ           1.79539       -0.360135         0.84302
LJ          0.880487       0.0822221         1.77533
LJ           1.53827       -0.714796         1.75978
LJ           2.29395        0.995782         1.04173
LJ          -1.76315         1.71833         1.05729
LJ           2.52692         1.87905         1.61819
LJ          -1.87153         0.80518         1.64183
LJ         -0.886016         0.92515        0.770974
LJ          0.378412         1.35132         0.77696
LJ         -0.720469         1.34347          1.6527
LJ          0.113499        0.793671         1.60754
LJ           1.15309        0.637703         1.02802
LJ           1.53079         1.69669        0.699667
LJ           1.01674         1.63339         1.72966
LJ           1.80644          1.1348         1.91398
