108
#Comment!
LJ          0.943983        -1.61952         1.20572
LJ          -1.64211        -1.50475        -1.10454
LJ         0.0916411        -0.78759         -2.2453
LJ           2.02377         1.97142        -1.40354
LJ          0.269275      -0.0272995         1.94288
LJ           2.45669        0.842652        0.138362
LJ           1.59741        0.724148        -1.66081
LJ          -2.24466        -2.45964       -0.827774
LJ          -2.40795        -2.11939         2.12308
LJ          0.649307         2.33295       -0.218574
LJ           2.36304         1.28421         1.61378
LJ          -1.82807         1.92778         1.04087
LJ           1.33067         0.38849        0.304163
LJ         -0.933238        0.513645         2.09284
LJ          -1.29534         1.73107        -1.21645
LJ         -0.502826        -0.14997       -0.504696
LJ           0.42335       -0.210705        -1.27179
LJ          -1.68566      -0.0451633        -1.28984
LJ           2.28046         -1.7024         1.11539
LJ           1.36065         2.30404         2.43138
LJ           2.08898      -0.0988887         2.23189
LJ         -0.454387         1.73807          1.6414
LJ           2.36635          2.0228         2.37423
LJ           2.51519       -0.406037         0.25231
LJ           2.19511         2.29846         1.44022
LJ            1.2354       -0.241155        -2.15347
LJ          -2.14777        -1.54284         -2.0388
LJ          -0.55813        -1.87509        -1.52889
LJ          -1.21068        0.758021       -0.731693
LJ           0.18289        -2.38969       -0.987738
LJ         -0.259147         1.10275        -1.62942
LJ         -0.245099         0.59222         1.19234
LJ           -1.7097         0.94926         1.37802
LJ          -1.70218         2.42331        0.020583
LJ          -1.22072        -1.77339       0.0837301
LJ          0.136942         1.89606        0.558358
LJ           2.53311        -1.71302      0.00873836
LJ          -1.79443         -2.0324        0.956514
LJ              -0.6          1.2856        -2.51836
LJ          0.433002      -0.0335618       -0.131487
LJ          0.683936        0.727859        0.916348
LJ          -2.26736         1.50811       -0.691121
LJ         -0.591193       -0.548453        0.623102
LJ          -2.47295         1.77244        0.266255
LJ          -2.56096       -0.712756        -1.59949
LJ            1.5765         1.33425        -2.54312
LJ           1.68811         1.08279       -0.473269
LJ          -1.60972        -1.36568         1.85122
LJ           -1.8301       0.0862503       -0.224327
LJ           1.32394       -0.590433       -0.332381
LJ          -0.13801        -2.27151        0.146619
LJ         0.0363394         0.82908       -0.685175
LJ           1.04908        -1.00831        -1.46456
LJ          -2.35899       -0.860053         2.41651
LJ           1.03408         1.82174        -1.27401
LJ          0.188219        -2.46654         1.11748
LJ           1.53233       -0.589455         1.21223
LJ          -1.55407        -0.16585         1.40854
LJ           2.27562         0.22727       -0.912831
LJ          -2.54597        0.847671        -1.84092
LJ         -0.663557       -0.552119         1.87372
LJ            2.3124        -2.36022         -2.0044
LJ          -1.07577        -2.46889       -0.742939
LJ           1.35759        0.728214         1.76764
LJ           1.56172        -1.30213        0.407669
LJ          0.260413         2.52606          2.0924
LJ          -1.61468       -0.990573        0.659592
LJ           1.00586          1.8412         1.59014
LJ         -0.438326         1.08744        0.277718
LJ           1.10169        -1.76755       -0.621909
LJ          -1.54815         -2.4558        -2.07623
LJ          0.254523         -1.4911         1.90262
LJ         -0.535531        -2.39569        -2.53085
LJ         -0.789638         2.28923        0.719109
LJ           1.70691          2.0709       -0.254575
LJ          -1.09461        0.337676        0.501097
LJ           2.54376        -0.70649         1.31614
LJ          0.634323        0.612319        -2.30523
LJ         -0.497758       -0.768591         -1.4117
LJ         -0.547166          1.9523       -0.380972
LJ          0.254366        0.985646         1.95291
LJ          -2.17314        0.652597         2.35547
LJ          0.492237         1.56063        -2.08848
LJ           0.77514         1.21557     0.000549765
LJ           1.38318        -2.30202        -1.61838
LJ          -1.62532         1.88009         2.17362
LJ           1.63236         1.42722        0.683005
LJ          -1.34106       -0.691879        -0.45424
LJ          -1.04888        -2.38278          1.5978
LJ          -1.97909         1.78042         -2.0515
LJ           1.66878        -2.35498        0.597725
LJ         -0.381907        0.186264        -2.10352
LJ         -0.297786        -1.48541        -0.59469
LJ           2.24238        0.257545         1.14864
LJ         -0.388373         2.22218        -1.70282
LJ          0.303422        -2.02057        -2.04795
LJ           2.12844        -1.65622        -1.16151
LJ           1.72761        -1.86846         2.02496
LJ             1.041         0.35967       -0.822406
LJ          -1.43171         0.79938          -1.982
LJ          -1.03688        -1.30592        -2.28414
LJ         -0.484091        -1.62195          1.1056
LJ          0.241538       -0.801855         1.16312
LJ           1.72029         -1.1036          -2.244
LJ          0.489825        -1.51306        0.184376
LJ          -1.39649         1.47809       0.0916408
LJ          -1.42396       -0.288792        -2.45087
LJ           1.12918       -0.857033         2.13764
