108
#Comment!
LJ           2.52941        -2.52923           2.528
LJ           -1.7374        -1.72529         2.49777
LJ          -2.52124        -1.66689          -1.831
LJ          -1.79352         2.51125        -1.62558
LJ         -0.875049         2.52276        -2.43517
LJ          0.028315        -2.00561        -2.43652
LJ          -1.15697        -1.49275        -1.74731
LJ        -0.0431687         2.32289        -1.85103
LJ          0.768122         2.54686         2.43011
LJ           1.74697        -1.69988        -2.54041
LJ          0.792983        -1.96766        -1.78266
LJ           1.88286         2.50425        -1.69766
LJ           2.55168       -0.916704         2.55174
LJ          -1.81416       0.0417108          2.5274
LJ           2.47141        0.170729        -1.97158
LJ          -1.73148       -0.585664        -1.68701
LJ          -1.08317       -0.750824        -2.40771
LJ        -0.0579872       -0.255545        -2.41998
LJ         -0.843583       0.0343403        -1.82649
LJ         -0.179719        -1.20714        -1.88951
LJ          0.866917        -1.19375        -2.50512
LJ           1.70889       0.0255353         2.50959
LJ          0.870228       0.0650158        -1.80841
LJ           1.65507       -0.566098        -1.77485
LJ          -2.54823         0.91885         2.49121
LJ          -1.66915          1.9129         2.45583
LJ          -2.38803         1.62824        -1.64087
LJ          -1.64676        0.803793        -1.83907
LJ         -0.615414        0.919352         2.49749
LJ          0.102142         1.69465         2.37748
LJ          -1.09224         1.62591        -1.78772
LJ         0.0681767         1.07193        -1.73803
LJ          0.919289        0.801991         2.44397
LJ           1.81483         1.88882         2.43843
LJ          0.921068         1.97127        -1.73202
LJ           1.57173        0.936883        -1.63485
LJ           2.51815         2.45926       -0.788123
LJ          -1.44102        -1.71662       -0.770293
LJ           -2.4269         -1.9115       -0.132055
LJ          -1.64069         2.49594       -0.049104
LJ         -0.821216         2.54095        -1.10091
LJ         0.0981765        -1.68959       -0.802658
LJ         -0.641695        -1.90528    -0.000873853
LJ         -0.127898         2.33278       0.0119905
LJ          0.762765         -2.4454       -0.921658
LJ           1.85678        -1.79255        -1.01523
LJ          0.804031         -1.9984        0.232872
LJ           1.68755        -2.38691       -0.112896
LJ          -2.44708       -0.941862       -0.733879
LJ          -1.88237        0.116852       -0.808747
LJ          -2.48116        0.104348     -0.00796758
LJ          -1.79188       -0.905948       0.0901421
LJ         -0.543601        -0.78522       -0.681178
LJ         -0.134497        0.311917       -0.946449
LJ         -0.671399     0.000825392       0.0731808
LJ         -0.047179       -0.832869        0.273074
LJ          0.792359        -0.90291        -0.68713
LJ            1.9515       -0.135759       -0.709086
LJ          0.632497      -0.0147307      -0.0177485
LJ           1.76337        -1.18205       -0.168405
LJ          -2.56149        0.948708       -0.804897
LJ           -1.5843         1.80804       -0.782321
LJ           2.43456         1.68505      -0.0269424
LJ          -1.92852         1.06007        0.263535
LJ          -1.10374        0.769353       -0.840568
LJ           0.14031         1.77262       -0.860006
LJ         -0.722613         1.55425      -0.0692703
LJ          0.132794         0.90896      -0.0464174
LJ          0.816995        0.918218       -0.768357
LJ           1.69753         1.74324       -0.883889
LJ          0.781281         2.04352      -0.0518381
LJ           1.73038        0.841326       -0.093477
LJ           2.43311          2.3608        0.768135
LJ          -1.40565        -1.78143        0.670265
LJ           2.48629        -1.52968          1.7024
LJ          -2.07123        -2.32888         1.46886
LJ         -0.611218         2.43399         1.12405
LJ         0.0770243        -1.60749        0.933226
LJ         -0.999073        -1.81126         1.78847
LJ         0.0674888        -2.35044         1.76766
LJ           0.83912         2.40797        0.962106
LJ           2.00529        -1.62048        0.783646
LJ           1.01913        -1.75695         1.78331
LJ           1.66254         2.51631         1.65328
LJ           2.48743       -0.693866        0.987791
LJ          -1.75867       0.0963317        0.796145
LJ           2.50314      -0.0321081         1.74843
LJ          -1.86745       -0.765821         1.78474
LJ         -0.694246       -0.944138        0.993143
LJ        -0.0107294       -0.119349         1.09851
LJ         -0.881424        0.164933         1.90823
LJ          0.205724         -1.0254          1.8501
LJ           1.06111        -1.01397        0.703016
LJ           1.57115       -0.123153        0.696417
LJ          0.825266       0.0106046         1.91221
LJ           1.61231       -0.789927         1.87562
LJ           2.35025        0.873395        0.808038
LJ           -1.5909          1.8809        0.859893
LJ           2.46679         1.57357         1.55622
LJ          -1.78714        0.984745         1.59736
LJ         -0.946094        0.717632        0.880687
LJ           0.17359         1.44662        0.806966
LJ         -0.765096         1.48842         1.53089
LJ         0.0835313        0.756834         1.58831
LJ           1.09699        0.755716        0.917731
LJ           1.56481         1.71947        0.527411
LJ          0.834768         1.56815         1.63959
LJ           1.69631        0.857283         1.76852
