108
#Comment!
LJ           1.58914        -1.15838        -1.13527
LJ          -2.27012       -0.534464       -0.641369
LJ          0.201894         2.27098         2.26821
LJ         -0.701105        -2.10476         2.36069
LJ         -0.622679          1.3504        -1.64163
LJ           2.45132      -0.0371217        -1.69134
LJ          -1.21114        -1.44382        -2.11351
LJ            2.2912        0.573251        0.546626
LJ           1.97284          1.3316         2.27084
LJ            1.6704        -2.50984       -0.188951
LJ          -1.31942        -2.37961        0.506548
LJ         -0.588217       -0.958332         2.32236
LJ          -2.18359        -1.97336        -1.82343
LJ          0.350172       0.0925978         1.03446
LJ          0.542319         2.27184       -0.226215
LJ           2.42124         2.49201         2.44502
LJ           1.85089         -2.2501         -1.8451
LJ        -0.0200464       -0.915421        0.117026
LJ         -0.311307          2.3319        -1.05064
LJ           -1.2309         1.80898         1.00397
LJ         -0.735479       -0.260863         1.30844
LJ          -0.11476         1.46003         1.66362
LJ           1.38022       -0.148864        -1.34809
LJ          0.968833        -2.29266        -1.15444
LJ          -2.31253       -0.803748        -2.19916
LJ          0.497354         2.35171         1.09826
LJ          -2.42282        -2.51896       0.0567104
LJ           1.12791        -2.08264         1.92154
LJ           1.87135        -2.48216          1.2882
LJ           2.40129         1.64906       -0.122788
LJ          -2.11588        0.694571         1.57541
LJ            1.9896        0.495214         1.57923
LJ           2.49898         1.60319        0.940377
LJ         -0.332861        -1.96004        -1.59176
LJ          0.393694       -0.245923       -0.795759
LJ           1.00105        0.910846         1.59667
LJ          -1.65094        -2.55485         2.56229
LJ         -0.503497         2.17043        -2.18808
LJ           1.06869       -0.189205       0.0516502
LJ          -2.36149         1.95125        -1.88682
LJ          -1.44909        0.515159        -1.41359
LJ          0.441776        0.665901         -1.8962
LJ           1.28269         1.57578      -0.0443314
LJ         -0.788323       -0.025254        -2.20994
LJ          -2.41983       -0.326441         1.28597
LJ         -0.502439        0.200526        -1.22707
LJ           2.10354        -1.59306         2.40904
LJ           1.32148         2.19665        -2.32292
LJ          0.887159        0.560483       -0.841762
LJ         -0.232598        -1.16381         1.31588
LJ         -0.420896       -0.843736        -1.72108
LJ         -0.638092        0.976272         -2.4989
LJ          0.999033        -2.05853         0.76292
LJ         -0.349511       -0.025989       0.0966094
LJ           2.28173         0.53656       -0.528916
LJ           1.20327         1.90316         1.82963
LJ           1.47208         1.72632        0.928488
LJ          -2.22039       -0.593473        0.290834
LJ          -1.08029       -0.597955       -0.329842
LJ           1.42908       -0.791723         -2.3363
LJ           1.48617        0.393043        -2.37462
LJ          -1.16016        0.910267         1.73297
LJ           1.61344         1.14382        -1.56436
LJ         -0.997426         1.81504         2.06131
LJ          -2.10195        -2.46157         1.18689
LJ          -2.14907         1.27167        -1.01631
LJ          0.500318       -0.354496        -2.14269
LJ              2.28        -1.63011       -0.530467
LJ          0.580319         1.78648        -1.37317
LJ          0.653736           1.355         2.51605
LJ          -1.23918         1.31836       -0.405837
LJ          -1.01782        -1.19531        0.711056
LJ          -2.36431         2.47628        -1.03682
LJ         -0.243967         1.04562        -0.55642
LJ           2.10813        -1.77204        0.489862
LJ            0.6605        -1.14109        -1.45454
LJ          0.180691        -1.90832          1.7456
LJ          -2.42893        -1.33059         1.36488
LJ           -1.8714        0.103034        -2.43201
LJ        -0.0401825        -1.86346        0.555046
LJ           2.14802       -0.329865         2.20615
LJ          -1.42349       0.0507664        0.689738
LJ          -1.43235        -1.56638        -1.09432
LJ         -0.548243         1.00154        0.587374
LJ         0.0356643        -1.46749       -0.711594
LJ          0.463583        -2.11442        -2.14513
LJ         -0.459802          2.4081         1.31897
LJ           1.01223        -1.05839         1.09426
LJ           1.94121        -0.65851      -0.0972555
LJ           1.65226         2.18947        -1.07876
LJ          -1.74267       -0.985669         2.09107
LJ          -1.71403        0.421714       -0.389959
LJ           -1.2927        -1.81779         1.49054
LJ           1.13446        -1.47347       -0.147592
LJ          -1.28007          2.3372        -1.57327
LJ           1.48182       -0.244222        0.969628
LJ         -0.433764         2.31803        0.134002
LJ          0.570378         -1.1308         2.37459
LJ          0.109619        0.400662         2.18591
LJ           -1.5565       -0.501847        -1.35774
LJ          0.434685        0.802195        0.284652
LJ          -2.07955        -1.58047        0.488999
LJ          -1.75542         1.06283        0.548427
LJ          -1.34815         2.34443       -0.464421
LJ            -2.079         1.73045          2.0694
LJ         -0.989297        -1.77496        -0.26509
LJ           -1.7005         1.18235        -2.16429
LJ           1.13572       -0.169929         2.00814
