108
#Comment!
LJ          -1.02479         1.80513         1.08397
LJ           1.58176         2.33996         -1.2118
LJ          -1.64882        0.826885        -2.11462
LJ          -0.35088         2.31474        0.130358
LJ         -0.473809        -1.11217        0.568478
LJ          -2.37198         1.67622        -2.05632
LJ           -2.3329       -0.427184         1.13671
LJ          0.482913       -0.654058          1.0271
LJ          -2.04392         -2.3713        0.376878
LJ           1.20346        0.389967          1.1901
LJ           1.84799       -0.849538       -0.548205
LJ           -2.4942        -1.24427         2.07056
LJ          -2.02573        -1.65416          1.1229
LJ           1.51404       -0.100827        0.146077
LJ          -2.36664       -0.665768       0.0286237
LJ          0.708571         2.09299        0.405922
LJ         -0.439602        -1.03823         1.63569
LJ          0.799117        0.800988         2.25662
LJ           1.50179        -0.71846        -1.59877
LJ          -1.74261         1.39926         2.11587
LJ          -1.21054       -0.219381        -2.48859
LJ          0.567109        0.878669        -1.15856
LJ          -2.31806         1.30362        0.987366
LJ           2.50623        -2.35033        -1.83716
LJ          0.750172       -0.150854        -1.94168
LJ          -2.06278        -1.56591       -0.596349
LJ          0.120896        -1.26368        -1.95953
LJ          0.683688       -0.688728      -0.0108582
LJ           2.01916       0.0998763       -0.848241
LJ         -0.772487        -1.08582        -2.56372
LJ         -0.916758        -1.90667        -1.86755
LJ          -1.48376         1.30085        -1.11103
LJ         -0.100072        -2.06562         1.27512
LJ          -2.19346        0.740671       -0.590641
LJ         -0.870991        -2.09224         2.08356
LJ            1.9913         -2.3675       0.0504491
LJ          -1.59991        -1.63369         2.55111
LJ         -0.220369         2.25555        -2.16749
LJ          -2.13576       -0.354472        -1.05469
LJ           -1.3714       -0.396434        0.654351
LJ           2.16562         1.25862        -1.22388
LJ          -1.23853         2.27723        -1.97045
LJ         -0.825962         2.01723         2.05978
LJ         -0.269434      -0.0148788        0.469548
LJ         -0.939773        0.846579         1.29041
LJ           1.46837         1.41802        -1.96595
LJ         -0.273606       0.0931901         2.48936
LJ          -1.18188       -0.595126       -0.394096
LJ           1.34597        -1.58006       0.0351722
LJ          0.993656        -1.20369       -0.898998
LJ        -0.0827792        0.348213          1.3968
LJ          0.645989        -1.71382        0.705252
LJ           2.39977        0.518447        0.434277
LJ         -0.514562         1.53923       -0.932624
LJ          -1.69026         1.57663       0.0172274
LJ           2.14671         1.70713      -0.0308215
LJ          0.783895          2.1721        -2.24971
LJ          -1.13073        0.404306       -0.301636
LJ          0.971059         1.67957         1.51856
LJ          0.370002         1.31087        -1.99846
LJ          -1.44777        -1.46495        0.284923
LJ           1.25139        -2.38819         1.46578
LJ         -0.118479        -2.16144        -1.17292
LJ          -1.99887         2.23126         1.34419
LJ          -1.21595        -1.01856        -1.36036
LJ           1.80236         2.43477        -2.48791
LJ           2.22513         1.63621         2.00598
LJ          -2.38643        0.497546        -1.54152
LJ          0.532202        -1.86422         2.40785
LJ            1.1657         1.81658       -0.429194
LJ           2.52528        0.690668        -2.45606
LJ          -1.31732         2.36951       -0.397201
LJ          0.720533        -2.33376       -0.475512
LJ          -2.23588        -2.47403         2.28587
LJ        -0.0311845        -1.57145       -0.297917
LJ         -0.721753         1.01946        -1.96361
LJ          -2.32091         2.10371       -0.749097
LJ          0.850685       -0.919367         2.06409
LJ           1.31593        0.807838       -0.224202
LJ          -1.09302        -2.25255         1.02166
LJ          -1.43869        -1.00263         1.66921
LJ        -0.0521966        0.182877       -0.582146
LJ           1.77744        -1.68468        -2.34019
LJ           1.68132       -0.502114         1.35535
LJ           1.49075        0.453773        -1.79875
LJ          0.185705         1.44187       -0.230262
LJ           2.28513        0.373794         1.49437
LJ           2.27148        -2.17475         1.29261
LJ           1.71707       -0.257577        -2.54025
LJ         -0.601337         1.16596        0.365238
LJ          -1.21523         0.11069        -1.37185
LJ          0.306476         2.36548         1.92685
LJ         0.0225823         1.55019         1.09677
LJ          0.435604        0.762442        0.555893
LJ          0.869363        -2.13286        -1.70447
LJ           -1.6402         0.56424         0.63659
LJ         -0.454283       -0.437337        -1.66886
LJ            1.6925        -1.75797        -1.29279
LJ           1.72422         1.35788        0.724644
LJ         -0.245146         1.19454         2.22399
LJ           1.64621        -1.49786         1.67417
LJ          -2.22932       -0.438106        -2.30954
LJ          0.358703          1.9035         -1.1519
LJ          -1.00414        -1.78399       -0.732448
LJ          -1.55544       0.0705194         1.72952
LJ          -2.35217        -1.25248        -1.78382
LJ           2.18539        -1.32223        0.658142
LJ           1.01376       -0.130953       -0.691671
