108
#Comment!
LJ           2.51193         2.53655         2.48776
LJ          -1.78446        -1.73255         2.50904
LJ          -2.50439        -1.76284        -1.58248
LJ          -1.77557        -2.47353        -1.83668
LJ          -0.94471         2.42726          2.5291
LJ         0.0174942        -1.99683        -2.49821
LJ         -0.900446        -1.55033        -1.61562
LJ         0.0603303         2.26525        -1.65387
LJ          0.984889         2.47781        -2.30406
LJ           1.79842        -1.71256         2.49837
LJ          0.989581        -1.72297         -1.6516
LJ           2.00899        -2.48287        -1.48006
LJ           2.47083       -0.797101         -2.4608
LJ          -1.76872       0.0469099         2.55478
LJ          -2.51155        0.200288        -1.72859
LJ          -1.61645       -0.564024        -1.32668
LJ          -1.17906       -0.885605        -2.46203
LJ         -0.125213       -0.248244        -2.44393
LJ         -0.798518        0.106146         -1.8126
LJ        -0.0304939       -0.920593        -1.77559
LJ          0.999954         -1.1111        -2.44014
LJ           1.61014       0.0788683        -2.55901
LJ          0.750448      -0.0801203        -1.56797
LJ           1.70572       -0.836188        -1.72501
LJ          -2.48841         1.03813         2.31856
LJ          -1.79593         1.78833         2.53601
LJ           2.56366         1.64927        -1.74293
LJ          -1.71628        0.929677        -1.90637
LJ         -0.736696         1.09967         2.55363
LJ         0.0282002         1.84616         2.51225
LJ         -0.793341         1.70097        -1.78603
LJ         0.0460193        0.819184         -1.8811
LJ          0.858591        0.814225        -2.46691
LJ           1.76343         1.88681         2.43732
LJ          0.915565         1.67212        -1.58887
LJ           1.82791        0.795016        -1.76449
LJ          -2.47083         2.43711       -0.725654
LJ          -1.45001        -1.81079       -0.680295
LJ           2.53661         -1.7807       -0.170255
LJ          -1.65647         2.43242       -0.097162
LJ          -0.75168         2.50664       -0.943841
LJ         0.0314377        -1.71682        -0.95426
LJ         -0.596575        -1.80888       0.0971264
LJ         -0.190161         2.31014       0.0712357
LJ          0.816159        -2.47334        -0.91815
LJ           1.79529        -1.64737       -0.846569
LJ          0.662038        -1.90232         0.13136
LJ           1.61993        -2.32703      -0.0926699
LJ          -2.53605       -0.834578       -0.770367
LJ          -1.90614        0.122418       -0.727336
LJ           2.37801      -0.0488958      -0.0214948
LJ            -1.647       -0.918327        0.002062
LJ         -0.671072       -0.841533       -0.816507
LJ       0.000409897        0.192281       -0.915068
LJ         -0.768408      -0.0564662      -0.0315719
LJ         0.0845379       -0.772827        0.181631
LJ          0.761008        -0.86374       -0.775303
LJ           1.79517       -0.161674        -0.88789
LJ          0.759425       0.0486006       -0.121271
LJ           1.66955       -0.932435      -0.0935866
LJ          -2.40329        0.999587       -0.969226
LJ          -1.67495         1.69917        -1.07333
LJ           2.53594          1.5648       0.0734443
LJ           -1.9242        0.833064       0.0320128
LJ         -0.976052        0.735652       -0.871378
LJ        -0.0742548         1.53474        -0.83355
LJ         -0.865395         1.47648      -0.0594738
LJ         0.0658101        0.993966       0.0515598
LJ          0.838032         1.08565       -0.765453
LJ           1.73698         1.69457       -0.941144
LJ          0.872922         1.96282       0.0400033
LJ           1.82705        0.818012       -0.146071
LJ           2.49705        -2.50498        0.795745
LJ          -1.51626        -1.70027        0.702805
LJ          -2.55917        -1.46776         1.68992
LJ          -2.00148         2.49146         1.53448
LJ         -0.762764        -2.51929         1.01489
LJ          0.150078        -1.76052        0.908941
LJ         -0.942227        -1.68706         1.76283
LJ          0.123173        -2.41697            1.72
LJ           1.03993        -2.55287        0.921534
LJ           1.81444        -1.52862        0.739301
LJ          0.879234        -1.68189         1.68946
LJ           1.61033        -2.51819         1.84711
LJ           2.52525       -0.552208          1.0641
LJ          -1.82651       0.0206635        0.796008
LJ           2.55095         0.12794         1.86983
LJ          -1.62545       -0.920105         1.47984
LJ         -0.783463       -0.900983        0.901196
LJ          0.110996      -0.0777178         1.02604
LJ         -0.843855        0.132672         2.12089
LJ          0.112541       -0.956767         1.67194
LJ          0.939249       -0.824786        0.812643
LJ           1.63506      -0.0965848        0.597404
LJ          0.734352       -0.124912         1.94976
LJ           1.69431       -0.826005         1.69809
LJ           2.50693        0.662775         0.79358
LJ          -1.44582           1.906        0.779306
LJ          -2.54097         1.56771         1.46116
LJ          -1.51759        0.902464          1.5973
LJ         -0.852726        0.732345        0.639597
LJ          0.202152         1.63343        0.947556
LJ         -0.764054         1.65564         1.50387
LJ        0.00586885        0.957115         1.60257
LJ          0.787236        0.633111        0.920837
LJ           1.73801         1.66031        0.733542
LJ          0.914479         1.64303         1.70706
LJ           1.67894        0.761555         1.68003
