108
#Comment!
LJ           1.74539         2.13774        0.778131
LJ           -2.0268        -1.32092        0.445208
LJ         -0.104507        -1.97481        0.185778
LJ           -1.7074        -2.43435         0.17838
LJ          -1.85582        0.255774         1.56619
LJ            1.3288       -0.586542        0.579574
LJ           1.33172       -0.614708         1.72967
LJ          0.282138        0.941295         2.10773
LJ         -0.716146         2.20296         -2.4952
LJ          -1.45848         1.18262        -1.80781
LJ           2.54892        -2.37198         2.51578
LJ           2.30154         1.67192         1.94324
LJ          0.361858         1.79609        -1.84159
LJ          0.105055         1.53351        0.586301
LJ           1.61088         1.64248        -2.21392
LJ          0.836972         2.29394        0.247134
LJ           1.48265        -1.65268         2.28147
LJ          0.473561      -0.0368247         2.49462
LJ          0.210397         2.51317        0.977876
LJ           2.07197        0.860911       -0.658667
LJ          -1.76975       -0.350753        0.272379
LJ          -1.13745        -2.48219       -0.644112
LJ           1.86981        -2.14946       -0.897338
LJ          -1.13367       -0.613182       -0.884729
LJ           1.11724        -1.80853          1.1264
LJ         -0.117467        -2.30485         2.02365
LJ           1.88887        -1.17682        -1.06757
LJ           2.29788         -1.3063          1.7438
LJ          -2.31137         2.29691         1.13404
LJ          0.169053       -0.487418         1.56241
LJ          -1.95716        -1.51695         2.43746
LJ           1.80097       -0.185745       -0.637557
LJ          -2.27831        -1.39139       -0.680245
LJ           1.63438        0.725315          2.2387
LJ          0.766904       -0.904175       -0.680747
LJ         -0.959307         -1.7157         2.39068
LJ         -0.762552         2.33372        0.534572
LJ          0.861791        -2.08751         -1.5081
LJ         0.0223009        -1.60428         1.09369
LJ          -1.55721         1.37076        0.050531
LJ           -1.5864           2.055        -1.28702
LJ          -2.41114         2.01585       -0.553708
LJ          -1.67514         2.33037         2.27536
LJ          0.226751         -1.1146         2.44179
LJ         -0.716011        -1.25503        -1.90441
LJ          -2.52866       -0.556676        -1.65546
LJ            1.6077       -0.284773        -2.31232
LJ         -0.147964       -0.288179       -0.431554
LJ           1.24695        -1.61888       -0.145683
LJ         -0.988367        -2.49112         1.48701
LJ          -1.18745         1.12283         2.14389
LJ          -2.30939         0.49442        0.228502
LJ          -1.06873        -1.50031        0.760051
LJ          -2.46034       -0.123955         2.33885
LJ          -2.10426       -0.190106       -0.679164
LJ         -0.816342        0.070204        -1.69362
LJ          0.145985        -2.50451       -0.798661
LJ           2.26431        -2.35544       0.0906668
LJ          0.828263        0.829324        -2.08397
LJ          -0.48977         1.81404        -1.20928
LJ           1.71538         2.01046       -0.326016
LJ         -0.458697         1.86211       -0.236047
LJ           1.73286          -2.437        -2.07017
LJ          -1.15923        -2.20095        -1.65815
LJ          0.870617       0.0762844        -1.23997
LJ          -2.42286        0.905651         2.45458
LJ         -0.277923         1.76666         1.81501
LJ         -0.523781       0.0871693         2.21968
LJ           1.13522         1.08392         -1.1894
LJ         -0.981624        0.215221       -0.123553
LJ           1.78231        0.400113        -1.62125
LJ          -2.54909         1.52092        -1.66208
LJ          -1.80214        -1.98759         1.50705
LJ          -1.39157       -0.701826         2.48679
LJ          -2.05527        0.426564        -1.53494
LJ          0.734323         -2.3819        -2.51146
LJ         -0.233479        -2.23037        -2.01578
LJ         -0.260476        -1.34738       -0.786693
LJ           2.34265       -0.482645        0.301032
LJ            1.7347         1.13401         1.10158
LJ           1.17337        -1.22993        -2.00587
LJ          0.845714        0.262361       -0.166667
LJ          -1.27822        -1.46096        -0.34686
LJ         -0.448994         1.08963        -2.18478
LJ           2.56177         1.51559        0.312433
LJ          0.924832        0.500203         1.35561
LJ           2.22284       0.0396629         1.39983
LJ          -1.52326        0.258707        -2.40214
LJ          0.415805         1.63607        -0.63457
LJ           2.33083        -1.53118        -2.13679
LJ          0.237559       -0.908426        0.403153
LJ          -2.18484         1.20025         1.32848
LJ           1.03323         1.75107         1.37742
LJ           2.02881        -1.57496        0.723201
LJ         -0.182275       0.0906352        0.708074
LJ          -2.31221        -2.24186        -1.18363
LJ          -1.01709        0.993473       -0.901693
LJ           1.43669         2.18037        -1.23047
LJ          -1.05504       -0.462923         1.29007
LJ          0.188339       -0.735848        -1.50874
LJ        -0.0926992         0.61638        -1.20818
LJ            1.2709          1.2026        0.168057
LJ          -1.81378        -1.40409        -1.57705
LJ        -0.0146859         0.80576       -0.150583
LJ          -1.99863       -0.683183         1.34363
LJ           1.80436        0.424716        0.366208
LJ         -0.781556       -0.744877        0.190932
LJ         -0.753887         1.09635         0.87723
