108
#Comment!
LJ          -2.56162        -2.38073         2.54049
LJ          -1.70981        -1.67993         2.47498
LJ           2.52171        -1.65887        -1.74002
LJ          -1.73429        -2.36599         -1.7783
LJ         -0.776659         2.55705         2.49754
LJ         0.0311501        -2.06312        -2.45729
LJ          -1.09304        -1.43891        -1.59753
LJ          0.041651         2.22983        -1.69726
LJ          0.977587         2.38706        -2.56052
LJ           1.68207        -1.78459         2.48062
LJ           1.04054         -1.7805         -1.7412
LJ           1.91366         2.46115         -1.6107
LJ           2.44513       -0.740307         2.50856
LJ          -1.84001        0.026016         2.51043
LJ           2.50554        0.180784        -1.94934
LJ           -1.7594       -0.503869        -1.59111
LJ          -1.05461        -0.85777        -2.41468
LJ         0.0261335       -0.210791        -2.47084
LJ         -0.794252      0.00323339        -1.67286
LJ        -0.0949036        -1.04922        -1.88807
LJ           1.01178        -1.14595        -2.44293
LJ           1.68762      0.00806206         -2.5305
LJ           0.81396      -0.0127985        -1.77264
LJ           1.59442       -0.734035          -1.722
LJ          -2.51437         1.07644         2.49371
LJ          -1.80725         1.92796        -2.54382
LJ          -2.52198         1.68508        -1.68314
LJ          -1.54768        0.920286        -1.82367
LJ         -0.664556         1.13496         2.51183
LJ          0.101937         1.79249         2.46272
LJ         -0.828108         1.66075         -1.6913
LJ         0.0561292         1.07439         -1.7542
LJ           1.00239         0.90008        -2.55312
LJ           1.87369         1.79742          2.4746
LJ          0.930309         1.78891        -1.68951
LJ           1.73447        0.927304        -1.77304
LJ           2.42242         2.33042       -0.762632
LJ           -1.4946        -1.91418       -0.759325
LJ          -2.47792        -1.87742      -0.0493697
LJ          -1.73873         2.46679      -0.0801412
LJ         -0.734469        -2.50059        -1.07135
LJ          0.102798        -1.63825       -0.920212
LJ         -0.391782        -1.77501     -0.00598541
LJ         -0.262126         2.39578       0.0776426
LJ           0.78451        -2.53294       -0.954674
LJ           1.69726        -1.70717       -0.926746
LJ          0.653927        -2.10466        0.101694
LJ           1.71032        -2.40477     -0.00771863
LJ          -2.44741       -0.858608       -0.647009
LJ          -1.82494       0.0526496        -0.74104
LJ           2.48368        0.106131       0.0584397
LJ          -1.56066       -0.947583       0.0392744
LJ         -0.527703         -0.8506        -0.77528
LJ       -0.00843208        0.254836         -1.0237
LJ         -0.957075        -0.10618       -0.128461
LJ         0.0533409       -0.722912        0.237804
LJ          0.868825        -1.00049       -0.708619
LJ           2.01425      -0.0952168       -0.916498
LJ          0.731865       0.0104185      -0.0660152
LJ           1.58486       -0.884546      -0.0936518
LJ          -2.45077        0.881236       -0.956174
LJ          -1.56568         1.67608       -0.775489
LJ            2.4552         1.79572        0.121531
LJ           -1.9082        0.964375     -0.00263597
LJ          -1.09841        0.724243       -0.853523
LJ         0.0849602         1.75053       -0.822152
LJ         -0.815328         1.49197       -0.153192
LJ        -0.0976776         0.83428        0.109757
LJ          0.749208         1.00004       -0.678413
LJ           1.59131         1.60147       -0.951533
LJ          0.902305         1.99872      -0.0880715
LJ           1.65978        0.858445       -0.236859
LJ            2.5018         2.47957        0.909337
LJ          -1.40446        -1.78582        0.678437
LJ           2.51108          -1.595         1.81973
LJ          -2.02612        -2.50085         1.70921
LJ          -0.63342        -2.50664         1.09196
LJ          0.201187        -1.66533         1.00141
LJ         -0.876395        -1.70149         1.62879
LJ          0.110063        -2.32593         1.70649
LJ          0.951858          2.3644        0.937173
LJ           1.91456        -1.51062        0.698688
LJ           0.97874        -1.83381         1.66529
LJ            1.7133         2.56457         1.69744
LJ           2.55589       -0.675771        0.952394
LJ          -1.66315      -0.0627523        0.888801
LJ          -2.52915      0.00111091         1.83428
LJ          -1.77137       -0.848485         1.65596
LJ         -0.754115       -0.827597         1.03292
LJ         0.0532082       0.0149185        0.913539
LJ         -0.796508        0.191544         1.98124
LJ          0.181451        -0.94256         1.93183
LJ           1.00027        -1.07383        0.732252
LJ           1.66616       -0.170068        0.709348
LJ          0.874951     -0.00589003         1.85887
LJ           1.65852       -0.824425         1.72868
LJ           2.42845        0.856259        0.916294
LJ          -1.50363         1.89195        0.805248
LJ           2.46237         1.70355         1.63846
LJ          -1.65324        0.946032         1.52669
LJ         -0.885652        0.631872        0.856452
LJ          0.250718         1.43871        0.840867
LJ            -0.881          1.5744         1.53525
LJ        -0.0540833        0.843731         1.65033
LJ           1.02183        0.700267        0.830892
LJ           1.59395         1.72883        0.612757
LJ          0.852385         1.56085         1.75717
LJ           1.79742        0.820279          1.8183
