108
#Comment!
LJ         -0.871743         2.31977        0.571875
LJ          -2.52995        -1.67051        -0.87035
LJ        -0.0731059         -1.0863         1.37424
LJ          0.636254          -2.089       -0.637247
LJ          -0.81356        -1.98661         1.54638
LJ           2.12782       -0.154156        0.644065
LJ          0.947934         1.13867      -0.0733837
LJ           1.02412       -0.953608        -2.09625
LJ           1.61678        -2.50476         1.11936
LJ          0.996665        -1.12958       -0.462575
LJ           -1.4413        0.175134         1.85926
LJ          -1.32032         1.31163        -2.46635
LJ          0.371704         0.32632         1.81422
LJ          -2.39798         1.52291        0.750013
LJ          -2.29272         2.02593       -0.305945
LJ          -1.13925         1.48139       -0.708207
LJ           -1.7258        -1.95188         2.17493
LJ           1.51094         1.07079        -1.19681
LJ          0.911168       -0.420511         1.26864
LJ         -0.183329         1.86629        -1.07623
LJ           1.07093        -1.66984         0.74305
LJ         -0.761987        0.899697        -1.62971
LJ         -0.106115         2.35984        -2.01969
LJ          -1.24034        -1.18734        -1.16515
LJ          0.194016        -2.28412         1.14994
LJ         -0.877078       -0.875672         2.32361
LJ           2.10176        -2.17695        -2.21739
LJ          -1.16117      -0.0425124        -1.04733
LJ           -1.8309        0.638813       -0.247263
LJ         0.0289497        -1.27435       -0.518131
LJ         -0.836829      -0.0612229        -2.22835
LJ          -1.78161       -0.406155         1.03672
LJ          -2.03283       -0.685239         2.27494
LJ           1.76265         1.42804         1.74206
LJ           1.84722        -1.15176         1.17107
LJ          -1.54282         1.69808        0.316261
LJ          0.867581        -2.56234        0.297949
LJ           1.02143        -1.51702         1.96441
LJ          -1.84297        -2.41181        -1.69095
LJ          0.208798        0.242462        0.732197
LJ         -0.904481        0.733555      -0.0753003
LJ           1.55197        -2.53142       -0.526565
LJ         -0.986488        -1.63249        -2.10489
LJ          0.900445         2.29077         1.89969
LJ           1.89246       -0.981725          2.4274
LJ           1.02884        0.996743         2.49623
LJ           1.36691        0.488639        0.674275
LJ          -1.79819        -2.29975         0.45862
LJ           -2.0934       -0.565353       -0.906585
LJ         0.0370867        -1.83975          2.3962
LJ          -1.43344        -1.57234       -0.255192
LJ           -2.1752         -1.0734        0.196144
LJ         0.0910936        0.131061       -0.314833
LJ           2.00331        -2.00139         1.90758
LJ        -0.0410977         1.19948        -2.33349
LJ          0.684435         1.07401         1.21235
LJ             1.866        -1.22296       0.0958443
LJ          -1.46304        -1.53502        0.878341
LJ           2.39713        0.270045       -0.944688
LJ          0.689063         1.64993        -1.58338
LJ            2.1593         2.01023         2.55934
LJ           1.98496         -0.7561       -0.833632
LJ           -1.2555         2.43635       -0.700888
LJ          -0.12495         1.96617         1.69322
LJ           1.38928         -1.5499        -1.32815
LJ            -1.048         2.06665        -1.69249
LJ           1.91944         1.63162       -0.385997
LJ          -1.10167         1.51472         1.45752
LJ           2.25759        0.770391       0.0791041
LJ         -0.433502       -0.639533       0.0815284
LJ          -1.37561       -0.275837       0.0633685
LJ          -2.03291          2.3012         2.51331
LJ         -0.897317         2.38132          2.4706
LJ         -0.519693        0.921048        0.908924
LJ           0.49738       -0.809155        0.383392
LJ           2.44012       -0.523533         1.55976
LJ          -2.18077         2.39704         1.46736
LJ           1.10943         0.10709        -2.15886
LJ          -2.06955        -1.37746         -1.8522
LJ         0.0566106          1.6381        0.471322
LJ           1.50653        0.351813         1.80918
LJ          -1.92199        0.631334        -1.49915
LJ         -0.345035       -0.761915        -1.41703
LJ          -0.20916         1.00879       -0.654204
LJ          -0.14775        -2.47854       -0.235002
LJ          -2.27095         1.45097        -2.09456
LJ          -2.25963        0.433784         2.49727
LJ           2.11461        0.775641        -2.03347
LJ         -0.548502        -1.78535        0.436307
LJ          -1.77924         -0.3092        -1.87073
LJ           1.44169         1.71937        0.627585
LJ         -0.612228        0.848297         2.06437
LJ          -2.32029        -1.63737         1.37271
LJ           2.33682        0.569533         1.32319
LJ          0.668431         1.98234       -0.503603
LJ         -0.595476        -2.04324        -1.04245
LJ          0.413969        0.571089        -1.64257
LJ          0.247579        -1.66672        -1.52291
LJ           1.01015       -0.121505       -0.290378
LJ          -2.07192         1.28535         1.79322
LJ           -2.5139         1.24286        -1.09042
LJ           2.32464        -2.20703        0.221532
LJ          0.249135       -0.494705         2.48393
LJ          0.981786         -2.4329        -1.73486
LJ         -0.674183       -0.165183         1.07605
LJ          -1.63596        0.647475        0.753417
LJ          0.559931       -0.419118        -1.17342
LJ           2.33363       -0.388922        -1.74473
