108
#Comment!
LJ          -1.40004        -2.08805         2.33618
LJ         -0.388139        0.192497         2.06217
LJ           2.45146         1.70176        -2.36609
LJ           1.90085         2.41705          2.4509
LJ          0.157294         1.07621       -0.155547
LJ          -2.43096        0.594011        -2.28578
LJ          -0.60577       -0.583599        -2.49838
LJ           1.53484       -0.853196        -1.07288
LJ           1.53746        0.825282        0.829276
LJ           1.66134        -2.35365        0.490105
LJ         -0.657091        -2.18743      -0.0651333
LJ          0.760802       -0.357243        -1.60728
LJ         -0.832996           1.984         2.42608
LJ          -1.31737       -0.745072        0.439901
LJ          0.457399        -2.04992       -0.162037
LJ          -2.22076         1.62635        0.897203
LJ          -1.81533       -0.313508        -2.15381
LJ           0.78041        0.840413         1.66854
LJ         -0.197485       -0.792062        -1.12919
LJ          0.494525        -2.51203         1.40213
LJ          -2.07929        -1.39086        -2.37245
LJ          0.512221        0.545129        0.575496
LJ           2.22083        0.110238       -0.781933
LJ          0.068794          2.3813        0.456443
LJ          -1.52756       -0.789008         1.97037
LJ          0.965476        -1.48546          1.0089
LJ           1.85673         1.69388         0.39513
LJ          -1.45754         2.46529         1.56434
LJ           1.62319        -2.32905         1.59074
LJ          -1.41865         2.44522       -0.856483
LJ          -1.28039         2.28389        0.540277
LJ          -2.05049       -0.277068       -0.110618
LJ           1.56204         1.52862          1.6257
LJ          0.434417        -1.08621        -2.18598
LJ          0.679037      -0.0600721         2.35965
LJ          -2.54225         1.37811       -0.325963
LJ         -0.155523        -1.99254        -1.98334
LJ           0.62255         1.73265         2.16542
LJ             2.022       -0.321183        0.135093
LJ         -0.638331         1.11538         -1.0283
LJ        -0.0191875        0.139561        -2.07082
LJ          -2.56263         1.07518         -1.2416
LJ           2.23933          -2.522        -1.58212
LJ         -0.890218        0.885354        -2.11102
LJ          -2.45236       -0.501245         1.05039
LJ         -0.220622         1.19006         2.03193
LJ          -1.84561         2.46307        -2.02819
LJ          -1.82921         1.64367         2.23583
LJ           2.26254       -0.272899        -1.78211
LJ         -0.663741        -1.52332         1.91447
LJ        -0.0755147        -1.37332        0.822329
LJ         -0.594417         2.04291         1.42855
LJ           0.69455       -0.915025       -0.417665
LJ            1.0655       0.0225704       -0.712403
LJ          0.720881         1.88216       -0.542782
LJ          -2.25006         2.55049      -0.0488466
LJ         -0.542548        -1.84246        -1.11646
LJ            1.5665       -0.599729         1.62417
LJ          -1.85212        -1.52853         1.43374
LJ         -0.939679      -0.0179765        -1.67791
LJ           1.93302        -1.59496          2.4114
LJ         -0.224688         1.23472        0.941509
LJ          0.572057         2.43561        -1.50119
LJ           -1.3007        0.212331        0.973084
LJ          -1.48683        -1.72908       -0.347641
LJ          -1.58092         1.38422       -0.863724
LJ           1.44591         1.33772        -2.39082
LJ          -1.57302        -1.35682        -1.35302
LJ           1.24333        -1.98682        -1.74686
LJ          -1.74104         1.47568        -1.87382
LJ          -1.35507         1.32547        0.198607
LJ           2.45032        -1.41831      -0.0132099
LJ           1.48266         -1.2158        0.116033
LJ          0.788097        0.972019        -1.27203
LJ           2.15206        -1.40004         1.42585
LJ           1.26077        0.437265        -2.00328
LJ           1.44047         1.00137       -0.364448
LJ          -2.47369        -2.10747        0.840559
LJ          -2.33202        0.455563        0.718827
LJ           1.56351       -0.670019        -2.41279
LJ          -1.59793        0.462696         2.05862
LJ           2.51989         1.01096         1.82581
LJ         -0.232519        0.236318       -0.770581
LJ        -0.0907754       -0.270595        0.151952
LJ          0.473106        -1.64518        -1.22645
LJ         -0.573699         2.29689        -1.60759
LJ          0.917433        -2.53444        -2.51758
LJ           0.90565        -1.56556         2.05748
LJ         -0.344183        -1.24661       -0.257233
LJ          -2.36672       -0.874931       -0.954539
LJ         -0.953163        -1.96593        0.924925
LJ         -0.968237        0.463405       0.0168971
LJ          0.579089       -0.653911         1.49758
LJ          -1.85593        0.209544        -1.15573
LJ          -0.30606         2.15678       -0.473727
LJ           1.07056       -0.456664        0.625787
LJ           1.65198        -2.03657       -0.820689
LJ           2.17466        -1.42606        -1.64392
LJ          0.806599         1.76484         0.85197
LJ          -0.44267       -0.465405          1.2629
LJ           2.49148       -0.697202         2.05211
LJ      -0.000461477        -2.27414         2.24703
LJ          -1.14188       -0.523599        -0.73305
LJ          -2.54471         2.15167         1.69296
LJ          -1.18238         1.14805           1.407
LJ          -2.32637        -1.95707       -0.905249
LJ          0.235252          1.5816        -2.05243
LJ           1.64813         0.40972         2.24449
