108
#Comment!
LJ           -2.5618         2.55113        -2.54541
LJ          -1.71085        -1.78043        -2.51923
LJ            2.5603        -1.71344        -1.66481
LJ           -1.7066         2.54321        -1.73407
LJ         -0.875234        -2.52826         2.47979
LJ       -0.00235782        -1.69275        -2.50904
LJ         -0.776197        -1.71289        -1.74048
LJ        -0.0140012         2.53265         -1.6174
LJ           0.86645          2.5334         2.52099
LJ            1.7579         -1.7677        -2.47231
LJ          0.865574        -1.62993        -1.70408
LJ             1.684         2.55144        -1.66121
LJ           2.55264       -0.788809        -2.53099
LJ          -1.63106      -0.0199738        -2.54758
LJ          -2.52116       -0.070694        -1.65918
LJ          -1.69621        -0.91405        -1.67286
LJ         -0.839627        -0.82462        -2.52384
LJ         0.0695078       0.0114843         2.51679
LJ         -0.900619       0.0798883        -1.68197
LJ        -0.0748891       -0.941168        -1.72748
LJ          0.859474       -0.889047        -2.48741
LJ            1.6727        0.110556        -2.54382
LJ          0.749681        0.027568        -1.77796
LJ           1.65843       -0.836491        -1.71982
LJ          -2.55668        0.831289        -2.53206
LJ          -1.73009         1.72728         -2.5409
LJ          -2.55919         1.60139        -1.74611
LJ          -1.70074         0.85477        -1.73965
LJ         -0.827223        0.868239         2.48808
LJ         0.0281543         1.64462         2.52511
LJ         -0.857165         1.72791        -1.79406
LJ        -0.0139182        0.839679        -1.80058
LJ           0.89672        0.897825         2.53096
LJ           1.62812         1.69236         -2.5288
LJ          0.911354         1.71996        -1.77997
LJ           1.66512        0.873553        -1.73622
LJ          -2.56229         2.54458       -0.786976
LJ          -1.62424        -1.66089       -0.875669
LJ          -2.53829        -1.75665      -0.0254529
LJ          -1.70663         2.52102      -0.0912048
LJ         -0.796105         2.55543       -0.781123
LJ        -0.0239507        -1.74425       -0.902235
LJ         -0.792053        -1.71703       0.0236977
LJ        -0.0629817         2.50492      -0.0994021
LJ           0.88513         2.56018       -0.809194
LJ           1.63937        -1.76017       -0.872965
LJ          0.843112         -1.7515     -0.00476707
LJ           1.72912        -2.50407    -0.000920624
LJ           2.56472       -0.798815       -0.826873
LJ          -1.75656     -0.00631493        -1.00453
LJ           2.55229      -0.0459528      -0.0772611
LJ          -1.70002       -0.916304      -0.0157467
LJ         -0.853301       -0.850429       -0.748787
LJ         0.0668099      -0.0653552       -0.873298
LJ         -0.958954      0.00205697       0.0443985
LJ        -0.0324902       -0.770601       0.0251543
LJ          0.897429       -0.714069       -0.872609
LJ           1.69146     -0.00609159       -0.864216
LJ          0.846224      -0.0337691      -0.0474742
LJ           1.64908       -0.918194      -0.0960805
LJ          -2.55713        0.870458       -0.852793
LJ          -1.74685         1.72208       -0.903615
LJ           2.48448         1.69284      0.00586395
LJ           -1.7369        0.913768        0.020934
LJ         -0.854718        0.805887       -0.812937
LJ         -0.070526         1.70625       -0.864956
LJ         -0.874581         1.68852       0.0326884
LJ        -0.0489345        0.849971       0.0717239
LJ           0.91104        0.896168       -0.818181
LJ           1.75312         1.69323       -0.878109
LJ          0.838456         1.84298      -0.0731394
LJ           1.70428         0.91191        0.042415
LJ          -2.48305        -2.49184        0.849807
LJ           -1.7009        -1.74366        0.784017
LJ            -2.557        -1.72421         1.72469
LJ          -1.76091         -2.5152         1.64056
LJ         -0.773577        -2.50985        0.815246
LJ          0.047259        -1.71886        0.879999
LJ         -0.804944        -1.72141         1.79275
LJ         0.0136335        -2.53372         1.74357
LJ          0.888269         2.40806         0.90476
LJ           1.68378        -1.75202        0.893592
LJ          0.931233        -1.84047          1.6208
LJ           1.77721        -2.56385         1.75236
LJ          -2.52508       -0.771444        0.905069
LJ          -1.73464      0.00828068        0.946051
LJ          -2.53129        0.111881         1.73122
LJ          -1.69703       -0.813698         1.74526
LJ         -0.927811       -0.886969         0.83364
LJ         0.0430984      -0.0163309         0.91737
LJ         -0.803411      -0.0599061          1.6978
LJ         -0.052681       -0.797397         1.70434
LJ          0.876561       -0.862733        0.854399
LJ           1.64547      -0.0420362        0.834893
LJ           0.83833      -0.0342202         1.71237
LJ            1.7828       -0.756857           1.599
LJ            -2.466        0.886051        0.885164
LJ          -1.71586         1.71459        0.907204
LJ          -2.52852          1.7718         1.71584
LJ          -1.66717        0.882482          1.7515
LJ         -0.866624        0.852508         0.85847
LJ         0.0300978         1.68952        0.851159
LJ         -0.852142         1.75107         1.72153
LJ        -0.0639803        0.793805         1.69036
LJ          0.833187         0.78566        0.798792
LJ           1.69698         1.66327        0.892861
LJ          0.838639         1.63715         1.75538
LJ           1.79031         0.84821         1.69689
