108
#Comment!
LJ           1.61189         2.14895         1.04255
LJ          -2.09781        -1.70563        0.313088
LJ         -0.168129        -2.15106        0.448078
LJ           -1.0681        -2.50918      -0.0331615
LJ          -1.85833        0.310398         1.50906
LJ           1.34976       -0.359754        0.381866
LJ           1.30258       -0.178529         1.55505
LJ          0.575748        0.752834         1.98749
LJ          0.132698         1.51064         2.53966
LJ          -1.56024         1.34222        -1.92005
LJ           2.21256        -2.04472         1.43492
LJ           1.92446         2.11855         2.52664
LJ           0.30177         1.65024        -1.54971
LJ          0.426208         1.56314         1.15302
LJ           1.36585         1.44269        -2.03932
LJ          0.688473          2.3661        0.358809
LJ           1.02061        -1.92098         2.15854
LJ          0.146156      -0.0420336         2.49115
LJ          -0.22779          2.4296         1.33943
LJ          -2.07762         1.22952       -0.902212
LJ          -1.85197       -0.742164        0.538519
LJ         -0.656606        -2.45518        -1.08948
LJ           2.10885        -2.07323       -0.716114
LJ          -1.15679       -0.408955        -1.16924
LJ          0.713349        -2.24038         1.28385
LJ        -0.0542961        -2.41504         2.36457
LJ           1.75884       -0.930902       -0.987316
LJ           1.99967       -0.939193         1.84066
LJ           -1.9585          2.4147        0.961508
LJ          0.134623       -0.200237         1.42538
LJ          -1.99465        -1.47649         2.51193
LJ           1.98902     -0.00599724       -0.599133
LJ          -2.28213        -1.32572       -0.903395
LJ           1.55022        0.747573         2.34363
LJ          0.855661       -0.826988       -0.493551
LJ          -1.00439        -1.76748         2.22734
LJ         -0.472135         1.89721        0.467222
LJ           1.11458        -1.52331        -1.82759
LJ         -0.343737        -1.57529         1.48787
LJ          -1.69154         1.58273        0.112861
LJ          -1.45476         1.99683       -0.875047
LJ          -2.41313         2.31871       -0.314642
LJ          -2.15336         2.23571         2.37945
LJ           0.05241        -1.26619        -2.48785
LJ         -0.710229        -1.19349         -1.6047
LJ           2.53632       -0.333408        -1.44869
LJ           1.91946       -0.103676        -2.36323
LJ          0.123579       -0.233946       -0.717985
LJ           1.31036        -1.78403      -0.0850179
LJ          -1.19688         2.39224         1.84111
LJ          -1.53399         1.22387         2.05517
LJ          -1.94048        0.413785        0.414357
LJ            -1.063        -1.42839        0.505441
LJ          -2.23072       -0.159351         2.49552
LJ          -2.06003       -0.116919       -0.599541
LJ         -0.321858       -0.200667         -1.7054
LJ          0.436123          2.4573       -0.771809
LJ           2.05934          -2.285        0.342825
LJ          0.890133        0.433687        -1.97275
LJ         -0.641579         1.92862        -1.91533
LJ           1.60987         2.16637       -0.285024
LJ         -0.396248         1.61305       -0.751203
LJ           1.85904        -2.14495        -2.19394
LJ          -1.21909        -2.13751        -1.99266
LJ           1.03256       -0.556124        -1.58307
LJ          -2.44262         1.28078         2.46277
LJ         -0.613314         1.50402         1.66176
LJ         -0.720361        0.543289          1.8879
LJ           1.37445        0.997163        -1.06958
LJ          -1.01753      -0.0777829       -0.134204
LJ           2.28139        0.726586        -1.94671
LJ           2.36462         1.99405        -1.59278
LJ          -1.90045        -1.76654         1.48519
LJ         -0.631889       -0.636062         2.09123
LJ             -1.89        0.350877        -1.75461
LJ          0.975905         2.46169        -2.22931
LJ         0.0406809        -2.05603         -1.8218
LJ        -0.0226991        -1.63468       -0.476179
LJ           2.37496       -0.836702       0.0604113
LJ           1.73393        0.615173          1.2733
LJ           1.02762        -0.82026         2.41284
LJ          0.942214        0.511122       -0.201641
LJ          -1.12363        -1.58646       -0.802986
LJ         -0.272422        0.778278        -2.12369
LJ           2.39843         1.80862        0.459484
LJ          0.770006        0.573981        0.913453
LJ           2.53912       -0.391858         1.09135
LJ          -1.18307     -0.00166454        -2.34836
LJ          0.595892         1.44257       -0.424649
LJ           1.97692        -1.11192        -2.09864
LJ          0.802849        -1.10208         1.26019
LJ          -2.36945         1.47974          1.3391
LJ           1.11541         1.68137         2.11177
LJ           1.80719        -1.20925        0.781065
LJ          0.271794       -0.174758        0.372724
LJ          -2.25383        -1.98094        -1.69624
LJ          -1.17401        0.742353        -1.08692
LJ            1.3579         2.55629         -1.2354
LJ         -0.644882       -0.196384        0.891227
LJ          0.234763        -1.07598        -1.35338
LJ          0.307828        0.716109         -1.0639
LJ           1.33379         1.43967         0.30805
LJ          -1.66065       -0.779702        -1.97051
LJ         0.0859684        0.913451        0.294155
LJ          -1.63891        -0.74887         1.76562
LJ           2.11437         0.52461        0.231667
LJ         -0.400878       -0.866093       0.0123227
LJ         -0.975804        0.903064        0.297311
