108
#Comment!
LJ          -1.48156        -2.25225        -0.14081
LJ           1.50689        0.952588        -1.15889
LJ         -0.499787        0.288151        0.581146
LJ          -2.11191        -1.91015         1.81927
LJ           2.04104        -2.49588      -0.0424558
LJ          -1.56404         1.35131       -0.540481
LJ           2.16771        -1.16889         1.21301
LJ          -2.13684         1.25994         1.44773
LJ           2.46332        -1.56041        -1.84818
LJ          -1.58697        -1.62028        -1.02905
LJ          -2.27112         -1.9549        0.541512
LJ          -2.35804        0.391884         2.25891
LJ          -1.72289         1.58906        -1.78778
LJ           1.00404        0.910018         2.02541
LJ           0.88971         -1.0113       -0.884565
LJ          0.692862          1.7773        -1.52452
LJ          -1.11073        -1.24893      -0.0664024
LJ           1.06246        0.131681       -0.673867
LJ           2.49782         2.14898        -1.79604
LJ         0.0240097       -0.166862       -0.772674
LJ         -0.634281        -2.09294         1.82708
LJ          -1.40144        0.997998         2.13626
LJ           1.99314         1.66174         1.04592
LJ           1.26824       -0.336499         1.85201
LJ          0.559415      -0.0549986        -1.54541
LJ          0.294806         -2.4393      -0.0864937
LJ        -0.0614206         2.10525         1.62743
LJ          -1.74871        0.643371        0.391644
LJ         -0.680229         1.51751        -1.60914
LJ           2.13615       -0.324728        0.448193
LJ          0.463557      -0.0551232         2.37809
LJ          -0.55327        -0.87795         2.18218
LJ          -1.23353       -0.501601         0.70232
LJ          -2.06032       -0.976875         0.58111
LJ           1.85921        -2.13582         1.05596
LJ           1.20752        -1.04277        -2.46755
LJ           -2.0611       -0.320751        -0.12101
LJ           1.64521        -2.08769        -1.98456
LJ         -0.875989        -1.39643        -2.06312
LJ          -1.49124        -2.25885         1.13288
LJ         -0.518702        -2.45462        -2.39379
LJ          -0.19026        -1.09701        0.923896
LJ          -2.16392         1.99894        0.249115
LJ         -0.909791         1.15227        0.202382
LJ        -0.0553124         1.46261        0.691368
LJ         -0.436939         1.92565       -0.512458
LJ          -2.54382       -0.849019        -1.00689
LJ         -0.528811        0.406027         2.55166
LJ           1.43236        0.583231        -2.18412
LJ           1.14483         2.31019        0.243804
LJ         -0.338076         -1.1373        -1.12735
LJ           1.07208        -1.77909       0.0921179
LJ         -0.567909         1.39443         2.31865
LJ            -1.768        -2.34619        -2.22313
LJ           2.15237        -1.32318       0.0669436
LJ           1.68105        -1.84904       -0.910629
LJ           1.72405        -0.55301         -0.4495
LJ           0.95298         1.38044        0.948886
LJ          -2.34063          1.9376         2.41564
LJ          -1.72975        -1.28782         2.56108
LJ         -0.900944         1.28414         1.27001
LJ          0.743482        -2.21328        -1.39265
LJ           1.11951         -1.0359        0.839566
LJ           2.03246         1.27018         2.03851
LJ           1.39599        0.930482      -0.0228211
LJ          0.334625        -2.00622         2.20353
LJ          -1.73733       -0.236222        -2.40538
LJ         -0.646064       -0.329855        -1.82207
LJ           1.57533         2.09995        -1.00567
LJ           0.34075       -0.549213        0.203947
LJ          0.325849        0.916882        -2.19051
LJ           1.99686        0.647205         1.27287
LJ           2.17041        -1.37551         2.26137
LJ          -1.18591          2.1479         0.49767
LJ           2.37309          1.4347        -0.63854
LJ         -0.371829        -2.11523       -0.976687
LJ          0.202328        -1.05026        -1.96445
LJ          -1.46699        -1.15747         1.38224
LJ          -2.05772      -0.0498767         1.02845
LJ           1.05132        0.276774        0.701956
LJ            2.4596       0.0815379        -1.83755
LJ           2.49978         1.12205         -2.1058
LJ           -2.4703        -2.17731       -0.782442
LJ          0.196458        0.723766     -0.00433761
LJ           -1.2678         2.41147        -1.24498
LJ          -2.18833         2.27674          1.4276
LJ           2.39622        0.530827      -0.0858101
LJ          0.598918        -2.12419         1.13825
LJ        -0.0982425        -1.44018       -0.132154
LJ          0.459855        -1.07466         1.68955
LJ         -0.861761        0.414535       -0.477565
LJ           2.12618         -2.4187          2.2207
LJ           1.24942         2.28144         1.63199
LJ         -0.212421       -0.143168         1.49904
LJ           0.23361         1.96683        -2.36885
LJ           -1.2117       0.0694414         1.80149
LJ          -1.07781       -0.472615       -0.933368
LJ          0.643864         1.67417       -0.283964
LJ         -0.398923        -2.45069        0.786684
LJ           1.39946         2.02284        -2.26751
LJ          -1.26805         2.10134         1.94646
LJ         -0.168789        0.740001        -1.30552
LJ          0.030423        0.890401         1.71818
LJ           1.32031        -1.70859         1.87451
LJ           1.52614       -0.446203        -1.62058
LJ          -2.21067        0.600725        -1.04922
LJ          -1.17133        0.511523        -1.55676
LJ          -2.48086       -0.535084         1.85075
