108
#Comment!
LJ           2.53666         2.56002         2.54242
LJ           -1.7376        -1.88838        -2.54812
LJ          -2.46583        -1.70472        -1.69628
LJ          -1.84101        -2.54807         -1.6927
LJ         -0.882701         2.42309         2.44114
LJ         -0.219801         -1.7938        -2.49925
LJ         -0.886855        -1.66316        -1.55048
LJ         -0.050859        -2.56254         -1.6938
LJ          0.887706         2.49721         2.52375
LJ           1.64633        -1.81376        -2.55119
LJ          0.923406        -1.54119        -1.64138
LJ            1.9069        -2.49585        -1.72066
LJ           2.40629       -0.854054        -2.55208
LJ          -1.58163       0.0900154         2.55878
LJ           2.53302       0.0506859        -1.79404
LJ          -1.78086       -0.891107        -1.73095
LJ          -1.09954       -0.901943         2.51839
LJ        0.00842009      -0.0993956         2.52162
LJ         -0.935381        0.116723        -1.71598
LJ         0.0445375       -0.875964        -1.69317
LJ          0.875228       -0.994657        -2.49714
LJ           1.84936        0.141363        -2.50806
LJ          0.754159         0.20156        -1.67746
LJ             1.679       -0.866572        -1.71967
LJ           2.54134        0.816244         2.55778
LJ          -1.75966         1.74996          2.5379
LJ          -2.53932         1.56678        -1.77345
LJ          -1.75157        0.936622        -1.64856
LJ         -0.759518        0.944872         2.30609
LJ           0.17612         1.71348         2.41571
LJ         -0.857326         1.65477        -1.66591
LJ        -0.0560007         0.88586        -1.88308
LJ          0.839599        0.929451        -2.36534
LJ           1.77549         1.73801        -2.49492
LJ           1.00356         1.79922        -1.62516
LJ           1.74631        0.890579        -1.67415
LJ          -2.49091        -2.45079       -0.836266
LJ          -1.50982        -1.72644       -0.722395
LJ           2.49492        -1.75043      -0.0143925
LJ          -1.61277         2.55112       0.0614127
LJ         -0.765883         2.55859       -0.859359
LJ        0.00503854        -1.70074       -0.900638
LJ         -0.902333        -1.72538       0.0851283
LJ        -0.0953962         2.41909     -0.00287669
LJ           0.82971         2.54931        -0.82126
LJ           1.58895        -1.81237       -0.785815
LJ          0.764401        -1.80761        0.148923
LJ           1.67303        -2.51146      -0.0921474
LJ          -2.55136       -0.861505       -0.836833
LJ          -1.91981         0.15378       -0.770209
LJ           2.45132      -0.0505608      -0.0624583
LJ          -1.70126       -0.918018      -0.0349596
LJ          -0.90298       -0.760041       -0.793384
LJ        -0.0660671     -0.00855282       -0.834922
LJ         -0.897204      -0.0109089      -0.0530516
LJ        -0.0320931       -0.686253      -0.0259056
LJ           0.89009       -0.894423       -0.720412
LJ           1.68565       -0.186149       -0.837947
LJ          0.937564      -0.0621878       -0.119712
LJ           1.70295       -0.968019       -0.078426
LJ          -2.47362         1.02869       -0.816248
LJ          -1.72686         1.77125       -0.954771
LJ          -2.48794         1.73829        0.102609
LJ          -1.66698        0.931903         0.12984
LJ         -0.871217         0.80857       -0.677573
LJ         -0.127734         1.71685       -0.980611
LJ         -0.877107         1.78068       -0.196162
LJ        -0.0864841        0.922211       0.0308988
LJ          0.686379        0.921492       -0.817528
LJ           1.72563         1.88708       -0.883605
LJ          0.690582         1.75572       -0.138052
LJ           1.69136        0.733051       0.0425418
LJ           2.48495         2.51197        0.991822
LJ          -1.62001        -1.73374        0.920666
LJ            2.3149        -1.69339         1.69568
LJ          -1.88827         2.56491         1.65615
LJ         -0.864973         2.43293        0.772388
LJ         0.0475969        -1.73749        0.912725
LJ         -0.877604        -1.67156         1.73626
LJ          0.056554        -2.51865         1.88423
LJ           1.04837         2.44765        0.994913
LJ           1.67804        -1.77951        0.829748
LJ          0.922302        -1.60127         1.63943
LJ           1.67621        -2.52196         1.74507
LJ           2.37808       -0.587636         0.90972
LJ          -1.73021      -0.0401331        0.816157
LJ          -2.48987      -0.0058759         1.97746
LJ          -1.76039       -0.912187         1.73508
LJ         -0.747925       -0.897599        0.842962
LJ         0.0610105      -0.0145275         0.85081
LJ         -0.702576       0.0317747         1.74603
LJ        -0.0331517       -0.893606         1.60792
LJ          0.743254       -0.936955        0.752055
LJ           1.63785      -0.0569442        0.730882
LJ          0.870973        -0.16672         1.73748
LJ           1.71981       -0.857125         1.73638
LJ            2.4713        0.898649        0.789691
LJ          -1.77173         1.71367        0.812532
LJ           2.55716         1.72415         1.77041
LJ           -1.7035        0.742009         1.72475
LJ         -0.880744        0.650293        0.833967
LJ        -0.0154505         1.58492        0.956175
LJ         -0.830495         1.76154         1.65978
LJ        -0.0194297        0.800868          1.5303
LJ          0.897102        0.757264        0.805618
LJ           1.74372          1.6767         0.72806
LJ           0.80823         1.60453         1.67496
LJ            1.6437         1.04804         1.65315
