108
#Comment!
LJ          -2.53239        -2.37104         2.52063
LJ           -1.7914        -1.52803         2.52789
LJ          -2.29538        -1.62174        -1.83396
LJ            -1.512          -2.397        -1.82815
LJ         -0.836531         2.37129        -2.52808
LJ        -0.0887155        -1.59469         2.45176
LJ         -0.943198        -1.55731        -1.93257
LJ         0.0696436         2.43672        -1.88866
LJ            1.0246        -2.36203        -2.48252
LJ           1.72902        -1.62236         2.39424
LJ           1.25231        -1.68752        -1.68626
LJ           1.90826         2.45741         -1.5532
LJ           2.45369       -0.627455         2.55074
LJ          -1.81739     -0.00948693         2.36633
LJ           -2.3831      -0.0763404        -1.86005
LJ          -1.59545       -0.597722        -1.62847
LJ          -1.07078       -0.752562        -2.48443
LJ       0.000370587       -0.195724        -2.43847
LJ         -0.773402        0.128812        -1.76808
LJ         0.0768886       -0.926105        -1.63717
LJ          0.798776       -0.966821         2.55993
LJ           1.65718      -0.0136303        -2.42547
LJ          0.739554        0.158421        -1.68397
LJ           1.54298       -0.702683        -1.57658
LJ          -2.55538        0.940612        -2.44439
LJ          -1.74161         1.99688         2.39407
LJ           -2.4997         1.69779        -1.52225
LJ           -1.6123        0.714392        -2.01394
LJ         -0.510436        0.772296         2.53918
LJ         0.0870207         1.73388         2.35672
LJ          -1.24702         1.71061        -1.64702
LJ        -0.0556365         1.04938        -1.69995
LJ           1.12964        0.981852        -2.54827
LJ           1.79728         1.86912         2.48754
LJ          0.976571         1.89718        -1.84392
LJ           1.75726        0.810686        -1.73504
LJ           2.50929         2.52907        -0.72161
LJ          -1.46499        -1.74906       -0.894107
LJ          -2.35151        -1.64679       -0.186736
LJ          -1.62189         2.48373       0.0921265
LJ         -0.621452        -2.46505        -1.05163
LJ         0.0247442        -1.79222       -0.756377
LJ         -0.726166        -1.75462      -0.0655646
LJ        -0.0405074         2.33053        0.156238
LJ          0.697034         2.56257       -0.871976
LJ           1.89026        -1.54098       -0.922697
LJ          0.802281        -1.89958        0.221243
LJ             1.624        -2.47056    -0.000896056
LJ          -2.41807       -0.840232       -0.817095
LJ          -1.80703        0.114441        -0.95827
LJ          -2.36909       0.0886285       0.0275293
LJ          -1.62857       -0.761058      -0.0133774
LJ          -0.74203       -0.707579       -0.724195
LJ         -0.112643        0.137373       -0.989559
LJ         -0.637649      -0.0685625       0.0940302
LJ        -0.0564048       -0.843402        0.122416
LJ          0.888488        -1.18344       -0.722372
LJ           1.84642       -0.234403       -0.598688
LJ          0.725558       0.0967163        0.108611
LJ           1.95913        -1.02027      -0.0415651
LJ           2.48749        0.797525        -0.81398
LJ           -1.7532         1.67188       -0.751532
LJ           2.46319         1.63721     -0.00505664
LJ          -1.84473         1.05472        0.152511
LJ          -1.11445        0.739188       -0.937788
LJ          0.169943         1.71854       -0.881804
LJ           -0.8388         1.72105      -0.0724619
LJ         0.0500022        0.828397        -0.19287
LJ          0.929441        0.971949         -0.8976
LJ           1.74814         1.70527       -0.858051
LJ          0.877403         1.76106       -0.105527
LJ           1.59505        0.883879        0.154355
LJ           2.55667         2.47093        0.599192
LJ          -1.54387        -1.79911         0.80118
LJ          -2.48611        -1.46431         1.58212
LJ          -1.99849        -2.36737         1.68111
LJ         -0.814574         2.43762         1.01983
LJ         0.0504385        -1.49427         1.05183
LJ          -1.01603        -1.69008         1.79751
LJ         0.0611642        -2.20352         1.72985
LJ          0.838201         2.39493        0.898898
LJ           1.68834        -1.55518         1.08435
LJ          0.860126        -1.68334         1.78193
LJ           1.80227         -2.5076         1.49918
LJ            -2.448       -0.837069        0.697588
LJ          -1.58281       0.0866377        0.862138
LJ            2.3963      0.00575424         1.62489
LJ          -1.69775       -0.919856          1.6292
LJ         -0.843236       -0.876526         1.03604
LJ           0.15699       -0.114747        0.915975
LJ            -0.999        0.053366         1.79881
LJ          0.254988       -0.715585         1.69286
LJ          0.912603       -0.918231        0.663991
LJ           1.79987       -0.339866        0.808468
LJ          0.865501       0.0539682           1.807
LJ           1.50459       -0.720049         1.77587
LJ           2.26296        0.994675         1.04045
LJ          -1.79514         1.73484         1.05476
LJ           2.52279         1.91102         1.64052
LJ          -1.84866        0.794544         1.66395
LJ         -0.917021        0.925005        0.701898
LJ          0.357379         1.38697        0.741054
LJ         -0.673023         1.34966         1.66647
LJ           0.13662        0.826008         1.55327
LJ           1.19262        0.652292         1.02094
LJ           1.50315         1.67991        0.717531
LJ            1.0311         1.63872          1.6968
LJ           1.85823         1.15196         1.89005
