108
#Comment!
LJ           2.51934         2.56087         2.49884
LJ          -1.73303        -1.83173        -2.56204
LJ          -2.45786        -1.75675        -1.69407
LJ           -1.8146        -2.55457        -1.72614
LJ         -0.831393         2.46199         2.48213
LJ         -0.231413        -1.76931          -2.495
LJ         -0.868209         -1.6713        -1.58073
LJ        -0.0449797        -2.51499        -1.64519
LJ          0.908678         2.46298         2.52249
LJ           1.60115        -1.83488         2.54927
LJ          0.875125         -1.5242        -1.65094
LJ           1.86485        -2.50284        -1.71549
LJ           2.41142       -0.874853         2.56209
LJ          -1.58706       0.0794932         2.51341
LJ           2.51669        0.046304        -1.76557
LJ          -1.76329       -0.899648        -1.73695
LJ          -1.05091       -0.936515          2.5508
LJ         0.0255702       -0.103712         2.50252
LJ         -0.917249        0.138437        -1.74864
LJ         0.0653924       -0.906317        -1.73134
LJ          0.875874       -0.990366         -2.4954
LJ           1.79769         0.14255        -2.52155
LJ          0.725025        0.159516        -1.68766
LJ           1.66307       -0.855391        -1.69041
LJ           2.51206        0.805841         2.51113
LJ          -1.77472         1.68202         2.52067
LJ          -2.54442         1.57162        -1.78394
LJ          -1.74985        0.925613         -1.6228
LJ         -0.799721        0.979289         2.30383
LJ          0.168478          1.6449         2.42913
LJ         -0.847963         1.72739         -1.6513
LJ        -0.0297819        0.899429          -1.891
LJ          0.875393        0.939845        -2.39317
LJ           1.83836         1.76638        -2.52776
LJ          0.996916         1.82527        -1.66917
LJ           1.72278        0.830332        -1.69468
LJ          -2.54512        -2.48322        -0.90169
LJ          -1.52451        -1.75852        -0.76494
LJ           2.48527        -1.77298     -0.00789859
LJ          -1.64908         2.49568       0.0757008
LJ         -0.786616        -2.56061       -0.895672
LJ         0.0270587        -1.68592        -0.91057
LJ         -0.872575        -1.72518         0.08329
LJ         -0.101817         2.46734       0.0428204
LJ          0.851203         2.53314       -0.834077
LJ           1.61216        -1.78671        -0.74035
LJ          0.801847        -1.85283        0.167147
LJ           1.66103        -2.53914      -0.0637052
LJ           -2.5384       -0.865003        -0.79113
LJ          -1.94002        0.121984        -0.77562
LJ           2.43959      -0.0443188      -0.0692471
LJ          -1.72909       -0.928164      -0.0445499
LJ          -0.93009       -0.751115       -0.780367
LJ        -0.0609427       -0.047196       -0.832632
LJ         -0.936717      -0.0262652     -0.00704687
LJ        -0.0862723       -0.714776     0.000632636
LJ          0.873794       -0.869898       -0.770605
LJ           1.72569       -0.174259       -0.864481
LJ          0.929715      -0.0571495        -0.14818
LJ           1.69463       -0.926361       -0.133944
LJ          -2.42419         1.00109       -0.862218
LJ          -1.79005         1.80849       -0.960389
LJ          -2.47947         1.75925        0.110531
LJ          -1.67951        0.935547        0.129327
LJ         -0.854019        0.778701       -0.697993
LJ         -0.144817         1.71189        -0.93058
LJ         -0.931334         1.76796       -0.162045
LJ        -0.0707194        0.916312       0.0606254
LJ          0.684491        0.901152       -0.869187
LJ           1.69153         1.87781       -0.882649
LJ          0.653407         1.72767       -0.188186
LJ           1.70609        0.728254       0.0498179
LJ            2.5197         2.51043        0.968015
LJ          -1.63292        -1.75287        0.976225
LJ            2.2615        -1.68187         1.72408
LJ          -1.88065        -2.54146         1.65066
LJ         -0.860382         2.42498        0.808064
LJ         0.0731844        -1.79184        0.914222
LJ         -0.893299        -1.66211         1.75077
LJ         0.0425534        -2.51684         1.87955
LJ           1.06416         2.44949        0.931085
LJ           1.70232        -1.80549         0.82095
LJ          0.972907        -1.60805         1.65845
LJ           1.69461        -2.49439         1.76454
LJ           2.38231       -0.630586        0.951769
LJ          -1.70605      -0.0023729        0.794743
LJ          -2.45685     -0.00257484          1.9244
LJ          -1.77483       -0.900351         1.77124
LJ         -0.774469        -0.91248        0.816286
LJ         0.0922483      -0.0133476        0.858766
LJ         -0.708173       0.0250081           1.746
LJ         0.0125661       -0.895032         1.64298
LJ          0.808648       -0.913413        0.770265
LJ           1.61922      -0.0409103        0.742301
LJ          0.871707        -0.15063         1.71004
LJ           1.72261       -0.850718         1.73617
LJ           2.50977        0.932103        0.757862
LJ          -1.81054         1.70133        0.862454
LJ          -2.54282         1.77307         1.73879
LJ          -1.65156        0.790688         1.79243
LJ         -0.844318        0.658975        0.801865
LJ        -0.0622701         1.62966        0.933283
LJ         -0.860997         1.77954          1.7165
LJ         0.0342375        0.753327         1.57179
LJ          0.879564        0.710824        0.819509
LJ           1.74771         1.66254        0.724383
LJ          0.839561         1.57362         1.66305
LJ           1.67867         1.02309         1.69475
