108
#Comment!
LJ          -2.51327        -2.47033         2.37862
LJ          -1.71751        -1.64926         2.52514
LJ          -2.39264        -1.51776        -1.79484
LJ          -1.76591         2.50507         -1.6363
LJ         -0.838009         2.51208        -2.49517
LJ        -0.0957727        -1.96264         -2.4841
LJ          -1.10714        -1.54731        -1.77037
LJ        -0.0554132         2.19542        -1.80231
LJ          0.784167         2.50939         2.41978
LJ           1.78734        -1.73781        -2.53392
LJ          0.699543        -1.86096        -1.76328
LJ           2.03387         2.46195        -1.73658
LJ           2.48316       -0.763384         2.52249
LJ          -1.73853       0.0559308        -2.54855
LJ           2.46397       0.0620397        -1.84155
LJ          -1.75749       -0.570583        -1.63324
LJ          -1.07209       -0.735612        -2.44544
LJ         -0.127881        -0.15899        -2.50187
LJ         -0.907986       0.0233068        -1.78464
LJ         -0.108931        -1.07246        -1.86123
LJ          0.861699        -1.12906        -2.52501
LJ           1.69534     -0.00489071         2.48649
LJ          0.894079        0.122152        -1.80577
LJ           1.68532       -0.648071         -1.7425
LJ           2.54452        0.921241         2.51332
LJ          -1.72641         1.89562         2.45887
LJ          -2.37101         1.60272        -1.64176
LJ          -1.56948        0.771736        -1.79332
LJ         -0.573944        0.899459         2.50102
LJ         0.0674937         1.73417         2.31539
LJ          -1.02518         1.66271        -1.71018
LJ         0.0419321         1.11426        -1.82717
LJ          0.811882        0.930059         2.51392
LJ           1.74557         1.80836         2.42442
LJ          0.936365          1.9497        -1.87548
LJ           1.57018         1.05399        -1.66466
LJ           2.49006         2.44654       -0.786908
LJ          -1.44494        -1.71327        -0.84377
LJ          -2.29359         -1.8858       -0.191837
LJ          -1.74287         2.42647      -0.0596782
LJ         -0.803253         2.53605       -0.997718
LJ          0.194286         -1.6956        -0.83209
LJ          -0.66772        -1.96238       -0.150659
LJ          -0.16395         2.30767       0.0418906
LJ          0.832954        -2.50173       -0.897579
LJ           1.89219        -1.79489        -1.06199
LJ          0.702146        -1.92166        0.283321
LJ           1.70494        -2.48697      -0.0719573
LJ          -2.44789       -0.898951       -0.722724
LJ          -1.92951       0.0479879       -0.803304
LJ          -2.49463        0.187078      5.2548e-05
LJ          -1.78725       -0.819538        0.133161
LJ         -0.636856       -0.870555       -0.709497
LJ        -0.0911585        0.324178       -0.976367
LJ         -0.691629       0.0968025      -0.0600175
LJ         -0.103924        -0.67549          0.1512
LJ          0.949828       -0.986667       -0.667189
LJ           1.86613      -0.0631301       -0.600053
LJ          0.680812       0.0427469       0.0905441
LJ           1.80533        -1.21729      -0.0869687
LJ           -2.4956        0.973538       -0.788834
LJ          -1.63696         1.82962       -0.824704
LJ           2.46961          1.6406      -0.0288751
LJ          -1.84115         1.14665        0.340251
LJ          -1.10719        0.759748        -0.85115
LJ          0.063113         1.64778        -1.02534
LJ         -0.859762         1.49411      -0.0729459
LJ         0.0190215        0.914276       -0.256203
LJ          0.950832        0.967089       -0.774144
LJ           1.67936         1.76783       -0.809829
LJ          0.755367         1.94681      -0.0193546
LJ           1.64427        0.894886      -0.0196442
LJ           2.45373         2.30702        0.719521
LJ          -1.34801        -1.77208        0.762579
LJ            2.5398        -1.57463          1.7321
LJ          -2.08424        -2.41512         1.42176
LJ         -0.808517         2.49975         1.03718
LJ         0.0774857        -1.50234        0.993145
LJ         -0.940553        -1.83938          1.8505
LJ         0.0634489        -2.34269         1.69987
LJ          0.812594          2.3554         1.00186
LJ           1.93662        -1.61998        0.813215
LJ          0.996951        -1.79045         1.75356
LJ           1.75731        -2.40667         1.64345
LJ           2.50992       -0.645977        0.844062
LJ          -1.60303       0.0831711        0.816756
LJ           2.44302         0.04266         1.74471
LJ          -1.74014       -0.769125         1.74181
LJ          -0.74403        -1.04514         1.01296
LJ          0.155231      -0.0903398         1.06992
LJ         -0.930432        0.160953         1.98951
LJ          0.170315       -0.928909         1.88672
LJ          0.988076           -1.02        0.802694
LJ            1.5835       -0.125716        0.651417
LJ          0.710786      -0.0168364         2.04476
LJ           1.53205       -0.810738         1.79605
LJ           2.24911        0.800566        0.793644
LJ           -1.6635         1.88798        0.947958
LJ           2.46394         1.55809         1.47401
LJ          -1.79982        0.913766         1.56931
LJ         -0.850683        0.766856         0.80468
LJ          0.238309         1.43653        0.765658
LJ         -0.907704         1.46636         1.55921
LJ          0.187637        0.886355         1.62121
LJ           1.11017        0.724065         1.02057
LJ           1.52257         1.64428        0.637288
LJ            0.9139         1.51108         1.64917
LJ           1.65886        0.853011         1.86894
