108
#Comment!
LJ           2.38586        -2.52433        -2.53155
LJ          -1.66947        -1.83681         2.48571
LJ          -2.50979        -1.74614        -1.67214
LJ          -1.85275          2.5173        -1.74257
LJ         -0.861307         2.55787         2.47869
LJ         -0.146301        -1.87428        -2.51778
LJ         -0.891116        -1.55866        -1.65232
LJ         0.0750439         2.39841        -1.80395
LJ          0.895119         2.51088        -2.37533
LJ           1.70717        -1.68126         -2.5102
LJ          0.819967        -1.52962        -1.53212
LJ           1.93276        -2.46789        -1.60509
LJ           2.46021       -0.939634         -2.5091
LJ           -1.6374       0.0990862         2.54238
LJ          -2.42441        0.144696         -1.8164
LJ          -1.85204       -0.908512        -1.57109
LJ          -1.02255       -0.931731         2.51604
LJ        -0.0118773      -0.0458179         2.53651
LJ         -0.774171        0.140023        -1.77075
LJ          0.102775       -0.846531          -1.736
LJ           1.02579       -0.992505        -2.52999
LJ           1.78987         0.12792         2.49987
LJ          0.695298        0.150824        -1.61722
LJ           1.56885       -0.864475        -1.73206
LJ            -2.523         0.90392         2.47304
LJ          -1.82102         1.86619         2.49258
LJ           2.56201         1.60177        -1.80761
LJ          -1.72157        0.875378        -1.75529
LJ         -0.616855         1.00823         2.27865
LJ          0.127162         1.65581         2.36703
LJ         -0.795504         1.63126        -1.70587
LJ         -0.093381        0.861595        -1.74904
LJ          0.787581        0.829565        -2.44049
LJ           1.77324         1.81952        -2.52843
LJ          0.983333         1.70416        -1.53466
LJ           1.74032        0.826527        -1.72507
LJ          -2.45939         2.55135       -0.861528
LJ          -1.54741        -1.80203       -0.653456
LJ           2.55574         -1.7975      -0.0641778
LJ          -1.77103         2.43837      0.00171311
LJ         -0.756023         2.52926       -0.810798
LJ        -0.0407422        -1.71913       -0.873853
LJ         -0.750841        -1.75907       0.0628021
LJ         -0.119085         2.35715      -0.0247393
LJ          0.998978         2.56145       -0.890862
LJ           1.68469        -1.71102       -0.798315
LJ          0.764652        -1.85907        0.118432
LJ           1.66486        -2.42597      -0.0930138
LJ          -2.51419       -0.983797       -0.773257
LJ          -1.90365        0.164707       -0.734834
LJ           2.56345       -0.013647       0.0183493
LJ           -1.7473       -0.749669      -0.0962019
LJ         -0.866705       -0.699932       -0.787839
LJ        0.00731109       0.0857389        -0.73358
LJ         -0.843293      0.00144444       0.0576458
LJ         -0.112268       -0.754687       -0.106234
LJ           0.79148       -0.756505       -0.836557
LJ           1.85604       -0.106254       -0.864915
LJ          0.946353       0.0327621       -0.127357
LJ           1.75298        -0.99127      -0.0534405
LJ          -2.52215         1.12501       -0.685653
LJ          -1.62069         1.70637       -0.959121
LJ           2.50114         1.73099        0.132352
LJ          -1.86248        0.948138       0.0762568
LJ         -0.874735        0.817787       -0.847765
LJ        -0.0258202         1.69875       -0.833923
LJ         -0.951265         1.64444       -0.224501
LJ        -0.0743367         1.02229      -0.0522262
LJ          0.702933        0.905409       -0.854949
LJ           1.95007         1.83499       -0.955946
LJ          0.730028          1.9132         -0.1226
LJ           1.76392        0.833752      -0.0935425
LJ           2.45136         2.48595        0.983069
LJ          -1.55016        -1.82279        0.981611
LJ           2.54027        -1.64577         1.70171
LJ          -1.85956          2.4642         1.59743
LJ          -0.81138         2.53747        0.805595
LJ         0.0748892        -1.70267        0.832684
LJ         -0.884737        -1.66537         1.78442
LJ          0.113833        -2.48776         1.75751
LJ           1.06912        -2.55536        0.979468
LJ           1.94618        -1.61638        0.818714
LJ           0.89522        -1.67375         1.62231
LJ           1.63233        -2.51385         1.87202
LJ           2.47757         -0.6967        0.884436
LJ          -1.87779      0.00208464        0.920907
LJ          -2.54191     -0.00519635         1.89193
LJ          -1.87529       -0.840738         1.66854
LJ          -0.66958       -0.796978        0.751345
LJ         -0.011978       -0.057162        0.827738
LJ          -0.76542       0.0915089         1.81815
LJ         0.0313972       -0.943994         1.65191
LJ          0.850365       -0.938446        0.904933
LJ           1.58356     -0.00152221        0.687893
LJ          0.790236      -0.0930499          1.8335
LJ           1.70147       -0.837124         1.66574
LJ            2.4437        0.756711        0.757041
LJ          -1.60758         1.79948        0.822633
LJ            2.5216         1.68418         1.70731
LJ          -1.67638        0.755799         1.63836
LJ         -0.873034        0.642671        0.825362
LJ         0.0302426         1.67689        0.814469
LJ         -0.797138         1.73951          1.4772
LJ         0.0386404        0.921886          1.5511
LJ          0.882921        0.860346           1.071
LJ           1.73003          1.7875         0.81195
LJ           0.97351          1.7381         1.88699
LJ           1.72198         0.96581         1.65103
