108
#Comment!
LJ           2.52953        -2.50274         2.45583
LJ          -1.67377        -1.84755         2.55982
LJ           2.53258        -1.67641        -1.58014
LJ          -1.92101         2.55565        -1.81382
LJ         -0.960606         2.53506         2.36604
LJ         -0.232156        -1.85351        -2.52293
LJ         -0.940923        -1.51548        -1.71691
LJ         0.0532401         2.38395        -1.77155
LJ          0.890227         2.49292        -2.47189
LJ           1.78426        -1.70441        -2.54238
LJ           0.83181          -1.594        -1.57289
LJ           1.94529        -2.52529        -1.60078
LJ           2.48382       -0.906446        -2.53654
LJ          -1.75822        0.177215         2.49782
LJ          -2.49427         0.20616        -1.79449
LJ          -1.80002       -0.734759        -1.48418
LJ            -1.166       -0.890311        -2.56028
LJ         0.0689627       -0.100006         2.51275
LJ         -0.844561        0.123192        -1.74201
LJ         0.0812023       -0.837116        -1.75395
LJ          0.987998        -1.00945         -2.5527
LJ           1.66327       0.0900466         2.54223
LJ          0.777948       0.0876013        -1.55713
LJ           1.67179       -0.911099        -1.75085
LJ          -2.55087        0.985273         2.41601
LJ          -1.66402         1.89185         2.51742
LJ          -2.54717         1.58327        -1.84951
LJ          -1.67261        0.924821        -1.82027
LJ         -0.705411         1.06095         2.35816
LJ         0.0523747         1.70627         2.41433
LJ         -0.727375         1.61545        -1.72416
LJ        -0.0847179        0.840966        -1.86831
LJ          0.777169        0.894272        -2.51842
LJ           1.75219           1.879          2.5387
LJ          0.976713          1.7823        -1.50191
LJ            1.7295        0.866497         -1.7422
LJ          -2.42237         2.54021       -0.830191
LJ          -1.54778        -1.82935       -0.656125
LJ           2.53183        -1.73308      -0.0515417
LJ          -1.67624          2.4672     -0.00206313
LJ         -0.825925          2.4545       -0.872988
LJ         0.0551206        -1.66579       -0.923787
LJ         -0.786651        -1.75771        0.148914
LJ         -0.217315         2.32406      0.00213579
LJ          0.938703        -2.50609       -0.951531
LJ           1.71352        -1.68157       -0.784123
LJ          0.648918         -1.9076        0.049727
LJ           1.61996         -2.4135      -0.0779977
LJ           2.49642       -0.910338       -0.763995
LJ          -1.84565         0.13356       -0.802838
LJ          -2.56173      0.00484497      -0.0142755
LJ           -1.8101       -0.779783      -0.0847954
LJ         -0.795832       -0.777691       -0.879557
LJ         -0.055062        0.178659       -0.835554
LJ         -0.885422      -0.0131958      0.00323785
LJ         -0.102035       -0.742854      -0.0660692
LJ          0.734672       -0.922148       -0.744746
LJ           1.73646       -0.114325       -0.795132
LJ          0.807361       0.0770795        -0.14683
LJ            1.7294       -0.993251      -0.0550625
LJ          -2.50812         1.04007       -0.810639
LJ          -1.58006         1.67092        -1.03842
LJ          -2.56485         1.69326       0.0611268
LJ          -1.88838         0.85202       0.0919349
LJ         -0.971804        0.827671       -0.870001
LJ        -0.0307665         1.72488       -0.939317
LJ         -0.867477          1.4658      -0.0901894
LJ         0.0154203         1.09067       0.0813204
LJ          0.766288         0.95062       -0.767974
LJ           1.88945          1.6732       -0.893062
LJ          0.749123         1.85889      -0.0356811
LJ           1.74697        0.877373       -0.130294
LJ            2.4557        -2.55736         1.02351
LJ          -1.51594        -1.81224         1.02556
LJ          -2.52105        -1.56361         1.82805
LJ          -1.89957         2.51045         1.61966
LJ         -0.717769         2.53507        0.872282
LJ          0.166149        -1.67697        0.946018
LJ         -0.958027        -1.67934         1.77041
LJ         0.0683754         -2.4644         1.76723
LJ           1.11303        -2.49428        0.996937
LJ           1.83219        -1.50732        0.917324
LJ          0.855222        -1.60728          1.7026
LJ           1.59916        -2.41996          1.8429
LJ           2.51966       -0.657054        0.899293
LJ           -1.8877       0.0145366        0.824693
LJ          -2.55223      -0.0257656         1.91754
LJ          -1.67593       -0.922911         1.64947
LJ         -0.640292       -0.852614        0.865823
LJ       -0.00930403       -0.042493        0.819682
LJ         -0.772548        0.120389         1.90377
LJ          0.124387       -0.899718         1.58556
LJ           0.89132       -0.938833        0.938342
LJ           1.60957      -0.0633967        0.657437
LJ          0.840448      -0.0664119         1.90386
LJ           1.63523       -0.889701           1.752
LJ           2.36853        0.730109         0.74068
LJ          -1.55312         1.90662        0.902629
LJ            2.4965         1.65614         1.64065
LJ          -1.56526        0.813338         1.64194
LJ          -0.96714        0.681593        0.830179
LJ         0.0602346         1.67674         0.81631
LJ         -0.769793         1.70909         1.48308
LJ        -0.0152648        0.856868         1.63373
LJ          0.791715        0.814706         1.02859
LJ           1.80573          1.7243        0.792649
LJ           1.00748         1.59211         1.84158
LJ           1.69422        0.932027         1.65546
