108
#Comment!
LJ           2.39941         2.55118         2.48406
LJ          -1.69363        -1.90605        -2.54934
LJ          -2.51219        -1.69557        -1.78091
LJ           -1.8139         2.50283        -1.70736
LJ         -0.936396         2.38286         2.47154
LJ         -0.168314        -1.82713        -2.46829
LJ          -0.81577        -1.63752        -1.59539
LJ        -0.0159242          2.5343        -1.64418
LJ          0.902833         2.52408        -2.49116
LJ           1.63915        -1.79765        -2.53153
LJ          0.810681        -1.50272        -1.61537
LJ           1.85989        -2.42043        -1.69589
LJ           2.46935       -0.901619         2.49637
LJ          -1.62089       0.0441923         2.54662
LJ          -2.52494         0.15957        -1.81295
LJ          -1.80846       -0.975699        -1.72717
LJ          -1.14964       -0.813765         2.49766
LJ         0.0339983       -0.121346         2.51091
LJ         -0.784473       0.0541613        -1.71705
LJ         0.0326558       -0.820531        -1.64863
LJ          0.869478        -0.91141         2.55917
LJ            1.7893        0.139025        -2.54219
LJ          0.708856        0.184062        -1.61903
LJ            1.6795       -0.799814        -1.71087
LJ          -2.53166        0.852788         2.53282
LJ          -1.75969         1.77691         2.52096
LJ           2.56048         1.65411         -1.8001
LJ          -1.75647        0.913446        -1.71569
LJ         -0.661547         1.03465         2.29752
LJ          0.174429         1.74908         2.38972
LJ         -0.875147         1.65269        -1.59757
LJ        -0.0892609        0.943496        -1.80963
LJ          0.747414        0.947166        -2.34174
LJ           1.79195         1.73556         -2.5242
LJ          0.927293         1.77892        -1.59293
LJ           1.75105        0.875342        -1.71354
LJ          -2.48662        -2.42976       -0.785888
LJ          -1.46462        -1.72573       -0.750335
LJ           2.48168        -1.85257      0.00196119
LJ          -1.57788          2.4795      -0.0110222
LJ         -0.780465         -2.5454       -0.778731
LJ        -0.0474741        -1.75049        -0.98331
LJ         -0.844001        -1.77057        0.161466
LJ         -0.146507         2.42017      -0.0144189
LJ          0.831695         2.51414       -0.814968
LJ           1.56805        -1.80178       -0.803768
LJ          0.729525        -1.78062        0.130444
LJ           1.65546        -2.48598      -0.0749021
LJ          -2.48911       -0.911721       -0.764143
LJ          -1.97654        0.196742       -0.821111
LJ           2.51951       0.0410111       -0.027903
LJ          -1.63647        -0.86621       -0.057084
LJ         -0.924824        -0.69462       -0.830031
LJ         -0.053273      -0.0124932       -0.750386
LJ          -0.86431       0.0154348      -0.0696885
LJ        -0.0462732       -0.669793      -0.0533894
LJ          0.963615       -0.822835       -0.742459
LJ           1.75008       -0.151662       -0.835472
LJ          0.895656      -0.0327486      -0.0580638
LJ           1.71047        -1.00813       -0.150782
LJ           2.55771         1.05978       -0.851826
LJ          -1.72649         1.73846       -0.998022
LJ           2.54321         1.77075         0.14576
LJ          -1.79156         0.90282       0.0853663
LJ         -0.767543        0.724844       -0.816174
LJ         -0.144168         1.68772       -0.937157
LJ         -0.893887         1.70705       -0.190429
LJ         -0.118976        0.998649      -0.0767229
LJ          0.691202        0.947873       -0.804876
LJ            1.7662         1.90981       -0.902274
LJ          0.647102         1.79033      -0.0523285
LJ           1.60229        0.756369       0.0604021
LJ           2.53512         2.50416        0.868876
LJ          -1.59492        -1.70014        0.926074
LJ           2.39693        -1.70267         1.70713
LJ          -1.83367         2.52098         1.66118
LJ         -0.796802         2.47472        0.788439
LJ       -0.00323699        -1.70163        0.816111
LJ         -0.879541        -1.73684         1.73769
LJ          0.147794        -2.51451         1.84201
LJ           1.08328         2.49158         1.00832
LJ            1.7209         -1.7611        0.853523
LJ          0.940753        -1.58674         1.65188
LJ           1.67028        -2.48172         1.81317
LJ           2.49146       -0.601101        0.880703
LJ          -1.80271    -0.000526453        0.871874
LJ          -2.43942      0.00367541         1.94354
LJ           -1.7932       -0.833936         1.61779
LJ         -0.671977       -0.889633        0.786201
LJ         0.0735804      -0.0381637        0.805109
LJ         -0.634933       0.0996223         1.76294
LJ         0.0329705       -0.904069         1.60034
LJ          0.772775       -0.879356        0.842345
LJ           1.59117      0.00566287        0.721819
LJ          0.796486       -0.167586         1.80117
LJ           1.67332       -0.926628         1.72495
LJ           2.37656        0.928621        0.857521
LJ          -1.79968          1.7413        0.819857
LJ          -2.54909         1.70742         1.82113
LJ          -1.78983        0.779908         1.64233
LJ         -0.835844         0.71477        0.861492
LJ        -0.0763234         1.63648        0.889579
LJ         -0.872297         1.71975         1.63439
LJ         0.0263069        0.812389         1.57694
LJ          0.820707         0.77554        0.851543
LJ           1.74654         1.79624        0.835365
LJ          0.847473           1.595         1.68152
LJ           1.69225           1.058         1.66559
