108
#Comment!
LJ           2.55703        -2.40904         2.50106
LJ          -1.70148        -1.62095         2.43873
LJ          -2.55883        -1.71102        -1.71543
LJ          -1.79117        -2.45578        -1.70983
LJ         -0.810489         2.51589         2.48371
LJ         0.0565058        -1.98822          -2.458
LJ          -1.01645        -1.45646        -1.61987
LJ        0.00288991         2.35617        -1.73271
LJ           1.00181         2.41998         2.55294
LJ           1.73764        -1.83592         2.50812
LJ           1.00246         -1.7985        -1.76005
LJ           1.91015         2.55498        -1.66223
LJ           2.46566       -0.798455         2.53438
LJ           -1.9196      -0.0146508         2.52971
LJ           2.46247        0.122198         -1.9621
LJ          -1.69854       -0.509264        -1.51376
LJ          -1.12096       -0.779198        -2.44359
LJ       -0.00366787       -0.195283        -2.48434
LJ         -0.736131     -0.00601744        -1.75906
LJ         -0.119877        -1.16032        -1.90509
LJ          0.899752        -1.09625        -2.50001
LJ           1.63801      -0.0218688        -2.47769
LJ          0.810556       0.0946131        -1.73383
LJ           1.67255       -0.659977        -1.71864
LJ          -2.40573         1.01492         2.48551
LJ          -1.71298         1.91027        -2.55756
LJ          -2.51322         1.73351         -1.6326
LJ          -1.52905        0.804925         -1.8523
LJ         -0.650849         1.04994         2.48397
LJ          0.151986         1.80756         2.43069
LJ         -0.840933         1.63002        -1.72776
LJ         0.0240958         1.04917        -1.83874
LJ          0.943445        0.904778        -2.53996
LJ           1.93937         1.81921         2.47603
LJ          0.951754         1.84902        -1.64641
LJ           1.68176         0.89519        -1.70109
LJ           2.39987         2.39483       -0.777243
LJ          -1.49052        -1.78977       -0.765352
LJ          -2.47028         -1.8664      -0.0753943
LJ          -1.60483         2.52025      -0.0450509
LJ         -0.861184         2.55379        -1.11457
LJ          0.159995        -1.73957       -0.939437
LJ         -0.540214        -1.78878      0.00153831
LJ         -0.258717         2.41942       0.0451397
LJ          0.878681        -2.54281       -0.900666
LJ           1.72017        -1.72561       -0.969588
LJ          0.663824        -2.00096         0.12276
LJ            1.6772        -2.39579      -0.0411257
LJ          -2.48241       -0.884298       -0.678243
LJ          -1.90627       0.0384801       -0.723599
LJ           2.52137       0.0834454       0.0327147
LJ           -1.6832       -0.938252        0.032944
LJ         -0.579801       -0.876185       -0.733346
LJ        -0.0634018        0.182975        -1.02424
LJ         -0.821796      -0.0789718        -0.13271
LJ         0.0765739       -0.743279        0.280334
LJ          0.877161       -0.961062       -0.652014
LJ            2.0411      0.00392293       -0.848194
LJ          0.731499      0.00508662      -0.0337943
LJ           1.68022       -0.956494       -0.105436
LJ          -2.44784        0.988198        -0.89363
LJ          -1.53766         1.80233       -0.826715
LJ           2.36728         1.77636       0.0280674
LJ          -1.95678        0.964499       0.0878641
LJ          -1.04463        0.695824       -0.971389
LJ         0.0700087         1.83144       -0.834585
LJ         -0.773973         1.47053      -0.0901813
LJ       -0.00678773        0.852263       0.0349956
LJ          0.770899        0.966878       -0.680223
LJ           1.62558         1.62991       -0.892059
LJ          0.828649          1.9587        -0.08034
LJ           1.67136        0.861258       -0.172527
LJ           2.48107         2.38266        0.885123
LJ          -1.39177        -1.78308        0.690589
LJ           2.52476        -1.51219         1.79688
LJ          -2.06372        -2.50257         1.68457
LJ         -0.677098         2.53963         1.08843
LJ           0.16124        -1.65482        0.948336
LJ         -0.883778        -1.75268         1.69315
LJ         0.0625595        -2.35805         1.76556
LJ          0.910427         2.32928        0.921839
LJ           1.91245        -1.52106        0.725299
LJ          0.974004        -1.75916         1.72831
LJ           1.72004        -2.54698         1.70212
LJ           2.50769       -0.617962        0.928136
LJ          -1.70307     -0.00134357        0.799747
LJ           2.50168     -0.00156235         1.79147
LJ          -1.83498       -0.794216         1.66676
LJ         -0.720058       -0.900948         1.06818
LJ        0.00606091      0.00349177        0.949753
LJ         -0.841972         0.15363         2.03944
LJ          0.208351       -0.946609         1.87387
LJ          0.996356        -1.06174        0.740701
LJ           1.63002       -0.167015        0.752248
LJ          0.907312        0.077688         1.87258
LJ           1.56787       -0.877169         1.75707
LJ            2.3557        0.798118        0.906659
LJ          -1.52219         1.95739        0.778172
LJ           2.42189          1.6476         1.58606
LJ          -1.79782        0.922889         1.53244
LJ         -0.874501        0.627241        0.875905
LJ          0.285266         1.49236        0.755856
LJ         -0.833026         1.67017         1.58741
LJ        -0.0266997        0.850844         1.62423
LJ           0.98955        0.746153        0.831261
LJ           1.57449         1.67654        0.565739
LJ          0.827158         1.55744         1.73082
LJ           1.94631        0.826983          1.7428
