108
#Comment!
LJ          -2.44171        -2.43411         2.48814
LJ           -1.7718        -1.54536         2.55599
LJ          -2.37004        -1.57743        -1.78648
LJ          -1.54801        -2.48407        -1.80518
LJ         -0.839038         2.42205        -2.54165
LJ          -0.18741        -1.60571         2.47038
LJ         -0.985741        -1.61904        -1.82494
LJ         0.0232084         2.45462        -1.92297
LJ          0.899711        -2.40973         2.53353
LJ           1.72733        -1.62496         2.44757
LJ           1.13309        -1.84318        -1.71879
LJ           1.91481         2.41794        -1.60911
LJ           2.50207       -0.626157          2.5095
LJ           -1.8308      -0.0543508         2.33716
LJ          -2.48901       -0.035856        -1.81365
LJ          -1.54943       -0.574161        -1.66253
LJ          -1.09064       -0.692909        -2.53672
LJ       -0.00431996       -0.241233        -2.44696
LJ         -0.834662       0.0290051        -1.77913
LJ          0.133017        -1.02261        -1.72971
LJ          0.769236        -0.99083         2.54238
LJ           1.73893      -0.0987435        -2.40283
LJ          0.766576        0.190229        -1.66599
LJ           1.54456       -0.774927        -1.59256
LJ          -2.49116        0.958244        -2.46666
LJ          -1.79987         1.93313          2.3646
LJ          -2.47662         1.65992        -1.51127
LJ          -1.66794        0.756256        -2.02696
LJ         -0.458634        0.717763         2.54657
LJ          0.149934         1.67375         2.37414
LJ          -1.21347         1.62148        -1.63891
LJ        -0.0631935         1.09171        -1.69601
LJ           1.14982        0.962441         2.55509
LJ           1.80852          1.7914        -2.54508
LJ          0.989184         1.81864        -1.92156
LJ           1.66733         0.80093        -1.67739
LJ           2.52348         2.45671       -0.744427
LJ          -1.43725        -1.69034       -0.822088
LJ          -2.37897        -1.70715      -0.0844976
LJ          -1.54183         2.54184        0.173655
LJ         -0.630374        -2.49302        -1.09772
LJ         0.0730006        -1.78837       -0.784675
LJ         -0.734164        -1.76598      -0.0944562
LJ        -0.0490531         2.34198        0.167582
LJ          0.680453        -2.53824       -0.877097
LJ           1.95115        -1.65804       -0.937626
LJ          0.764177        -1.88103        0.214371
LJ           1.61032        -2.46451      -0.0218269
LJ          -2.47231       -0.864305       -0.839212
LJ          -1.94883        0.120624       -0.945677
LJ          -2.40871        0.116883       0.0352698
LJ          -1.69957       -0.725731       0.0125825
LJ         -0.826512        -0.79766       -0.862848
LJ         -0.147876      0.00980612       -0.995442
LJ         -0.661842      -0.0304428       0.0975369
LJ         0.0159403       -0.794572        0.112788
LJ          0.974394        -1.22116       -0.731273
LJ            1.8333       -0.183078       -0.645328
LJ          0.823138       0.0964446        0.101875
LJ            1.9361        -1.07488      -0.0443863
LJ           2.51273        0.891307       -0.793806
LJ           -1.8113         1.67873       -0.744672
LJ           2.42339         1.51805       0.0581412
LJ          -1.84663          1.0579        0.194513
LJ           -1.0785        0.725923        -1.00812
LJ          0.172579         1.70087       -0.902309
LJ         -0.828599         1.73936       -0.167189
LJ         0.0906892        0.827111       -0.124601
LJ          0.906886        0.920917        -0.87641
LJ           1.75294         1.66442       -0.813903
LJ           1.00985          1.6328       -0.114482
LJ           1.56947        0.804711       0.0937253
LJ           -2.4974         2.43594         0.60973
LJ          -1.46654        -1.85328         0.89956
LJ          -2.51004        -1.49211         1.62061
LJ          -1.97495        -2.31403         1.62765
LJ         -0.835165         2.37402        0.961596
LJ        -0.0497602        -1.48938         1.04093
LJ         -0.997672        -1.66255         1.87043
LJ          0.167802        -2.29624         1.70208
LJ          0.846226         2.39057        0.950584
LJ           1.69751        -1.48432         1.02295
LJ          0.935506        -1.62107         1.76023
LJ           1.85577        -2.45056         1.63531
LJ          -2.46078       -0.846766        0.744929
LJ          -1.61105     0.000577865        0.774613
LJ           2.44103      -0.0456012         1.62909
LJ          -1.66857       -0.853707         1.54671
LJ         -0.907732       -0.863349        0.988506
LJ          0.179735      -0.0705076        0.862564
LJ         -0.992138      -0.0692686         1.76744
LJ          0.225971       -0.774558         1.69214
LJ          0.889402       -0.902516        0.647307
LJ           1.80586        -0.32718        0.800999
LJ          0.862973       0.0221577          1.7789
LJ           1.55774       -0.759826         1.85825
LJ           2.31637        0.948771        0.974551
LJ          -1.76617         1.85833         1.11725
LJ           2.55645         1.95497         1.61214
LJ          -1.84821        0.838089          1.6188
LJ         -0.944719        0.890439        0.620198
LJ          0.393105         1.45627        0.782213
LJ         -0.799371         1.42329         1.62832
LJ          0.136504        0.855138         1.52408
LJ           1.17679        0.737963         1.00999
LJ           1.52611         1.74725        0.777934
LJ           1.07552         1.68998         1.66741
LJ           1.89673         1.05494          1.8673
