108
#Comment!
LJ           2.54807        -2.55966         2.49733
LJ          -1.81413        -1.73425         2.47147
LJ          -2.52329        -1.68018        -1.62927
LJ          -1.77794        -2.37802        -1.76461
LJ         -0.872076         2.47898         2.53629
LJ         0.0430954        -1.98964        -2.54585
LJ         -0.896214        -1.52648        -1.54693
LJ          0.106706         2.28963          -1.687
LJ          0.990992         2.34166        -2.38655
LJ           1.81489        -1.69238        -2.55587
LJ           1.00418        -1.80998        -1.69345
LJ           1.96103        -2.54521        -1.49361
LJ           2.51682       -0.840514          2.5464
LJ          -1.76656       0.0702919         -2.5248
LJ          -2.47091        0.193383        -1.79018
LJ          -1.64704       -0.510504        -1.41553
LJ          -1.15767       -0.900242        -2.49592
LJ         -0.125733       -0.233305        -2.45615
LJ          -0.83419       0.0993971        -1.75384
LJ         -0.120137       -0.989781        -1.79993
LJ          0.965228        -1.06983        -2.46631
LJ           1.69756       0.0698195        -2.55589
LJ          0.800058      -0.0984256        -1.57474
LJ           1.71788       -0.844078        -1.73226
LJ          -2.45636          1.0545          2.3687
LJ          -1.76533         1.80152        -2.56136
LJ          -2.50927         1.72553        -1.63119
LJ          -1.50072         0.87392        -1.70228
LJ         -0.713728         1.10339         -2.5239
LJ          0.111977         1.84526         2.50293
LJ         -0.718411         1.79958         -1.7492
LJ         0.0906355        0.892067        -1.84534
LJ          0.884579        0.809525        -2.46431
LJ            1.7745         1.80683         2.42097
LJ          0.954701         1.67032        -1.57899
LJ           1.83237        0.797196        -1.74931
LJ          -2.55409         2.41067       -0.739632
LJ           -1.4927        -1.89673       -0.703429
LJ          -2.45823        -1.76186       -0.147403
LJ          -1.69342         2.47463      -0.0922632
LJ         -0.670951        -2.46353        -0.96637
LJ         0.0410258        -1.67678       -0.872747
LJ         -0.542903        -1.79836        0.018233
LJ         -0.215171         2.35695        0.118377
LJ          0.836796        -2.51856       -0.888021
LJ           1.72829        -1.72036       -0.849304
LJ          0.649186        -1.99355        0.136211
LJ           1.63606        -2.36935     -0.00379864
LJ          -2.42182       -0.945101       -0.730643
LJ          -1.90087       0.0830583       -0.639496
LJ           2.38135       0.0563335      0.00118975
LJ          -1.64351       -0.874266        0.030291
LJ         -0.616315       -0.823234       -0.802364
LJ          0.026473        0.165531        -0.89156
LJ         -0.830882      -0.0474716      -0.0906866
LJ         0.0299607       -0.801766        0.257288
LJ          0.848054        -0.84425        -0.71591
LJ           1.85908       -0.151509       -0.849324
LJ          0.820691       0.0420658       -0.112841
LJ           1.70382       -0.853643       -0.138373
LJ          -2.47914        0.936502       -0.964474
LJ          -1.61111         1.73607        -1.03043
LJ            2.5159         1.65422       0.0829042
LJ          -1.95117        0.899903       0.0992077
LJ         -0.899444        0.730195       -0.877304
LJ         -0.107959         1.53801       -0.786464
LJ         -0.900726         1.45985      -0.0322862
LJ         0.0669184         0.92684        0.188947
LJ          0.806243         1.01749       -0.643475
LJ           1.74553          1.6321        -0.88459
LJ          0.799414         1.96559       0.0436489
LJ           1.74457          0.8459       -0.141068
LJ           2.52058        -2.50843        0.780866
LJ          -1.51879        -1.70798        0.713843
LJ           2.50268        -1.46388         1.68779
LJ          -1.93338         2.49814         1.56835
LJ         -0.773723        -2.45157         1.10187
LJ           0.14601        -1.56815        0.903616
LJ         -0.830883        -1.65879         1.71527
LJ          0.125977        -2.41757         1.69596
LJ           1.02365         2.51382        0.878825
LJ           1.92823        -1.54708        0.696896
LJ          0.904017        -1.75996         1.75375
LJ           1.63892        -2.53394         1.76824
LJ           2.46074       -0.647867         1.03375
LJ           -1.8026     -0.00982285        0.781793
LJ           2.44349       0.0589965         1.93096
LJ          -1.67909       -0.980369         1.49289
LJ         -0.721046       -0.885677         1.03027
LJ         0.0717184      -0.0517479          0.9518
LJ         -0.878104        0.156552         2.13477
LJ          0.128834       -0.997392         1.72113
LJ           1.00117       -0.876653        0.807387
LJ            1.6435        -0.14306        0.604812
LJ          0.711732      -0.0423476         1.85672
LJ            1.5534        -0.87934         1.66356
LJ           2.49467        0.643261        0.894163
LJ          -1.43389          1.9335        0.716381
LJ           2.47082         1.56071          1.5285
LJ          -1.59522         0.91086         1.57195
LJ         -0.940991        0.672331        0.837991
LJ          0.130045         1.54379        0.861159
LJ         -0.805593         1.62294         1.53593
LJ        -0.0467498        0.930416         1.55026
LJ          0.815596        0.634108        0.906539
LJ           1.69618         1.72087        0.739894
LJ          0.858454         1.58417         1.76535
LJ           1.76393        0.719131         1.69931
