108
#Comment!
LJ          -2.50593        -2.38614         2.40292
LJ          -1.72077        -1.69566         2.49432
LJ          -2.38063        -1.51188        -1.66394
LJ          -1.73336           2.541         -1.7034
LJ           -0.7952         2.45138        -2.44286
LJ        -0.0453365        -1.90593        -2.48153
LJ          -1.03599        -1.54457        -1.77973
LJ        -0.0271273         2.22892        -1.80051
LJ          0.827482         2.52989          2.4662
LJ           1.76787        -1.66912        -2.55467
LJ          0.721139        -1.86984        -1.73968
LJ           2.03634         2.41795        -1.77099
LJ           2.50342       -0.816644         2.50299
LJ          -1.74573        0.065944        -2.54732
LJ           2.50345        0.108507        -1.79654
LJ          -1.76257       -0.548514        -1.66579
LJ          -1.04178       -0.775889        -2.43538
LJ        -0.0989622       -0.147781        -2.45588
LJ         -0.944241       0.0815708        -1.81145
LJ         -0.127645        -1.05584        -1.84609
LJ          0.870784        -1.13573         2.56409
LJ           1.70986      0.00131612         2.49792
LJ          0.962995       0.0356669        -1.86987
LJ           1.64643       -0.649435        -1.79075
LJ           2.55983        0.902575         2.53368
LJ          -1.64979         1.93193         2.41115
LJ          -2.40926         1.60158        -1.62788
LJ          -1.66496        0.731673        -1.80541
LJ         -0.513696         0.90433        -2.56147
LJ         0.0685621         1.71224         2.26978
LJ          -1.12433         1.75633        -1.72169
LJ          0.104226         1.09205        -1.82419
LJ          0.829218        0.861097         2.51425
LJ            1.7592         1.71784         2.40248
LJ          0.933963         1.89603        -1.89138
LJ           1.66703          1.0518        -1.64311
LJ           2.56417          2.4732        -0.72538
LJ          -1.47722        -1.70012       -0.830082
LJ          -2.37184        -1.81413        -0.15902
LJ          -1.74583         2.48934      -0.0605049
LJ           -0.7075         2.55613       -0.994917
LJ           0.16677        -1.70666       -0.798708
LJ         -0.701034        -1.97856       -0.184895
LJ         -0.175235         2.25547       0.0628254
LJ          0.818581        -2.54148        -0.95047
LJ           1.85415        -1.84425        -1.02542
LJ          0.757946        -1.90251        0.278515
LJ           1.70956        -2.50615         -0.1061
LJ           -2.4518       -0.920516       -0.715716
LJ          -1.94077      0.00102512       -0.737972
LJ          -2.55286         0.24304       0.0407358
LJ          -1.81888        -0.70448       0.0797867
LJ         -0.645612       -0.872578       -0.696596
LJ         -0.108518        0.275579         -1.0358
LJ         -0.614465        0.108881      -0.0989794
LJ        -0.0837561       -0.671242        0.148685
LJ          0.932837        -1.04071       -0.785521
LJ           1.82845        -0.12568       -0.579453
LJ          0.742335       0.0548017        0.131751
LJ           1.90201        -1.13505      -0.0685684
LJ          -2.53265         1.00104       -0.791808
LJ          -1.67173         1.82735        -0.86186
LJ           2.45415         1.68455      -0.0291618
LJ          -1.92325         1.16091        0.365472
LJ           -1.1152          0.7574       -0.857813
LJ          0.100387         1.62207       -0.996467
LJ         -0.823206         1.42027        -0.12953
LJ         -0.029743        0.922818       -0.206053
LJ          0.995521        0.914608       -0.765503
LJ           1.61982         1.76268       -0.722668
LJ          0.815805         1.99044      -0.0389265
LJ           1.71878        0.854221        -0.07722
LJ           2.42586         2.35877        0.728365
LJ          -1.32497        -1.76161        0.735871
LJ             2.496        -1.49141         1.72273
LJ          -2.04346        -2.38636         1.43283
LJ         -0.788355         2.50905         0.95257
LJ          0.127305        -1.45749        0.962048
LJ         -0.961113        -1.84499         1.86796
LJ         0.0327075        -2.35462         1.73669
LJ          0.764395          2.3958        0.992983
LJ           1.84189        -1.67609        0.841702
LJ          0.984789        -1.76852         1.78536
LJ            1.7522        -2.44747         1.67304
LJ           2.47438        -0.63613         0.86068
LJ          -1.58257       0.0525232        0.829035
LJ           2.46326       0.0453677         1.74775
LJ          -1.74806        -0.79396         1.74159
LJ         -0.771739        -1.04954         1.03109
LJ          0.178251        -0.11663         1.10533
LJ         -0.976434        0.131249         1.99159
LJ          0.150736       -0.943078         1.86338
LJ           1.04436        -1.03658        0.780596
LJ           1.60495       -0.178188        0.585348
LJ          0.674864      0.00446502         1.99819
LJ           1.57587       -0.747619          1.7788
LJ           2.25917        0.830947          0.8481
LJ          -1.57916         1.92631         1.03431
LJ           2.45403         1.66435         1.50323
LJ          -1.86059        0.900222         1.52125
LJ         -0.778589        0.717361        0.788693
LJ          0.236665         1.42765         0.76734
LJ         -0.857964         1.43334         1.55366
LJ          0.143762        0.853625          1.6505
LJ           1.13601          0.7643         1.00831
LJ           1.48111         1.71506        0.651844
LJ          0.919317         1.52725         1.62206
LJ           1.64478        0.765997         1.89558
