108
#Comment!
LJ           2.56173        -2.45277         2.51047
LJ          -1.76569        -1.68094         2.47828
LJ          -2.46038        -1.67851        -1.68513
LJ          -1.75942        -2.38874        -1.74455
LJ         -0.845658         2.50679         2.51557
LJ         0.0226009        -1.97219         -2.5021
LJ         -0.968513        -1.48538        -1.56761
LJ         0.0728961         2.28807        -1.68023
LJ          0.949698         2.37649        -2.42831
LJ           1.79162        -1.67077         2.56276
LJ           1.04074        -1.81673        -1.70846
LJ           1.93287        -2.55136        -1.50096
LJ           2.53086       -0.848767         2.55807
LJ          -1.77947       0.0559861        -2.54672
LJ          -2.48377        0.150319        -1.81699
LJ          -1.64258       -0.481353         -1.3876
LJ          -1.14094       -0.875369        -2.52483
LJ        -0.0820384       -0.195982        -2.38254
LJ         -0.821964       0.0670055        -1.70705
LJ         -0.108553       -0.978494        -1.81054
LJ          0.966257        -1.09617        -2.47524
LJ           1.65638       0.0430947         2.56344
LJ          0.783376       -0.107377        -1.61004
LJ           1.71449       -0.892032         -1.7186
LJ           -2.4453         1.03954         2.39967
LJ          -1.76523         1.84979         2.55454
LJ          -2.46718         1.69505        -1.62173
LJ          -1.54521        0.874764        -1.66125
LJ         -0.676707         1.07949        -2.53184
LJ          0.136535         1.86313         2.54082
LJ         -0.781928         1.75525        -1.74116
LJ         0.0448021        0.956081        -1.83583
LJ          0.975291        0.810345        -2.49329
LJ           1.81481         1.83226         2.44131
LJ          0.953539         1.68353        -1.61636
LJ           1.85763        0.805404        -1.79016
LJ          -2.52563         2.35932       -0.739288
LJ          -1.52168        -1.89957       -0.751906
LJ          -2.43006        -1.74024      -0.0997383
LJ          -1.73421         2.45453       -0.119339
LJ         -0.664321        -2.50677       -0.932085
LJ          0.112216          -1.728       -0.912179
LJ         -0.562537        -1.76832      -0.0472979
LJ         -0.233392         2.35865         0.14422
LJ          0.801742        -2.49528       -0.918404
LJ           1.74212        -1.73196       -0.870367
LJ          0.636658          -2.027        0.156807
LJ           1.60037        -2.35108       0.0474545
LJ          -2.41938       -0.923688       -0.717341
LJ          -1.84793       0.0358345       -0.624934
LJ           2.41047       0.0961208      0.00907761
LJ          -1.64396        -0.86815        0.034547
LJ         -0.602259       -0.783852       -0.782347
LJ       -0.00455297        0.206679         -0.8517
LJ         -0.842021      -0.0258589      -0.0666914
LJ         0.0354857       -0.818569        0.185619
LJ          0.812298       -0.901293       -0.711283
LJ           1.87508        -0.15738        -0.87692
LJ           0.80144       0.0339463      -0.0616102
LJ           1.71319       -0.841158      -0.0502739
LJ          -2.46681        0.995763       -0.919086
LJ           -1.6144         1.74464       -0.994234
LJ           2.50431         1.69848        0.109143
LJ          -1.89126        0.899962       0.0304824
LJ         -0.877901        0.754095       -0.850757
LJ         -0.145426         1.57074       -0.826933
LJ         -0.920862         1.46498      0.00778802
LJ        0.00769763        0.903461        0.111334
LJ          0.836651        0.956059       -0.665436
LJ           1.73074          1.6364       -0.831372
LJ           0.78655         2.04369       0.0464001
LJ           1.70201        0.844482       -0.116394
LJ           2.47515        -2.55782        0.841575
LJ           -1.4625        -1.72009        0.673092
LJ           2.49698        -1.47858          1.6757
LJ          -1.95508         2.51584         1.59592
LJ         -0.724374        -2.46649         1.12744
LJ          0.122604        -1.55141        0.903378
LJ          -0.85116        -1.62939         1.68521
LJ          0.149083        -2.37582         1.68313
LJ          0.991481         2.47878        0.871734
LJ           1.94515        -1.60738        0.676544
LJ          0.940056         -1.7725         1.73732
LJ           1.62292        -2.48393         1.72021
LJ           2.47275       -0.629652        0.996274
LJ          -1.76353      -0.0418506        0.825929
LJ           2.44675       0.0740268          1.9217
LJ           -1.6338       -0.977012         1.49127
LJ         -0.693911       -0.889162          1.0059
LJ         0.0783812       -0.088078        0.970343
LJ         -0.869708        0.185645         2.06058
LJ          0.145402        -1.00971         1.74523
LJ          0.996864       -0.881691        0.804102
LJ           1.60087      -0.0925709        0.673431
LJ          0.723073      -0.0495063         1.83051
LJ           1.54684       -0.826969         1.68365
LJ             2.509        0.671413        0.906103
LJ          -1.50793         1.96625        0.716709
LJ           2.47411         1.60974         1.51033
LJ          -1.59131        0.922142         1.58491
LJ         -0.985174        0.689133        0.763927
LJ          0.187509         1.54411        0.851266
LJ         -0.807678         1.62965         1.53721
LJ         -0.086078        0.864272         1.53176
LJ          0.839275         0.65255        0.885573
LJ           1.70883         1.72761         0.72573
LJ          0.878408         1.58734         1.77899
LJ           1.78258        0.855065         1.73804
