108
#Comment!
LJ           2.55674           2.546        -2.56292
LJ          -1.73871        -1.80137        -2.56368
LJ           2.52742        -1.80132          -1.775
LJ          -1.79207         2.50327        -1.69058
LJ         -0.940179         2.46685         2.53244
LJ        -0.0641442        -1.74705        -2.50315
LJ         -0.743717        -1.63153        -1.69572
LJ        -0.0221563        -2.50913        -1.55672
LJ          0.922465        -2.56068         2.48585
LJ           1.72246        -1.82376        -2.48795
LJ          0.876879        -1.63802        -1.64416
LJ           1.78232        -2.56362        -1.69962
LJ           2.45101       -0.868634         2.52256
LJ          -1.62784       0.0682807          2.4741
LJ           2.50053       0.0142403        -1.73302
LJ          -1.61644       -0.898758        -1.66908
LJ          -0.91403       -0.845575         2.55806
LJ          0.118694      -0.0573521        -2.52647
LJ         -0.820682        0.164133        -1.62363
LJ        -0.0613306       -0.944891        -1.70312
LJ          0.821206       -0.981383        -2.51744
LJ           1.76481       0.0767825         2.52717
LJ          0.772536       0.0479778        -1.70855
LJ           1.65131       -0.908418        -1.61647
LJ            2.5399        0.845028         2.50619
LJ          -1.77717         1.73943        -2.53242
LJ          -2.45488         1.58282        -1.76126
LJ          -1.76074         0.84223          -1.721
LJ         -0.776986         0.91402         2.40071
LJ         0.0779876          1.6555         2.45189
LJ          -0.82398         1.69308        -1.70286
LJ        0.00500541        0.822354        -1.80634
LJ          0.838454        0.945231        -2.55174
LJ           1.70861         1.76191        -2.54003
LJ           1.00466         1.70739        -1.77202
LJ           1.63161         0.75602        -1.64773
LJ          -2.54692         2.54944       -0.856328
LJ          -1.60958        -1.71095       -0.816356
LJ           2.56402          -1.776      -0.0052558
LJ          -1.66781         2.52627      -0.0465296
LJ         -0.808381         2.51398       -0.803292
LJ        -0.0160381        -1.61069       -0.855945
LJ          -0.87108        -1.69415       0.0144884
LJ         -0.129867         2.44845      -0.0658136
LJ          0.904493         2.54039       -0.747842
LJ           1.62953        -1.70328       -0.809528
LJ          0.775785        -1.85969        0.100529
LJ           1.67858        -2.46764      0.00576322
LJ          -2.56451       -0.879507       -0.776291
LJ          -1.82653         0.13278        -1.00914
LJ           2.53057       0.0241751      -0.0601462
LJ          -1.75745       -0.917104      0.00322895
LJ         -0.788953       -0.778911       -0.803148
LJ         0.0412993       -0.197712       -0.901411
LJ         -0.962538      -0.0946451       0.0393301
LJ         0.0214136       -0.727398         0.10409
LJ          0.932451       -0.816404        -0.87056
LJ           1.71623      -0.0107489       -0.880642
LJ           0.88414     -0.00509758       -0.112898
LJ           1.65762        -0.90672       -0.125724
LJ          -2.51066        0.922341       -0.836454
LJ          -1.71743         1.68024       -0.906781
LJ            2.5083         1.67701       0.0274374
LJ          -1.69058         0.95395        0.149769
LJ          -0.75938        0.829662       -0.678821
LJ         -0.160072         1.70535       -0.947614
LJ         -0.960307         1.73536      -0.0983125
LJ        -0.0214305        0.861335        0.168376
LJ           0.79031         0.95227       -0.851585
LJ           1.76422         1.75876       -0.790606
LJ          0.725377         1.72943       -0.117028
LJ           1.69919        0.788614       0.0599231
LJ          -2.52496        -2.52104        0.812928
LJ          -1.65383        -1.74467        0.947207
LJ           2.46653        -1.68799         1.71204
LJ          -1.81679        -2.56319         1.66273
LJ         -0.920659         2.53508        0.741634
LJ         0.0397789        -1.73887        0.878615
LJ         -0.844626        -1.73786         1.84094
LJ         0.0648774        -2.51761         1.74289
LJ          0.892245         2.41084        0.870899
LJ           1.74012        -1.88636         0.86815
LJ          0.941306        -1.79917         1.54886
LJ           1.77234        -2.54995         1.73448
LJ           2.50669       -0.781894         0.88126
LJ          -1.74698     -0.00125833        0.890776
LJ          -2.54344      -0.0871457         1.84741
LJ          -1.72949       -0.834063         1.85497
LJ          -0.87577       -0.808775        0.778262
LJ          0.162019      -0.0395816        0.887389
LJ         -0.743066       0.0184427         1.69466
LJ         0.0123752       -0.938848         1.66692
LJ          0.814262       -0.882277        0.839522
LJ           1.64723        -0.10046        0.872474
LJ          0.836527      -0.0408735         1.67906
LJ           1.80607       -0.798343         1.65979
LJ            2.5139        0.840043         0.81964
LJ          -1.67798         1.63261        0.834847
LJ          -2.49607         1.64983           1.812
LJ          -1.61269        0.794287         1.74936
LJ         -0.835518        0.819674        0.855337
LJ         0.0275025          1.5793        0.880702
LJ         -0.808985         1.74856          1.6431
LJ        -0.0312444        0.760959         1.60655
LJ          0.854409        0.768562        0.686949
LJ           1.59233          1.6355        0.810199
LJ          0.890583          1.5542         1.72994
LJ           1.72345        0.962828         1.64238
