108
#Comment!
LJ           2.55616        -2.43192          2.4991
LJ          -1.68975        -1.63445         2.39546
LJ          -2.51495        -1.69223        -1.64873
LJ          -1.69029        -2.38277        -1.76827
LJ          -0.83642         2.48655         2.48665
LJ         0.0239958        -2.05698        -2.45996
LJ          -1.11321        -1.46065        -1.59928
LJ         0.0849447         2.24982        -1.62812
LJ          0.964185         2.39973         -2.4893
LJ           1.87304        -1.66432         2.51179
LJ           1.02167         -1.7701        -1.67117
LJ           1.94005        -2.55374        -1.54162
LJ           2.42311       -0.796593         2.52425
LJ           -1.7613         0.08158         2.55661
LJ          -2.53838        0.141267        -1.85298
LJ          -1.67702        -0.47913        -1.49273
LJ          -1.12564       -0.891181        -2.45563
LJ         0.0224344       -0.207571        -2.40914
LJ         -0.810607      0.00232316        -1.67689
LJ         -0.107947       -0.996375        -1.82968
LJ          0.956669        -1.14643        -2.45961
LJ           1.67995       0.0717229        -2.53116
LJ          0.742197       0.0177684        -1.73684
LJ           1.63359       -0.777795        -1.73329
LJ          -2.42892         1.10106         2.44312
LJ          -1.75864         1.85555         2.49652
LJ          -2.51139         1.67835        -1.62435
LJ          -1.49706        0.875512        -1.69227
LJ         -0.644553         1.12276        -2.51763
LJ         0.0989531         1.76916         2.52678
LJ         -0.858946         1.72173        -1.69815
LJ         0.0288073         1.01101        -1.72728
LJ           1.01515        0.813172        -2.46799
LJ           1.82061         1.89753         2.48594
LJ          0.942016          1.7479        -1.64839
LJ           1.81645        0.875075        -1.81742
LJ           2.52418         2.34553       -0.595998
LJ          -1.59711        -1.86329       -0.746636
LJ          -2.45292        -1.78775       -0.115957
LJ          -1.74631         2.45097      -0.0862706
LJ         -0.687134        -2.52666       -0.965381
LJ          0.110496          -1.755       -0.917448
LJ         -0.489647         -1.7565      -0.0131787
LJ         -0.293921         2.36991        0.196367
LJ          0.777236        -2.53882       -0.962758
LJ           1.76239        -1.63685       -0.954008
LJ          0.619792         -2.0758        0.098099
LJ           1.66169        -2.29599      0.00788218
LJ          -2.38226       -0.878958        -0.73691
LJ          -1.82371       0.0369837       -0.633129
LJ            2.4482       0.0531029       0.0410868
LJ           -1.5964       -0.918607       0.0454194
LJ          -0.58441       -0.815867       -0.788256
LJ        -0.0210679        0.285208       -0.897091
LJ          -0.93151       -0.092756      -0.0784775
LJ         0.0815413       -0.851463        0.236861
LJ          0.873576       -0.968144       -0.723343
LJ           1.92764       -0.154177       -0.854348
LJ          0.794697       0.0473719      -0.0498069
LJ           1.66283       -0.923611       -0.172377
LJ          -2.38572        0.931186       -0.941847
LJ          -1.65065         1.74962       -0.874856
LJ             2.503         1.62487        0.122982
LJ          -1.94271        0.986906      -0.0204868
LJ          -1.04516        0.721443       -0.812717
LJ       -0.00102013         1.61883       -0.798338
LJ         -0.805571         1.51352       -0.135229
LJ        -0.0684949        0.876793       0.0886967
LJ          0.857105        0.889598       -0.648973
LJ            1.6507           1.631       -0.951227
LJ          0.834825         2.00996      0.00400221
LJ           1.74078        0.794562       -0.172838
LJ           2.40169         2.48894        0.843358
LJ          -1.40944        -1.72809        0.617245
LJ           2.45838        -1.51482         1.74826
LJ          -1.93677         2.49475         1.61233
LJ         -0.722378        -2.44872         1.10905
LJ          0.123737        -1.59015        0.871869
LJ         -0.868345         -1.6941         1.68983
LJ           0.10654        -2.31364         1.75171
LJ           0.99939         2.41346        0.910712
LJ           2.01086         -1.5114        0.699799
LJ          0.946447        -1.79948         1.68218
LJ           1.68897        -2.51899         1.63101
LJ           2.54383       -0.657607         1.00954
LJ          -1.72436      -0.0852284        0.892572
LJ           2.55001       0.0337709         1.85923
LJ           -1.7764       -0.943488         1.56195
LJ         -0.688302       -0.935954        0.935375
LJ         0.0782827       0.0603513         1.09452
LJ         -0.869708        0.163333         2.04657
LJ          0.100474       -0.901521         1.86098
LJ           1.04809       -0.998781        0.723309
LJ            1.6739       -0.103638        0.679367
LJ          0.780015      -0.0185192         1.85994
LJ           1.64233         -0.8673         1.72482
LJ           2.51256         0.80946        0.946709
LJ          -1.44537         1.88263        0.770796
LJ           2.43478         1.67278         1.54363
LJ          -1.66753        0.961042         1.60375
LJ          -0.96003        0.645964        0.797608
LJ           0.23728          1.4582         0.82367
LJ         -0.840897         1.60378         1.61178
LJ        -0.0504299         0.89263         1.60163
LJ          0.902674        0.666187         0.82951
LJ           1.66165         1.73908        0.721217
LJ          0.878068         1.55683          1.8146
LJ           1.75182         0.82002         1.80328
