108
#Comment!
LJ          -2.54101        -2.26881         2.29446
LJ          -1.78536        -1.62234         2.48408
LJ          -2.27477        -1.55969        -1.67931
LJ          -1.76602        -2.51536        -1.61628
LJ         -0.713666          2.4298         2.50279
LJ         0.0513725        -1.81628        -2.45684
LJ          -1.20268        -1.51248        -1.72514
LJ        -0.0461268         2.20765        -1.81197
LJ          0.813455        -2.54076         2.50115
LJ           1.79781        -1.60722          2.4663
LJ          0.866943        -1.89481        -1.69425
LJ           1.97087         2.38445         -1.8188
LJ           2.53449       -0.897429          2.3394
LJ          -1.84951        0.131637         2.54471
LJ           2.40415        0.149585        -1.78298
LJ            -1.856       -0.571589        -1.65827
LJ          -1.05249        -0.79179        -2.43024
LJ        -0.0298298       -0.327267        -2.41752
LJ          -1.04405       0.0370716         -1.7486
LJ        -0.0521737        -1.07373        -1.68436
LJ          0.850609        -1.02501        -2.56256
LJ            1.6559     -0.00380102         2.54342
LJ          0.928118        0.179146        -1.74449
LJ           1.61053       -0.738878        -1.72832
LJ          -2.49766         0.91939        -2.52876
LJ          -1.66613         1.95868         2.40646
LJ          -2.56425         1.65044        -1.59634
LJ          -1.72699        0.903021        -1.76391
LJ         -0.555171        0.928659        -2.55038
LJ          0.141127         1.65985         2.38879
LJ          -1.12836         1.62399        -1.79992
LJ          0.188959         1.12039         -1.7845
LJ          0.890105        0.908163         2.52972
LJ           1.78808         1.67917         2.43512
LJ          0.945865         1.79017        -1.87035
LJ           1.69669         1.15134        -1.67348
LJ           2.51656         2.33194        -0.74002
LJ          -1.50848        -1.76609       -0.748951
LJ          -2.33735        -1.75764      -0.0661023
LJ          -1.74399         2.39861       0.0711176
LJ         -0.694135        -2.48646        -1.06075
LJ         0.0775778        -1.56753         -0.7984
LJ         -0.785704        -2.07994       -0.105016
LJ         -0.156149         2.29221       0.0600788
LJ          0.900386        -2.49918       -0.859877
LJ           1.98573        -1.70089        -1.03018
LJ          0.808983         -1.8237         0.39251
LJ           1.71072         2.54035       -0.105077
LJ          -2.33609       -0.892727       -0.747024
LJ          -1.84443       0.0143552       -0.723616
LJ          -2.43746        0.176024        0.127893
LJ          -1.62506       -0.689375        0.108122
LJ         -0.739073       -0.924801       -0.817598
LJ         -0.160006       0.0657039        -1.01214
LJ         -0.671767       0.0174442      -0.0947556
LJ         0.0259991       -0.667182       0.0124125
LJ           1.03791        -1.23249       -0.825357
LJ           1.87336       -0.193588       -0.556281
LJ          0.869329       0.0354322        0.116194
LJ           2.01452        -1.08765      -0.0823714
LJ           2.49924        0.958683       -0.778546
LJ          -1.59893         1.74161        -0.89365
LJ           2.38281          1.6384      -0.0504883
LJ          -1.86867         1.01951        0.238295
LJ          -1.02154        0.709674       -0.840427
LJ         0.0746851         1.69021       -0.909445
LJ         -0.841302         1.61565       -0.266992
LJ        -0.0485237        0.883493       -0.186859
LJ           1.01423        0.835144       -0.800379
LJ           1.65772         1.73614       -0.746078
LJ          0.793342         1.86324       -0.172919
LJ           1.76209        0.753925      -0.0648656
LJ           2.45072          2.3962        0.696139
LJ          -1.23977        -1.82386        0.802974
LJ           2.50582        -1.39499         1.49199
LJ          -1.91932        -2.34273         1.47424
LJ         -0.803766         2.49605        0.943782
LJ          0.075247        -1.44654        0.973765
LJ           -0.8372        -1.85529         1.87829
LJ         0.0354866        -2.40378         1.79284
LJ            0.6918         2.39164         1.08128
LJ           1.74224        -1.68153        0.940155
LJ          0.959561        -1.75187         1.70182
LJ           1.74038        -2.46708         1.65048
LJ          -2.46279       -0.724026        0.733638
LJ          -1.51935       0.0124843        0.834546
LJ           2.47524       0.0353015         1.69762
LJ           -1.7716       -0.746459          1.7405
LJ         -0.859744       -0.966259          1.0671
LJ          0.155318       -0.261639         0.92802
LJ         -0.958385        0.176623         1.86892
LJ          0.214773        -0.93438          1.8104
LJ          0.942429       -0.837403        0.801375
LJ           1.74066       -0.167679        0.699751
LJ          0.592471       0.0307035         1.99819
LJ           1.52153       -0.792049         1.73487
LJ           2.25936        0.881907        0.813272
LJ          -1.64507         1.86374         1.00049
LJ           2.42264         1.71131         1.55553
LJ          -1.86417        0.864106         1.43106
LJ          -0.75943        0.761178         0.66752
LJ          0.317633         1.48536        0.814424
LJ          -0.95515         1.37538         1.59524
LJ         0.0248213        0.893035         1.61509
LJ           1.16051        0.683499        0.996356
LJ           1.49578         1.72639        0.588345
LJ           1.01258         1.58302         1.68088
LJ           1.72846        0.857479         1.90072
