108
#Comment!
LJ           2.50554        -2.54348         2.51904
LJ          -1.79156        -1.69181         2.48218
LJ          -2.52633        -1.73267        -1.62607
LJ          -1.76306         -2.4349        -1.77513
LJ         -0.957123         2.43285         2.52191
LJ        0.00812477        -1.97793        -2.49534
LJ         -0.897914        -1.58287        -1.60603
LJ         0.0821757         2.27151        -1.71768
LJ           1.00528         2.42697        -2.35396
LJ           1.80814        -1.72446         2.49355
LJ          0.937188        -1.73671         -1.6678
LJ           2.05878        -2.50484        -1.49102
LJ           2.44254       -0.805603         -2.5017
LJ          -1.76957      0.00174919        -2.55753
LJ           -2.5319        0.208385        -1.75583
LJ          -1.61935       -0.557897        -1.37481
LJ           -1.1848       -0.864039        -2.45019
LJ         -0.144253       -0.244157        -2.44339
LJ         -0.809425        0.139348        -1.84991
LJ        -0.0877823       -0.968992        -1.77276
LJ           1.04378        -1.09968         -2.4792
LJ           1.62516        0.115686         2.52307
LJ          0.769703      -0.0926434        -1.53803
LJ           1.70094       -0.823171        -1.67452
LJ          -2.47514         1.07223         2.31897
LJ          -1.76389         1.81871         2.53516
LJ          -2.51358         1.69978         -1.7509
LJ          -1.67229          0.9659        -1.85911
LJ         -0.707431         1.08393        -2.48833
LJ         0.0891157         1.85308         2.55691
LJ         -0.763982          1.7421        -1.76057
LJ         0.0456928        0.847384        -1.87712
LJ          0.863481        0.816769        -2.43836
LJ            1.7907         1.84575         2.40588
LJ          0.954628         1.59694        -1.57704
LJ           1.82381        0.805033        -1.77959
LJ          -2.50266         2.45721       -0.733899
LJ          -1.46802        -1.82849       -0.725419
LJ           2.55401        -1.74143       -0.199319
LJ          -1.69128          2.4418      -0.0754136
LJ         -0.694091         2.52578       -0.938627
LJ        0.00933998        -1.74212       -0.942398
LJ         -0.589304        -1.78695        0.124696
LJ         -0.177672         2.28726        0.118569
LJ          0.846966        -2.46836       -0.948443
LJ            1.7901        -1.66901       -0.830355
LJ          0.731038        -1.96463       0.0899929
LJ           1.62855        -2.37785      -0.0711881
LJ          -2.53118       -0.915682       -0.772455
LJ          -1.92895       0.0972218        -0.69427
LJ           2.40349      -0.0304936      -0.0545698
LJ          -1.60994       -0.896128       0.0211539
LJ         -0.653316        -0.82062       -0.850889
LJ        -0.0158919        0.175813       -0.953655
LJ         -0.769638      -0.0625296       -0.027093
LJ         0.0851719       -0.783683        0.171675
LJ          0.759664       -0.849268       -0.769331
LJ           1.82059       -0.156258       -0.874488
LJ           0.73418       0.0435675       -0.133621
LJ            1.7038       -0.912732      -0.0458931
LJ          -2.37114        0.974575       -0.947464
LJ          -1.65729         1.69044        -1.02767
LJ           2.52115         1.59692       0.0666432
LJ          -1.94246        0.839369       0.0748483
LJ         -0.988391        0.729003       -0.895247
LJ        -0.0632683         1.55324       -0.849629
LJ         -0.827168          1.4927      -0.0786626
LJ         0.0233413        0.993037       0.0541042
LJ          0.828371         1.09988       -0.708983
LJ           1.75358         1.72452       -0.917692
LJ          0.873994         2.01181      0.00580345
LJ           1.82126        0.837326       -0.140765
LJ           2.47849        -2.50398        0.826979
LJ          -1.48949        -1.68555        0.722551
LJ           2.52769        -1.50118         1.69431
LJ          -1.91278         2.47411         1.56685
LJ         -0.738312        -2.50528         1.05902
LJ          0.105975         -1.7419        0.927244
LJ         -0.926811        -1.67057         1.74963
LJ          0.118125        -2.40393         1.74339
LJ           1.01513         2.55363        0.957092
LJ           1.83919        -1.54684        0.756537
LJ          0.900126         -1.6843          1.6539
LJ           1.59565        -2.54178         1.77625
LJ           2.51714       -0.590147         1.08811
LJ          -1.85289     -0.00809939        0.783968
LJ           2.51405       0.0683491         1.90416
LJ          -1.63235       -0.915003         1.47837
LJ         -0.780448        -0.88556        0.960752
LJ         0.0967877      -0.0662608         1.02156
LJ         -0.839648        0.142772          2.0983
LJ          0.121434       -0.971657          1.6903
LJ          0.909012        -0.82239         0.79108
LJ           1.60937      -0.0698235         0.57608
LJ          0.706062       -0.115391         1.90128
LJ           1.67391       -0.843884         1.66369
LJ           2.46445        0.613731         0.79728
LJ          -1.43558         1.91431        0.771945
LJ          -2.51443         1.61244         1.48816
LJ          -1.58036         0.91976         1.61275
LJ         -0.881047         0.74574        0.687145
LJ          0.210928         1.61952        0.900436
LJ         -0.747648         1.68919         1.51755
LJ         0.0203196        0.924338         1.58897
LJ          0.851566        0.632218        0.904718
LJ           1.73661         1.64674         0.72043
LJ          0.899508         1.60292         1.72274
LJ           1.69513        0.782017         1.66529
