108
#Comment!
LJ           2.54428        -2.49659         2.45001
LJ          -1.67733        -1.83655          2.5525
LJ           2.52772        -1.67413        -1.58354
LJ          -1.92568         2.55549        -1.81466
LJ         -0.945359         2.54239         2.36968
LJ         -0.225934         -1.8522        -2.50533
LJ         -0.934674        -1.52016        -1.70516
LJ         0.0595419         2.38075        -1.76055
LJ          0.885951         2.48933        -2.47678
LJ           1.78166        -1.70022        -2.52557
LJ          0.834047        -1.59595        -1.55186
LJ           1.95143        -2.52243        -1.60702
LJ           2.50209       -0.906449        -2.53912
LJ          -1.77459        0.188284         2.49462
LJ           -2.5049        0.212332        -1.79223
LJ          -1.79135       -0.741415        -1.49665
LJ          -1.18628       -0.892095        -2.55288
LJ         0.0653799      -0.0967659         2.50566
LJ         -0.841583        0.114194        -1.75193
LJ         0.0712788       -0.830608        -1.73749
LJ          0.989156        -1.03772        -2.53317
LJ           1.66966       0.0859159         2.52827
LJ          0.761821        0.105113        -1.56638
LJ           1.67259       -0.919003        -1.76182
LJ          -2.55623        0.989926         2.41514
LJ          -1.67016         1.90718          2.5144
LJ          -2.56104         1.58825        -1.85337
LJ          -1.66691          0.9303        -1.82285
LJ         -0.693033         1.05742          2.3579
LJ         0.0509254         1.70791         2.42264
LJ         -0.741293         1.62612        -1.72515
LJ        -0.0756839        0.845009        -1.86002
LJ           0.76422        0.912955        -2.51356
LJ           1.74854         1.86896         2.53232
LJ          0.967885           1.795        -1.49225
LJ           1.72157        0.866794        -1.73631
LJ          -2.41849         2.54175       -0.847932
LJ          -1.56441        -1.83775       -0.659576
LJ           2.53977        -1.74107      -0.0493879
LJ          -1.67947         2.45975     -0.00157015
LJ         -0.819097         2.44108       -0.876532
LJ         0.0498519         -1.6668        -0.90746
LJ         -0.788303         -1.7573        0.154626
LJ         -0.205945          2.3306      0.00922213
LJ          0.929792        -2.51469       -0.941661
LJ           1.71258        -1.68793       -0.782413
LJ          0.632672        -1.90659       0.0485518
LJ           1.61301        -2.41203      -0.0747165
LJ           2.48216        -0.91434       -0.756351
LJ          -1.85842        0.127068       -0.812137
LJ          -2.55447       0.0148443       -0.031528
LJ          -1.80492       -0.777102      -0.0822869
LJ         -0.801154       -0.783216       -0.892195
LJ        -0.0512904        0.168776       -0.833533
LJ         -0.901713     -0.00414874      -0.0105949
LJ        -0.0885461       -0.732432      -0.0737085
LJ          0.724132       -0.921799       -0.745918
LJ            1.7612       -0.108178        -0.79833
LJ          0.814736       0.0875824       -0.157701
LJ            1.7367        -1.01375      -0.0554265
LJ          -2.49803         1.06483       -0.793843
LJ          -1.58072         1.66948        -1.05303
LJ          -2.55953          1.6708       0.0559838
LJ          -1.90576        0.869425       0.0842134
LJ         -0.966816        0.820921       -0.858745
LJ         -0.023127         1.71555       -0.929411
LJ         -0.879227         1.46235      -0.0881202
LJ         0.0019898          1.0983       0.0796415
LJ          0.740056        0.947948       -0.770495
LJ           1.87962         1.67053       -0.907653
LJ          0.738036         1.85486      -0.0401876
LJ           1.75015        0.887699       -0.135655
LJ           2.46713         -2.5534         1.02688
LJ          -1.49982        -1.81247         1.02297
LJ          -2.51821        -1.57493         1.81659
LJ          -1.88224         2.49988          1.6262
LJ         -0.722341         2.54822        0.876637
LJ          0.153533        -1.66319        0.947228
LJ         -0.955794        -1.68385         1.76597
LJ         0.0722098        -2.46298         1.76259
LJ           1.11423        -2.48789         1.00855
LJ           1.84379        -1.50436        0.916876
LJ          0.845448        -1.60044         1.69657
LJ           1.57746        -2.42035         1.83493
LJ           2.52265       -0.668072        0.900578
LJ          -1.88263       0.0118658        0.834178
LJ          -2.55576      -0.0349474         1.92012
LJ          -1.66909       -0.886712         1.63427
LJ         -0.637834       -0.863187        0.868624
LJ      -0.000221446       -0.049034        0.823109
LJ         -0.770076        0.120172         1.90555
LJ          0.130678       -0.897238         1.59709
LJ          0.892602       -0.931625        0.958345
LJ           1.60279      -0.0516954        0.663367
LJ          0.843145      -0.0483706         1.90504
LJ           1.64624        -0.87455         1.76047
LJ            2.3521        0.714643        0.728214
LJ          -1.54149         1.91318        0.909839
LJ           2.49187         1.65474          1.6409
LJ          -1.57967        0.815164         1.64269
LJ         -0.956066        0.674124        0.829141
LJ         0.0655479         1.68088        0.828232
LJ          -0.77603         1.69547         1.48807
LJ        -0.0246491        0.876887         1.61333
LJ          0.805998        0.800806         1.01677
LJ           1.79921         1.71599        0.797933
LJ           1.01077         1.59403         1.83517
LJ           1.70039        0.934713         1.66342
