108
#Comment!
LJ           2.41802         2.56441         2.49713
LJ          -1.66721        -1.87565         2.56124
LJ          -2.54595        -1.70094        -1.84366
LJ          -1.85323         2.49151        -1.69528
LJ         -0.938685         2.40675          2.4793
LJ         -0.196693        -1.86925        -2.42844
LJ         -0.846913        -1.62283        -1.58183
LJ       -0.00149061         2.53443        -1.71179
LJ          0.840763         2.56421        -2.51633
LJ           1.64618        -1.77393         2.55763
LJ          0.808439         -1.5039        -1.58501
LJ           1.88982        -2.50566        -1.67383
LJ           2.49489       -0.915637         2.47306
LJ          -1.63417        0.057766         2.53837
LJ          -2.53731        0.105942        -1.76664
LJ          -1.75907       -0.979567        -1.67504
LJ          -1.14725       -0.885337         2.53887
LJ        -0.0215287      -0.0682653         2.52073
LJ         -0.769618        0.137075        -1.72968
LJ         0.0780405       -0.815758        -1.69885
LJ          0.873003       -0.934553        -2.50268
LJ           1.78626        0.111518        -2.54865
LJ          0.676096        0.157645         -1.6494
LJ           1.64811       -0.796435        -1.71221
LJ          -2.50634        0.867469         2.49682
LJ          -1.78258         1.83111         2.51474
LJ          -2.53293         1.63649         -1.8227
LJ           -1.7262        0.893353        -1.76749
LJ         -0.625183         1.01166         2.32155
LJ          0.184997         1.73882          2.4321
LJ         -0.829678          1.6816        -1.59384
LJ         -0.120797        0.926887        -1.78093
LJ          0.764162        0.879379        -2.38696
LJ           1.81314         1.73303        -2.51569
LJ          0.900713         1.79636        -1.59994
LJ           1.74598        0.816487        -1.72488
LJ           -2.4965        -2.49191       -0.818174
LJ          -1.46632        -1.73806       -0.740758
LJ           2.53721        -1.84644      -0.0448625
LJ           -1.6343         2.48186    -0.000660514
LJ         -0.786578          2.5437       -0.778837
LJ         -0.119105        -1.66391       -0.942053
LJ         -0.859211        -1.73409        0.133884
LJ          -0.14878         2.38339      0.00793023
LJ          0.857447           2.472       -0.805329
LJ           1.54653        -1.80105       -0.811386
LJ          0.726487        -1.80795        0.128364
LJ           1.62537        -2.50733      -0.0851225
LJ          -2.50402       -0.909926       -0.811112
LJ          -1.95097        0.212498       -0.819944
LJ           2.47363       0.0738178      -0.0367393
LJ          -1.67441       -0.899467      -0.0770272
LJ         -0.882489       -0.734566        -0.73681
LJ        -0.0304747       0.0478687       -0.733817
LJ         -0.923789       0.0513302      -0.0400084
LJ        -0.0650302       -0.687872      -0.0380678
LJ          0.967906       -0.789695       -0.782472
LJ           1.77021       -0.185497       -0.823344
LJ          0.898432      -0.0746249      -0.0751272
LJ           1.71717        -1.03382       -0.133522
LJ          -2.54957          1.0531       -0.792411
LJ          -1.67883          1.7473       -0.966019
LJ          -2.54883         1.77842        0.115244
LJ          -1.82857         0.91629       0.0483149
LJ         -0.810178        0.681365       -0.837121
LJ        -0.0653321         1.73611       -0.938452
LJ         -0.967935         1.68344        -0.17586
LJ         -0.120155         1.00991      -0.0869582
LJ          0.687855        0.945092       -0.823467
LJ           1.75834         1.93229       -0.940361
LJ          0.633433         1.76904      -0.0210393
LJ           1.62524        0.807732       0.0381566
LJ            2.5126         2.49869          0.9012
LJ          -1.59533        -1.72496         0.90683
LJ            2.4154        -1.72927         1.66882
LJ           -1.8875         2.51547         1.66415
LJ         -0.722932         2.49777        0.791171
LJ       -0.00248872        -1.73332        0.814001
LJ         -0.857219        -1.64555         1.75112
LJ          0.168181        -2.51731         1.80724
LJ           1.07572          2.5442        0.989038
LJ           1.79618        -1.78181        0.825228
LJ          0.891301        -1.62733         1.58722
LJ           1.71479        -2.45125         1.80156
LJ           2.46852        -0.63538        0.879708
LJ          -1.83195       0.0203605        0.915719
LJ          -2.48527     -0.00453132         1.97992
LJ          -1.80414       -0.843002         1.66747
LJ         -0.706909       -0.897637        0.784712
LJ          0.128272      0.00218255        0.790591
LJ         -0.647158        0.055517          1.7082
LJ        -0.0236665       -0.917999         1.59955
LJ          0.727636       -0.887711        0.821612
LJ           1.60407     -0.00193932        0.776021
LJ          0.802607       -0.192388         1.82178
LJ           1.67263       -0.858369         1.65414
LJ           2.39598        0.913928        0.858927
LJ          -1.77189         1.75757        0.829215
LJ           2.54659         1.70495         1.81905
LJ           -1.7843        0.714215         1.62697
LJ         -0.851991        0.738794        0.845018
LJ       -0.00909027         1.59521        0.889495
LJ         -0.894578         1.73066         1.59431
LJ         0.0171115        0.827322         1.59005
LJ          0.811812        0.812594        0.914981
LJ            1.7506         1.78319        0.860973
LJ          0.864263         1.60753         1.71083
LJ           1.68309         1.02392         1.66671
