108
#Comment!
LJ           2.33263        -2.54959         2.53541
LJ          -1.67944        -1.85931         2.52354
LJ          -2.51441        -1.68612        -1.81964
LJ          -1.82106         2.49143         -1.7582
LJ         -0.941163         2.42841         2.49278
LJ         -0.109254        -1.90985        -2.42583
LJ         -0.843654        -1.69972         -1.5981
LJ         0.0185893          2.5328        -1.75681
LJ          0.868948         2.50569        -2.46202
LJ           1.68091        -1.81555        -2.52089
LJ          0.837686        -1.49197        -1.54325
LJ           1.91941        -2.50967         -1.6396
LJ           2.49008       -0.907812          2.4804
LJ          -1.55962       0.0357984         2.55465
LJ           -2.4861       0.0995544        -1.79443
LJ          -1.82113       -0.949781         -1.6588
LJ          -1.17007       -0.912944          2.5186
LJ        -0.0554725      -0.0831089         2.53572
LJ         -0.741876        0.115755        -1.69478
LJ          0.101112       -0.807879         -1.7437
LJ          0.870522       -0.916218        -2.55043
LJ           1.75257       0.0600176        -2.53155
LJ          0.723972        0.172902        -1.61575
LJ           1.60357       -0.769597        -1.75687
LJ          -2.51022        0.866671          2.4814
LJ          -1.78174         1.82598         2.48553
LJ          -2.52936         1.64337        -1.80752
LJ          -1.73023        0.906882        -1.73527
LJ          -0.63477        0.999939         2.28904
LJ          0.175485         1.77005         2.39852
LJ         -0.808658         1.71295        -1.63448
LJ        -0.0848313        0.927033        -1.76351
LJ          0.732595         0.85574        -2.38455
LJ           1.84947         1.71897         -2.4676
LJ          0.906999          1.7694        -1.58331
LJ            1.7547        0.755966        -1.65003
LJ          -2.52334        -2.52568        -0.83133
LJ          -1.48367        -1.75608       -0.715454
LJ           2.54978        -1.82684      -0.0168852
LJ          -1.70766          2.4754      -0.0313002
LJ         -0.784866         2.51728       -0.798402
LJ        -0.0917767        -1.69095       -0.882826
LJ         -0.842349        -1.76215       0.0921221
LJ         -0.125691         2.42378       0.0222129
LJ          0.885797         2.40983       -0.861564
LJ           1.55978        -1.78707       -0.843307
LJ          0.743211        -1.79027        0.147553
LJ            1.6627        -2.44053      -0.0454484
LJ          -2.49113       -0.952469       -0.807304
LJ          -1.98328        0.186431       -0.797461
LJ           2.47894       0.0673802      -0.0365489
LJ          -1.65966       -0.816168      -0.0836985
LJ         -0.858016       -0.715643       -0.759723
LJ        -0.0141668       0.0483287       -0.683659
LJ         -0.931629       0.0502369      -0.0508687
LJ        -0.0380052       -0.715398      -0.0340016
LJ          0.948885       -0.712883       -0.776763
LJ           1.79664       -0.120084       -0.813315
LJ          0.949274      -0.0255649       -0.101189
LJ           1.70444        -1.04318       -0.105336
LJ           2.56493         1.03541       -0.797877
LJ           -1.6403         1.74056       -0.937276
LJ            2.5624         1.77669        0.154226
LJ          -1.85272        0.877765       0.0245582
LJ         -0.800656          0.6893       -0.855665
LJ        -0.0745051         1.77465       -0.984266
LJ         -0.922202         1.65458        -0.14792
LJ         -0.100129         1.02069      -0.0141448
LJ          0.699118        0.911604        -0.81197
LJ           1.82156         1.93877       -0.901038
LJ          0.645157         1.75827      -0.0406976
LJ           1.61203         0.82446     -0.00912383
LJ           2.52987         2.48433        0.901955
LJ          -1.55545         -1.7517         0.84973
LJ           2.44026        -1.66713         1.62507
LJ          -1.91368         2.54194         1.66244
LJ         -0.767189         2.50321        0.790364
LJ          0.010541        -1.70604        0.797983
LJ         -0.890211        -1.65917         1.73448
LJ          0.170683        -2.47792         1.85153
LJ           1.09211         2.55916        0.992043
LJ           1.75155        -1.77291        0.848113
LJ          0.889365        -1.63124         1.59986
LJ           1.69748        -2.45227         1.76974
LJ           2.43398        -0.66257        0.857642
LJ          -1.84162      0.00788137        0.931267
LJ          -2.47697       -0.009149         1.92264
LJ          -1.81351       -0.873126         1.71022
LJ         -0.654814       -0.864396        0.788746
LJ          0.148546      -0.0944043         0.78361
LJ         -0.662974       0.0750336          1.6661
LJ        -0.0259328       -0.951982         1.61673
LJ           0.76581       -0.882478        0.792895
LJ           1.61964      0.00179688        0.769896
LJ          0.787375       -0.152832         1.84324
LJ           1.68876       -0.803036         1.63619
LJ           2.41484        0.842359        0.855755
LJ          -1.76233         1.74824        0.807316
LJ          -2.52843         1.70968         1.80545
LJ          -1.76776        0.728922         1.62921
LJ         -0.888965        0.739176        0.839508
LJ        0.00752032         1.57475        0.888391
LJ         -0.852422         1.74054          1.6071
LJ         0.0270814        0.869572         1.55487
LJ          0.858905        0.796767        0.944743
LJ           1.75883         1.72714        0.838262
LJ          0.875199         1.66008         1.68629
LJ           1.70525         1.03783         1.70015
