108
#Comment!
LJ           1.83249         2.14337         1.31169
LJ          -1.95637         -1.8642        0.192659
LJ        -0.0738748        -2.10062        0.543181
LJ         -0.970813         -2.3936       -0.140197
LJ          -1.89043        0.318113         1.54922
LJ           1.58955       -0.212084        0.342655
LJ           1.35201       -0.387011         1.40346
LJ          0.650711        0.641184         1.80813
LJ          0.103886         1.57134         2.54359
LJ          -1.89325         2.02353        -1.85044
LJ           2.21809        -2.12291         1.78408
LJ           1.83713         2.23628         2.28692
LJ          0.184865         1.61305        -1.59338
LJ          0.672088         1.73447         1.05974
LJ           1.38054         1.60836        -1.69136
LJ          0.778447         2.42569        0.185159
LJ          0.914614        -1.99494         2.27437
LJ         0.0903256        0.113127         2.44609
LJ         -0.149691         2.24674         1.44589
LJ          -2.05983         1.09732       -0.971036
LJ          -1.71097        -0.72948        0.753881
LJ         -0.637284        -2.38702        -1.15421
LJ           2.24716        -1.91363        -0.74487
LJ          -1.46779       -0.549693        -1.24243
LJ          0.746234        -2.32434         1.12579
LJ         -0.178144        -2.15683         2.29148
LJ            1.7423        -1.08124        -1.20916
LJ           2.26516        -0.86409         2.04893
LJ          -1.84343         2.41166        0.768407
LJ          0.309935       -0.301745         1.46225
LJ          -2.25637        -1.64202         2.31578
LJ           1.87366      -0.0440325       -0.686827
LJ          -2.01132        -1.15236        -0.60155
LJ           1.59613        0.712252         2.48279
LJ          0.830171       -0.988228       -0.421979
LJ          -1.07992        -1.54862         2.03427
LJ         -0.732995         1.75872        0.628827
LJ           1.07204        -1.38269        -1.94994
LJ        -0.0423584        -1.22957         1.03547
LJ          -1.58114         1.62704      -0.0272046
LJ          -1.32967          1.9729        -1.00637
LJ          -2.08905        -2.54027       -0.552274
LJ          -2.05916         2.44177         2.35388
LJ         0.0989304        -1.23365        -2.45942
LJ         -0.882101         -1.2399        -1.86702
LJ          -2.48233        -0.43187        -1.33259
LJ           1.62337       -0.257603        -2.24125
LJ        -0.0118247       -0.264525       -0.715045
LJ           1.39517        -1.93506       -0.131167
LJ          -1.26739         2.47745         1.74317
LJ          -1.39187          1.3403          2.4554
LJ          -2.09898        0.320514         0.52069
LJ          -0.99411        -1.68723        0.673074
LJ          -2.42977        0.102023         2.45992
LJ          -2.29512        0.192385       -0.614952
LJ         -0.226903       -0.395014        -1.80386
LJ           0.49983         2.29389       -0.825011
LJ           2.20434        -2.35445        0.485842
LJ          0.595262        0.786827        -2.06463
LJ         -0.816323         2.08647        -2.23626
LJ           1.66642         2.07578        -0.59421
LJ         -0.394887          1.5254       -0.710642
LJ            2.0968         -2.1393        -2.17125
LJ          -1.27658        -2.20528         -2.0753
LJ          0.775274        -0.45379        -1.78797
LJ          -2.51835         1.29641        -2.42621
LJ         -0.658625         1.45021         1.83276
LJ         -0.760999        0.304642         1.66752
LJ           1.68105         1.13116       -0.772692
LJ          -1.20491       -0.225799       -0.132891
LJ           2.30218        0.592358         -1.4704
LJ           2.22288         1.95629        -1.66451
LJ          -1.94168        -1.61146         1.15722
LJ         -0.567013        -0.66462          2.0207
LJ            -1.712        0.452453        -1.80281
LJ          0.847081         2.29527        -2.35134
LJ            0.2843        -2.18378        -1.89986
LJ          0.155488        -1.90605       -0.460221
LJ           1.93898        -1.04406       -0.126982
LJ           2.25062         0.96717         1.60935
LJ          0.925302       -0.712095         2.32042
LJ           1.08151        0.502029      -0.0976147
LJ          -1.05471        -1.40226       -0.512058
LJ         -0.628151         1.01474        -1.95817
LJ           2.46261         1.70686       0.0987093
LJ           1.12963        0.468455        0.884764
LJ           2.37857       -0.311608         1.22343
LJ          -1.01313       0.0876325        -2.51536
LJ          0.642496         1.27738       -0.472146
LJ           2.37018        -1.10348        -2.10359
LJ           0.88964        -1.33104         1.46541
LJ          -2.16751         1.69178         1.52576
LJ           1.15255         1.59584         1.94629
LJ           2.03806        -1.37964         1.05144
LJ           0.36248       -0.297418        0.423033
LJ          -2.18102        -1.78669        -1.48003
LJ         -0.851767         0.32827        -1.00535
LJ           1.16777        -2.14817        -1.21476
LJ         -0.603439       -0.135041        0.760347
LJ         0.0325145         -1.2302        -1.27627
LJ          0.236892         0.63638        -1.06778
LJ           1.54833          1.4075        0.665435
LJ          -1.80743       -0.863611        -2.15031
LJ          0.128745        0.905095        0.368314
LJ          -1.80343       -0.780182         1.85978
LJ           2.13218        0.642216       0.0749694
LJ           -0.3178        -1.08123       0.0312042
LJ         -0.874843        0.840787       -0.109965
