108
#Comment!
LJ           2.55931        -1.55705        -1.87991
LJ          -2.26383       -0.192499        -1.66798
LJ          0.772085         2.36797        -1.93252
LJ          0.367451        -2.55516         2.14414
LJ         -0.750256         1.02302        -1.04511
LJ           1.76108        0.653658        -1.60947
LJ          -1.36887        -1.21207        -2.47016
LJ           1.82948       -0.140149        0.175705
LJ           2.17656         1.32526         1.69688
LJ           2.36438        -2.33257       -0.518314
LJ         -0.766264        -2.47496        0.281606
LJ         0.0872048        -1.11355        -2.05319
LJ          -2.32636        -2.44251         2.56182
LJ         -0.383928       -0.295851         1.79407
LJ          0.289996        -2.55082       -0.307201
LJ          -2.43442         2.34977          1.4195
LJ           1.28114        -1.96652        -1.86947
LJ          0.256984       -0.146249        0.846989
LJ         -0.198698         2.54498        -1.19886
LJ          -0.30838         1.57874          1.1785
LJ          -1.35142        -1.00759         1.59005
LJ          0.114166        0.626443         1.63288
LJ           1.30424       -0.148555       -0.851482
LJ          0.868761       -0.962345       -0.487482
LJ           -2.0981       -0.372205         2.40238
LJ          0.552603          2.4149        0.939483
LJ            2.2829        -2.30818        0.541641
LJ          -2.38797        -1.50802         2.06385
LJ           1.51913         2.23737         1.25451
LJ           2.27781         1.80681       -0.918297
LJ          -1.23936         2.36995          1.0423
LJ          -1.59113        0.421807        0.143099
LJ          -2.09402         1.31079         0.97757
LJ         -0.155738        -2.16115         -2.2382
LJ          0.019879       -0.646013        -1.04077
LJ           2.35634        0.457891         1.19953
LJ          -1.38753        -2.35969        -2.14809
LJ         -0.338429         1.84254        -2.00144
LJ          0.915455      -0.0255879       0.0633252
LJ          -1.87816           1.747        -2.04336
LJ          -1.72881        0.496052        -1.20629
LJ           0.35166         1.71215        -1.17861
LJ          0.750562         1.65939       -0.206752
LJ           -2.2878        0.697256        -2.17669
LJ          -2.11735       -0.428784         1.32428
LJ         -0.401692         0.42544        -1.92137
LJ           1.98078       -0.713769         1.67232
LJ           2.12404         1.97037        -2.39948
LJ          0.620557         0.90237        -1.74969
LJ         -0.265309        -1.34257         2.21036
LJ          -1.05699        -1.63631        -1.56886
LJ         0.0965263         1.29641         2.43767
LJ           1.32215        -2.22592        0.347658
LJ          -0.63008        -0.10374      -0.0434051
LJ           1.49103         1.01943       -0.399914
LJ          0.613832         1.23547        0.658434
LJ           1.82495          1.9293     -0.00804178
LJ          -2.37241       -0.539338        0.149568
LJ          -1.39869       -0.495868        0.530795
LJ           1.96287        -0.64008        -1.96809
LJ           1.32479        0.844144         1.56506
LJ          -1.07442      -0.0259709         2.55539
LJ           1.30211        -2.35685       -0.637327
LJ         -0.960787         1.16869         1.72492
LJ         -0.680425         2.11064         2.22674
LJ          -1.64786         1.36436       -0.544257
LJ           1.51135         1.03181        -2.53894
LJ          -2.01487        -1.74691       -0.225936
LJ          0.370719        -1.71506        -1.12725
LJ            1.4539         1.70332        -1.40929
LJ          -1.20004         1.48811        0.540055
LJ         -0.878377        -1.14803       -0.380308
LJ          -2.03755        -1.99382        -1.14662
LJ          0.173191         0.89831       -0.526489
LJ           2.08689         -1.3854      -0.0575611
LJ          0.989441       -0.256875        -1.70673
LJ           1.05685         1.84782         2.18714
LJ          -2.23909        -1.51144         1.07255
LJ           -1.8471        0.538763          1.9085
LJ          0.610748        -1.68872         1.50636
LJ           2.22235        0.273961         2.31949
LJ          -1.10092        0.243053           1.238
LJ           -1.5598        -0.38731       -0.540442
LJ         -0.272748        0.681305        0.713081
LJ        -0.0277663        -1.61517        0.143803
LJ           1.83797        -2.17294         2.37711
LJ         -0.516105        -1.97708         1.38602
LJ           1.80026         -1.8418         1.30083
LJ           2.39926       -0.659393       -0.891599
LJ           2.23233        -2.46348        -1.66708
LJ          -1.29933        -1.99705         2.01546
LJ          -2.53837        0.383803       -0.378919
LJ         -0.333454       -0.911271        0.972284
LJ           1.75274        -1.46369        -1.12554
LJ          -1.18437         2.10666        -1.36095
LJ           1.32809        -1.05505        0.448044
LJ         -0.355429         1.74245        0.119369
LJ           1.10375        -1.20747         2.36934
LJ          0.472148        0.141169         2.48681
LJ          -1.29124       -0.593545        -1.62105
LJ           1.27551      -0.0943783         1.05475
LJ          -1.31295        -1.76359        0.645914
LJ           2.53781         1.24021        0.102883
LJ          -2.02776          2.2043        0.116759
LJ          -1.81814         1.60425          2.1514
LJ          -1.20033        -2.25772       -0.606854
LJ          -1.09804         1.09172        -2.24351
LJ          0.638769       -0.626174         1.70664
