108
#Comment!
LJ          -2.44759        -2.27834         2.38268
LJ          -1.68362        -1.56259         2.39524
LJ          -2.23537        -1.55678        -1.61604
LJ          -1.56802        -2.41471        -1.79852
LJ         -0.789771         2.46378         2.51619
LJ         -0.123011        -1.75567         2.55619
LJ          -1.07657        -1.52427        -1.81196
LJ          0.166704         2.37507        -1.88681
LJ          0.960769        -2.53191         2.49644
LJ           1.70635         -1.5852         2.42049
LJ           1.00929        -1.82547        -1.70936
LJ           1.96371         2.40358        -1.82649
LJ          -2.49328       -0.769512         2.52245
LJ           -1.7642      -0.0449995         2.40866
LJ           -2.5036       0.0184409        -1.77746
LJ          -1.68237       -0.654633        -1.63757
LJ           -1.1083       -0.858911        -2.49071
LJ         0.0116734        -0.17699        -2.34367
LJ          -1.00547       0.0738254        -1.87052
LJ          0.036477        -1.10578        -1.69226
LJ          0.875596       -0.874122         2.55765
LJ           1.70441      0.00383749        -2.43101
LJ          0.881979        0.164721        -1.78497
LJ           1.61336       -0.635645        -1.69972
LJ          -2.46474        0.993819        -2.46847
LJ          -1.69788         2.01203         2.35181
LJ          -2.51833         1.59694        -1.57001
LJ          -1.70388        0.714536        -1.88569
LJ         -0.443482        0.783266         2.42714
LJ          0.175926         1.59136         2.32151
LJ          -1.23007          1.6504        -1.75266
LJ        -0.0082051         1.12195        -1.84923
LJ           1.05206        0.939439         2.46697
LJ           1.89002          1.7103        -2.54634
LJ          0.946371         1.76952         -1.9207
LJ           1.58096        0.876687         -1.6718
LJ           2.55568          2.4162       -0.828542
LJ          -1.42694        -1.70522        -0.85904
LJ          -2.23588        -1.75099      -0.0126044
LJ          -1.65681         2.56201        0.133651
LJ         -0.544149        -2.49889        -1.12175
LJ         0.0206604        -1.69733       -0.818367
LJ         -0.783779        -1.94074       0.0198128
LJ        -0.0414941         2.24748       0.0746865
LJ          0.776044         -2.5481       -0.923312
LJ           1.95241        -1.71333       -0.907388
LJ          0.794968        -1.82512        0.375574
LJ           1.75247        -2.49258       0.0207411
LJ          -2.36442       -0.855302       -0.826578
LJ          -1.92792       0.0199416         -0.8782
LJ          -2.46172      0.00311655       0.0792991
LJ          -1.69062       -0.703326       0.0610955
LJ         -0.674915       -0.838884        -0.82204
LJ         -0.200968      -0.0824749        -1.06248
LJ         -0.684124      0.00158997      -0.0399564
LJ          0.053814       -0.816257        0.112473
LJ            1.0447        -1.27375        -0.88805
LJ           1.84329       -0.167704       -0.633446
LJ          0.983715        0.104126       0.0926935
LJ           1.92072       -0.982951       0.0154814
LJ           2.44534        0.851769         -0.8269
LJ          -1.61656         1.72062       -0.832125
LJ           2.31964         1.58957       0.0799348
LJ          -1.82442         1.02378        0.344981
LJ          -1.12037         0.72545       -0.935962
LJ          0.151691         1.70224        -0.87269
LJ         -0.843907         1.60798       -0.247794
LJ        -0.0299789        0.815355       -0.244743
LJ           1.01653        0.774666        -0.84069
LJ           1.68394         1.65183       -0.759291
LJ          0.901313          1.7061       -0.182672
LJ           1.62338        0.795074       -0.031887
LJ           2.55312         2.35447        0.666688
LJ          -1.36457        -1.79963        0.843835
LJ           -2.5649        -1.50804         1.61844
LJ          -1.96982        -2.31119          1.5336
LJ         -0.798693         2.45567        0.919086
LJ         -0.127728        -1.53554        0.937851
LJ         -0.862346        -1.73215         1.94429
LJ        0.00806344        -2.36059         1.74854
LJ          0.813223         2.45173        0.981474
LJ            1.6344        -1.55372        0.840355
LJ          0.857169        -1.64065         1.77354
LJ           1.79426        -2.46855         1.60103
LJ           -2.4917       -0.894751          0.7395
LJ          -1.49336      -0.0526773         0.77773
LJ           2.52658      -0.0795219         1.66944
LJ          -1.71307       -0.761022         1.64587
LJ         -0.913427       -0.875727          1.1297
LJ          0.174307       -0.137895        0.972671
LJ          -0.93847       0.0298954         1.79065
LJ          0.199723        -0.81512         1.74544
LJ          0.843578       -0.864822        0.628285
LJ           1.73754       -0.286485        0.725325
LJ          0.689187       0.0197238         1.83598
LJ            1.5965       -0.804954         1.69342
LJ           2.24909        0.908374        0.954702
LJ          -1.76209         1.79265        0.930691
LJ           2.50048         1.83193          1.7011
LJ           -1.9202        0.848656          1.4357
LJ         -0.867839        0.880105        0.631982
LJ          0.403203         1.55971        0.762921
LJ         -0.921047         1.37919         1.64435
LJ         0.0665928        0.924894         1.48868
LJ           1.14374        0.647304         1.02666
LJ           1.52017         1.63522        0.601269
LJ           1.10187         1.75554         1.75117
LJ           1.79415         1.04512         1.87017
