108
#Comment!
LJ          -1.57195         2.22714       -0.421606
LJ           1.18437         1.15884        0.502109
LJ         -0.481973       0.0407088         1.87615
LJ          -2.46544       -0.740658          1.2847
LJ           1.50887        -2.54124       -0.286308
LJ           2.33036        -1.25912       -0.680914
LJ           2.01899        -1.65487         1.71686
LJ          -1.79252          1.3378        0.493586
LJ           2.33704        -1.81647        -2.40487
LJ           1.48082        -2.23391        -1.54637
LJ           2.38143          2.1666        -0.97875
LJ           1.41031       -0.686895         1.32886
LJ          -2.04734         1.28911         -1.4407
LJ          0.863774          1.3995         2.00713
LJ          0.214301       -0.888693       -0.900629
LJ         -0.288437         2.19211       -0.891904
LJ           2.50302       -0.660803        0.172573
LJ         0.0615421         0.77944        -1.83647
LJ           2.25611         1.22054         2.54402
LJ         -0.793845        0.768938        0.476202
LJ          -1.66223         1.37815         -2.4424
LJ            1.2205        0.628423        -2.41016
LJ           2.14004      -0.0228931       -0.653676
LJ          0.995769         1.92015        -2.24237
LJ           1.68538       -0.456436         2.46925
LJ         -0.707466        -2.52643      -0.0319353
LJ         -0.765232         1.10077         1.99711
LJ           1.64844      -0.0661282        0.439652
LJ          -1.62433         0.50614       -0.441791
LJ           1.74158         1.23498         1.52646
LJ          0.290326        0.124757       -0.875142
LJ           1.09055       -0.933367         -1.6467
LJ          -1.09924       -0.920019        0.989407
LJ           2.55039         1.96795       0.0389055
LJ             2.489        -2.34193        0.929802
LJ          0.357827       -0.181343        -2.27655
LJ          -2.46115        -2.19622       -0.148456
LJ           2.11147       -0.580388        -1.52664
LJ          -1.82757        -2.22842        -2.37528
LJ          -1.88243        -1.60467        0.765141
LJ          -2.06784         1.08577         1.45283
LJ          -1.04949        -2.15839         1.09206
LJ           -2.4045         1.09765        -0.45314
LJ          -1.84074       -0.016217        0.509373
LJ         -0.757691         1.81173        0.949419
LJ          0.280123        -1.90743         -0.1357
LJ           1.12254        -1.56342        -0.66604
LJ       -0.00451609        -1.28949        -1.88217
LJ           1.17456        0.102153        -1.47936
LJ         0.0702484         2.55343        0.644766
LJ         -0.771263       -0.371612       -0.676402
LJ           0.45941       -0.236276         0.45535
LJ          -1.01111        0.610816        -2.25902
LJ          -2.03059       -0.952287        -1.80964
LJ            1.0047        -2.15517        0.782821
LJ          0.906883        -1.11015        0.511714
LJ           1.92106        -1.38689         0.68365
LJ          0.484594         1.78946         1.13782
LJ          -2.49394         2.04152         2.15537
LJ          -2.23059        0.189163         2.23568
LJ         -0.610395        -0.33662        -1.92872
LJ          0.229112        -2.04197        -1.23558
LJ          0.287848       -0.835518         1.40992
LJ           1.55444         2.16936         1.11638
LJ          0.088526        0.687948      -0.0584062
LJ          -0.38553       -0.984389         2.28058
LJ          -1.10273        -1.56278        -1.92513
LJ           -1.0162         1.74666         -1.4516
LJ           1.10613         2.00776        -1.12661
LJ          0.352718        0.462918           1.167
LJ         -0.401895          1.9894          2.0211
LJ           1.71802         1.47327       -0.442295
LJ           2.05852         2.17315        -2.08743
LJ        -0.0280814        -1.85531         1.61624
LJ            2.4584        0.477113        -1.69651
LJ          -1.65438        -1.85147        -1.02279
LJ          -0.70204        -1.85515        -1.02141
LJ          -2.06832        -2.03246          1.7472
LJ            1.1728        0.638144       -0.608592
LJ          0.863706      -0.0287938         1.86516
LJ           -1.4901       -0.325938        -2.54569
LJ           1.61571         1.21767        -1.66257
LJ          0.304808         1.27692        -0.97225
LJ         -0.891451         1.60603       -0.241881
LJ          -1.92824         2.32174        -1.69925
LJ          -1.49957         2.16742         1.72872
LJ            2.2602        0.821597        0.700169
LJ          0.682053         2.51809         1.96172
LJ         -0.736004        -1.51787      -0.0488731
LJ          0.681104        -1.07348         2.47936
LJ          -2.09341       -0.459732       -0.821612
LJ           1.72088          2.5491          2.1569
LJ          0.083139         1.79258    -0.000537759
LJ          -1.29276        -1.59667         2.13328
LJ          0.178125        -2.00535         -2.4915
LJ          -1.42269        0.152063         1.43336
LJ          -1.58787        0.248899        -1.52139
LJ         -0.730533        0.698187       -0.939661
LJ          -1.69907         2.31774        0.630226
LJ          0.100036          1.9217        -1.76945
LJ           2.50311        -1.95583        -1.45311
LJ         -0.759845         2.49496        -2.12773
LJ          0.226048        0.744088         2.33347
LJ            1.1061        -2.09195        -2.36792
LJ            1.1354       -0.572086        -0.36564
LJ           -1.6798        -1.20921       -0.178999
LJ           2.07467        0.255619         1.49732
LJ          -2.29358       -0.980603         2.39493
