108
#Comment!
LJ           2.32527        -2.55446         2.50975
LJ          -1.68209         -1.8693         2.52362
LJ          -2.51145        -1.67464        -1.81122
LJ          -1.82059         2.50244        -1.76169
LJ         -0.937809         2.43208         2.49028
LJ          -0.12928        -1.92634        -2.44538
LJ         -0.868314        -1.66203        -1.58138
LJ        -0.0102879          2.5187        -1.74807
LJ          0.878612         2.49351        -2.45512
LJ           1.66355        -1.79301        -2.52263
LJ          0.832651        -1.50102        -1.55725
LJ            1.9042        -2.52862        -1.62706
LJ           2.47059       -0.891327         2.49146
LJ          -1.55727       0.0397088         -2.5338
LJ          -2.47363        0.112879        -1.78659
LJ          -1.82722       -0.929442        -1.65961
LJ          -1.19651        -0.90328            2.51
LJ        -0.0600469      -0.0825326         2.54215
LJ         -0.761158        0.124672        -1.69688
LJ          0.109259       -0.823057        -1.73889
LJ          0.890541       -0.898584        -2.55551
LJ           1.74649       0.0556779        -2.55947
LJ          0.731358        0.186642         -1.6356
LJ           1.61116       -0.778543        -1.75231
LJ          -2.50366        0.866479          2.5062
LJ          -1.78616         1.81527          2.4734
LJ          -2.50045         1.65247        -1.81607
LJ          -1.69214        0.910396        -1.74989
LJ         -0.630843         1.00608         2.29707
LJ          0.182751         1.76297         2.38561
LJ         -0.839889         1.70169        -1.65102
LJ        -0.0594099        0.931315        -1.74703
LJ          0.739506        0.869064        -2.38334
LJ            1.8744          1.7553        -2.44228
LJ          0.894912         1.76736        -1.58787
LJ           1.74316         0.75067        -1.64923
LJ          -2.53764        -2.52491       -0.831551
LJ          -1.48213        -1.77035       -0.708678
LJ            2.5319        -1.82771      -0.0522789
LJ          -1.71018          2.4987      0.00233939
LJ         -0.796038         2.50953       -0.798242
LJ        -0.0811998        -1.69842       -0.888584
LJ         -0.835233          -1.765       0.0873188
LJ        -0.0881017         2.40815       0.0402178
LJ           0.87564         2.41569       -0.867785
LJ           1.53952        -1.81439       -0.836992
LJ          0.727101        -1.81599        0.146688
LJ           1.64516        -2.46306        -0.02436
LJ          -2.44319        -0.95771       -0.812715
LJ          -1.98377        0.195415       -0.775304
LJ           2.48426       0.0697285      -0.0399404
LJ          -1.66883       -0.811526        -0.10179
LJ         -0.855793       -0.726725       -0.735276
LJ        0.00658283       0.0178116       -0.684354
LJ         -0.942097       0.0474203      -0.0491961
LJ        -0.0438939       -0.734948      -0.0301361
LJ          0.967278       -0.732027       -0.777043
LJ           1.78204       -0.109487       -0.817078
LJ          0.953678      -0.0255602       -0.110954
LJ           1.69091        -1.03767      -0.0966254
LJ            2.5581         1.04325       -0.773315
LJ          -1.63339         1.75104       -0.955571
LJ           2.56071         1.75493        0.142064
LJ          -1.85878        0.890163       0.0137742
LJ         -0.801174         0.73185       -0.871761
LJ        -0.0664106          1.7667       -0.976855
LJ          -0.93944         1.65907       -0.157245
LJ         -0.114632         1.02496      -0.0108541
LJ          0.669391        0.933545       -0.802481
LJ           1.83661         1.92152       -0.891871
LJ          0.646935         1.77847      -0.0383679
LJ           1.59042        0.853772    -0.000408748
LJ           2.52435         2.50846        0.927995
LJ          -1.55641        -1.72955        0.840736
LJ           2.44087        -1.67198         1.61213
LJ          -1.88284         2.54967          1.6274
LJ         -0.798693         2.53638        0.794501
LJ          0.023178        -1.70876        0.786601
LJ          -0.87735        -1.64057          1.7413
LJ          0.190155        -2.47653         1.83308
LJ           1.09076         2.56473        0.989373
LJ           1.76982        -1.76469        0.842114
LJ           0.87692        -1.61367         1.61334
LJ           1.69855         -2.4582         1.78236
LJ           2.42586       -0.635412        0.850902
LJ           -1.8337        0.010554        0.921459
LJ          -2.47418      -0.0357504         1.94264
LJ          -1.83863       -0.857338         1.70002
LJ         -0.647972       -0.863312        0.801766
LJ          0.122725      -0.0952632        0.808748
LJ         -0.674752       0.0673529         1.64616
LJ        -0.0445546        -0.92549         1.61658
LJ           0.74987         -0.8854        0.795315
LJ           1.62519      0.00788042         0.77238
LJ          0.782004       -0.148924         1.84253
LJ           1.69693       -0.800289          1.6162
LJ           2.43322        0.849379        0.833662
LJ          -1.74934         1.74723        0.807883
LJ          -2.52791         1.73127         1.79051
LJ          -1.75859        0.741664         1.66441
LJ         -0.908898        0.748366        0.842716
LJ          0.004414         1.57726        0.895604
LJ         -0.879029         1.70879         1.61772
LJ         0.0250418        0.853612         1.54642
LJ          0.869471          0.8018        0.999104
LJ           1.75387         1.72779        0.869273
LJ          0.888662         1.64829         1.67742
LJ           1.68217         1.03702         1.70053
