108
#Comment!
LJ          -2.47314         -2.2642         2.35955
LJ          -1.71098         -1.5866         2.41158
LJ          -2.22888         -1.5731        -1.65215
LJ          -1.52462        -2.41889        -1.78736
LJ         -0.771518         2.48936         2.49724
LJ         -0.121475        -1.69709          2.5468
LJ          -1.11282        -1.53107        -1.79287
LJ          0.128931         2.38556        -1.86903
LJ          0.979995        -2.49287         2.50206
LJ           1.71304        -1.59438         2.42354
LJ           1.01915        -1.83685        -1.70982
LJ           1.94381         2.36449        -1.79652
LJ          -2.49015       -0.786911         2.50147
LJ          -1.80303       -0.060712         2.40719
LJ          -2.46874      0.00362178        -1.75849
LJ          -1.67484       -0.647539        -1.64046
LJ          -1.07264       -0.854033        -2.49027
LJ        0.00550623       -0.127651        -2.33104
LJ          -0.98951       0.0397934        -1.81773
LJ          0.018297        -1.11592          -1.694
LJ          0.886512       -0.904548         2.53318
LJ            1.6869      -0.0202202         -2.3928
LJ          0.868315         0.16926        -1.82047
LJ           1.62015       -0.651089          -1.698
LJ          -2.45074        0.938664        -2.46474
LJ          -1.67766         2.00767         2.37009
LJ          -2.51073         1.61387        -1.60723
LJ          -1.70143        0.726569        -1.88979
LJ         -0.459171        0.790033         2.43909
LJ          0.165312         1.62684         2.30011
LJ          -1.20583         1.66771        -1.75423
LJ       0.000256865         1.13943        -1.82035
LJ           1.06873        0.994953          2.4857
LJ           1.85351         1.73397         -2.5383
LJ          0.938511         1.77953        -1.94987
LJ           1.56396        0.892427        -1.65989
LJ           2.51565         2.39901       -0.842629
LJ          -1.44361           -1.68       -0.825009
LJ           -2.2393        -1.77211        -0.02508
LJ          -1.64503          2.5409        0.110977
LJ          -0.56094        -2.46114        -1.10337
LJ         0.0104019        -1.70637       -0.800356
LJ         -0.757285         -1.9301      -0.0134648
LJ      -6.02866e-08         2.23519       0.0689713
LJ          0.805084        -2.53187       -0.933036
LJ           2.01473        -1.76003       -0.891609
LJ          0.777019        -1.85985        0.339077
LJ           1.67855         -2.4945       0.0294521
LJ          -2.37819       -0.872414       -0.809746
LJ          -1.92438        0.058321       -0.915633
LJ          -2.42826    -0.000526537       0.0592425
LJ          -1.66773       -0.713195       0.0673092
LJ         -0.728576       -0.895704       -0.803248
LJ         -0.198986      -0.0776788         -1.0297
LJ         -0.672962      0.00691435     -0.00785176
LJ         0.0294153        -0.83199        0.122247
LJ           1.01017        -1.24634       -0.817783
LJ           1.81568       -0.128342       -0.635832
LJ           0.94205        0.110465        0.102366
LJ            1.9387       -0.996197       0.0168129
LJ           2.46604        0.819115       -0.810419
LJ          -1.63147         1.66181       -0.814697
LJ           2.31451         1.57187       0.0320854
LJ          -1.80971         1.02056        0.312928
LJ          -1.15652        0.712215       -0.997791
LJ          0.159659           1.661       -0.873124
LJ         -0.849284         1.61767       -0.265048
LJ        -0.0253842        0.797946       -0.259398
LJ           0.97762        0.807226       -0.856559
LJ           1.68531         1.68679       -0.735927
LJ          0.886279         1.67677       -0.151147
LJ           1.64542        0.749313       0.0070155
LJ           2.52738         2.38406        0.679537
LJ          -1.37985        -1.81588           0.826
LJ            -2.528        -1.48344         1.60417
LJ          -1.93632        -2.30425         1.51594
LJ         -0.794403          2.4307         0.89703
LJ        -0.0715007        -1.53698        0.946132
LJ          -0.83103         -1.6956         1.90818
LJ         0.0198864        -2.34103         1.73544
LJ          0.778091         2.44198        0.981067
LJ           1.71006        -1.56693        0.877772
LJ          0.879803        -1.63084         1.78547
LJ            1.8191        -2.48284         1.61386
LJ          -2.44596        -0.89704         0.77009
LJ          -1.50109      -0.0512571        0.805956
LJ           2.46251      -0.0835718         1.64931
LJ          -1.70344       -0.761475         1.61116
LJ         -0.886221       -0.914802         1.13957
LJ          0.176596       -0.091677        0.966117
LJ         -0.952381       0.0581926         1.78302
LJ          0.176915       -0.832172         1.70495
LJ          0.832858       -0.862505         0.64522
LJ           1.73055       -0.263936         0.70778
LJ          0.738262      -0.0130367         1.82361
LJ           1.59529       -0.774596         1.70496
LJ           2.22825        0.955457        0.997187
LJ          -1.72569          1.7654        0.950595
LJ            2.4716         1.80965         1.70666
LJ          -1.88069        0.847395         1.43377
LJ         -0.876798        0.834685        0.626591
LJ          0.437323         1.54448        0.740594
LJ         -0.910003         1.39506          1.6556
LJ          0.092548        0.923982         1.46485
LJ           1.14439        0.644601         1.01685
LJ           1.47463         1.65519        0.626367
LJ            1.1579         1.73391         1.74692
LJ           1.82752         1.08872         1.87146
