108
#Comment!
LJ         -0.281183         -1.5276       -0.170955
LJ           -2.5537        -1.30991          1.6308
LJ       -0.00495993         1.06647        -1.05086
LJ          -1.36347        -1.64047        -1.54964
LJ          -1.91523       0.0192477         2.00558
LJ         -0.368448        -1.91198         1.05631
LJ           1.30777        -1.47928        -1.11022
LJ          0.180247         -1.6858         2.01553
LJ          0.377009        0.255406         1.85668
LJ           1.21278         1.66612        -1.79516
LJ          0.727638        -1.50415        0.284596
LJ         -0.690959        -1.30688         2.48845
LJ          -1.52678         2.11314       -0.207082
LJ         -0.897404        0.418307         1.82841
LJ             1.641        0.236499          1.9841
LJ           1.62573        -1.97767       -0.230328
LJ          -1.42704          1.5437        0.575157
LJ           1.63909         1.27216       -0.604116
LJ        -0.0787367         1.11804         1.56429
LJ           1.32471          1.1087        0.518234
LJ           1.46208         2.52473        -2.47938
LJ        -0.0448476         1.96984         -1.6272
LJ         -0.415925       -0.955934        -1.74159
LJ           2.19924           0.953         1.43427
LJ          0.829892        -2.39202        -1.71394
LJ          -1.88205         2.43729        0.684385
LJ          0.697233        -2.19453        0.937495
LJ         -0.891173       -0.279763        -2.47717
LJ          0.417343         1.81831        0.775058
LJ           2.27067       -0.790794        -1.74256
LJ         -0.499261         1.95688       -0.395861
LJ         -0.510828         2.12225         1.61439
LJ           2.33425        -1.75829        -1.08274
LJ          -2.15957        -2.54379        -1.08842
LJ          -2.29289        -1.72148        0.749035
LJ          -1.55187        0.547766         1.07762
LJ          0.491608          2.0351         1.75217
LJ          -2.22734        0.161781        -1.94776
LJ          0.463551        -2.15016       -0.808585
LJ           1.23626        0.309733       -0.268748
LJ          0.371842       -0.889905       -0.576653
LJ         0.0916869        0.397805        0.850905
LJ          -1.26138        -1.32504        0.118895
LJ          -2.26169        -2.19351        -2.16255
LJ           1.74532        -1.76461        0.709826
LJ           2.56047        -2.35447      -0.0430722
LJ          -1.32101       -0.326374        -1.55542
LJ           1.81006         1.53678         2.37377
LJ          -1.43273        -1.57698          1.3023
LJ        -0.0889992       -0.643588         1.69135
LJ          -1.85002         1.07616       -0.167326
LJ          -1.85564           2.317         2.11371
LJ           1.00948         1.17083         1.60818
LJ          -1.18905         1.36817         1.74198
LJ           1.13696         2.32515        0.239768
LJ         -0.805196         1.62607        -2.49039
LJ           -1.8831          1.7041        -2.15602
LJ         -0.311111        -1.97044        -1.72936
LJ         -0.352685         0.14946         -1.3024
LJ         -0.373512        0.790427        -2.16392
LJ           2.24798       -0.521404         2.31366
LJ          -1.75598        -0.92654         2.51157
LJ           2.35485          1.6705         0.10287
LJ           1.32213        -0.37809        -2.32805
LJ         -0.250768       -0.151602       -0.265269
LJ           1.04704        0.672373        -1.31231
LJ           1.26021       -0.777513       -0.135365
LJ          0.732764       -0.331209         -1.4381
LJ          -1.09746        -0.69651         1.59217
LJ           1.94809        0.888096         -1.9711
LJ          -2.18985         1.53163         1.19908
LJ            1.7838       -0.718321         1.23168
LJ         -0.839653        0.834815       -0.421445
LJ           2.37166        -2.37026         1.64409
LJ            0.4427         1.44793        -2.53605
LJ         -0.950673        -2.38305        0.361851
LJ          0.585235        -1.30545        -2.29634
LJ          -1.48969      -0.0356348       -0.375856
LJ         -0.983598         1.55568        -1.26843
LJ          -1.97545       -0.615098        0.809601
LJ        -0.0328664        -0.72027        0.635103
LJ         -0.407602         1.20956        0.562056
LJ          -1.25024          2.5624        -2.14238
LJ          -1.50149        0.628292        -1.27277
LJ           2.25193        -0.13986       -0.688855
LJ          0.204982         2.46366        -2.50697
LJ           1.82009        -1.69141        -1.98589
LJ          0.164838       -0.169538        -2.34104
LJ         -0.750101        -2.20635         2.14086
LJ         -0.923931        -2.13362       -0.735774
LJ           2.47344       -0.895836       0.0262565
LJ          -2.05024         -1.0091        -1.16876
LJ           2.24427         2.17995        -1.82957
LJ          -1.06448       -0.317509        0.573195
LJ           1.32165        -1.64509         1.92245
LJ           1.10114       0.0289895        0.789247
LJ          0.959001        0.606149        -2.35836
LJ           2.15804        0.146108        0.484269
LJ          0.771454       -0.898011         1.33773
LJ          -1.39431        0.591255        -2.29753
LJ         0.0584168        -2.50004        0.235074
LJ          -2.50599          1.2139        -1.17665
LJ          0.756014         1.83791       -0.839812
LJ          0.270386        0.823181       -0.032219
LJ          -2.40242        0.974588          2.5004
LJ           1.59618         1.93627         1.39095
LJ           1.63392         2.41036       -0.932098
LJ         -0.771184       -0.862697       -0.865399
