108
#Comment!
LJ           2.53227         2.56088         2.53811
LJ          -1.73197        -1.88161        -2.54044
LJ          -2.46724        -1.70558        -1.69897
LJ          -1.82934        -2.54405         -1.7092
LJ         -0.855224         2.41436         2.44568
LJ         -0.220004        -1.77561        -2.47199
LJ         -0.876944        -1.66338        -1.53487
LJ        -0.0452039        -2.55334        -1.67512
LJ          0.893781         2.47801         2.50513
LJ           1.64769        -1.80819         2.56039
LJ          0.920083         -1.5428        -1.64553
LJ           1.88893        -2.49263        -1.71108
LJ           2.41775       -0.845351          2.5629
LJ          -1.58752       0.0912738         2.51821
LJ           2.54289       0.0516067        -1.77938
LJ          -1.77755       -0.905423        -1.73229
LJ          -1.09356       -0.891951         2.52543
LJ         0.0193225       -0.109364          2.5291
LJ         -0.928575          0.1084        -1.70752
LJ         0.0599355       -0.877768        -1.70535
LJ          0.883083        -1.00086         -2.5153
LJ           1.84028        0.136394        -2.54262
LJ          0.753842        0.186877        -1.67316
LJ           1.68391        -0.85204        -1.70579
LJ            2.5534        0.817398         2.52299
LJ          -1.73757         1.71477         2.53381
LJ           -2.5474         1.58478        -1.77999
LJ          -1.74306        0.936278        -1.62664
LJ          -0.76864        0.929971         2.32121
LJ          0.171739          1.6926         2.41156
LJ         -0.837804         1.67222        -1.67745
LJ        -0.0208435        0.887204        -1.88086
LJ          0.856379        0.930464        -2.35873
LJ           1.82055          1.7413        -2.48175
LJ          0.980784         1.80373        -1.66852
LJ           1.72723        0.880224        -1.67714
LJ          -2.49905        -2.47819       -0.845232
LJ          -1.49522        -1.74168       -0.741131
LJ           2.49131        -1.75157     -0.00676196
LJ          -1.60366        -2.56487       0.0731127
LJ         -0.766676          2.5531       -0.857034
LJ           0.01341        -1.70902         -0.8925
LJ         -0.923184        -1.73551       0.0809579
LJ        -0.0832005         2.44126       0.0229532
LJ          0.808046         2.52422       -0.832399
LJ            1.6037        -1.81574       -0.807744
LJ          0.767447        -1.80542        0.174931
LJ           1.65143        -2.54128      -0.0862484
LJ          -2.55811       -0.850804       -0.823402
LJ          -1.93451        0.158812       -0.774158
LJ           2.47278      -0.0631066      -0.0549828
LJ           -1.7003       -0.926707      -0.0463002
LJ         -0.916809         -0.7704       -0.782948
LJ         -0.055413     -0.00420453       -0.835622
LJ         -0.889385      -0.0261178      -0.0451398
LJ        -0.0514481        -0.69604      -0.0449103
LJ          0.890794       -0.888839       -0.708645
LJ           1.69113       -0.180905       -0.844578
LJ           0.94903      -0.0576609        -0.12046
LJ           1.67555        -0.96801       -0.104502
LJ          -2.45048        0.999067       -0.840558
LJ          -1.75366         1.78066          -0.946
LJ          -2.50879         1.74154        0.115581
LJ          -1.68661        0.938732         0.14136
LJ         -0.866809        0.802196       -0.675285
LJ         -0.124667          1.7138       -0.934658
LJ         -0.912957         1.76525       -0.213822
LJ        -0.0643156        0.919953       0.0487829
LJ          0.695469        0.924948       -0.818475
LJ           1.69886         1.89707       -0.874038
LJ          0.674759         1.75778       -0.164129
LJ           1.70325         0.73813       0.0379415
LJ           2.48686          2.5123        0.988522
LJ          -1.63048        -1.72134        0.921895
LJ           2.33311        -1.70737         1.70528
LJ           -1.8936        -2.53593         1.64584
LJ         -0.856471         2.42354        0.782432
LJ          0.045586        -1.77536        0.911222
LJ         -0.916672        -1.67201         1.73757
LJ         0.0436028         -2.5271         1.88653
LJ           1.06266         2.44023        0.991378
LJ           1.68018        -1.79743         0.84535
LJ           0.90331        -1.61166         1.65469
LJ           1.65933        -2.53624         1.77509
LJ           2.36987       -0.577858        0.914989
LJ          -1.71802      -0.0282486        0.793393
LJ          -2.49237      -0.0270341         1.95078
LJ          -1.75802       -0.904623         1.75552
LJ         -0.744844       -0.911825        0.844016
LJ         0.0598481      0.00802307        0.854979
LJ         -0.708731       0.0466603         1.76307
LJ        -0.0360332       -0.893148         1.59409
LJ          0.769277       -0.943072        0.746397
LJ           1.62726      -0.0428543        0.730993
LJ          0.869131       -0.165033         1.74964
LJ           1.71538        -0.86382         1.73663
LJ           2.47278        0.926116        0.784065
LJ          -1.74172          1.7094        0.837803
LJ            2.5418         1.73071         1.78732
LJ          -1.69393        0.748918         1.75961
LJ         -0.880476        0.639713        0.834481
LJ        -0.0267743          1.6086        0.957801
LJ          -0.83512         1.77723         1.67352
LJ        -0.0177605        0.773432         1.53012
LJ          0.894435        0.764011        0.794694
LJ           1.74815         1.70226        0.726441
LJ          0.822619         1.58536         1.66325
LJ           1.64531         1.06172         1.64719
