108
#Comment!
LJ           2.55513        -2.53491         2.47711
LJ           -1.7631        -1.74148         2.51917
LJ          -2.52891        -1.70559        -1.64321
LJ          -1.75998         -2.4239        -1.74023
LJ         -0.909452         2.47823         2.51966
LJ       -0.00945485        -2.00811        -2.53647
LJ         -0.896206        -1.57724        -1.59257
LJ          0.106468          2.3004        -1.66939
LJ           1.01872         2.38047        -2.36643
LJ           1.80766        -1.76969        -2.53038
LJ          0.974027        -1.73109        -1.66899
LJ           1.98308        -2.51176        -1.49526
LJ           2.44627       -0.805951         2.55569
LJ          -1.73742       0.0494296        -2.53891
LJ          -2.48839        0.196382        -1.75199
LJ          -1.69873       -0.560002        -1.38223
LJ          -1.20287       -0.847342        -2.45447
LJ        -0.0803506       -0.285761        -2.47396
LJ         -0.784791         0.14953        -1.83897
LJ        -0.0698119       -0.993703        -1.78612
LJ           1.00071        -1.08008        -2.45348
LJ           1.64006       0.0965331         2.55662
LJ          0.759005      -0.0959365        -1.54265
LJ           1.74181       -0.856131        -1.71097
LJ          -2.42298         1.06168         2.31729
LJ          -1.75001         1.85809         2.53395
LJ          -2.48966          1.6685        -1.71039
LJ          -1.60172         0.94316        -1.76233
LJ         -0.705665         1.07807        -2.48869
LJ         0.0958389         1.82186         2.53449
LJ          -0.73992         1.76435        -1.73369
LJ         0.0750054        0.874519        -1.86588
LJ          0.870536        0.790251        -2.46092
LJ           1.73028         1.88165         2.39692
LJ          0.925953         1.62135         -1.5737
LJ           1.83228        0.781497        -1.74725
LJ          -2.55163         2.42285       -0.716792
LJ          -1.45198        -1.87785       -0.682385
LJ          -2.48896        -1.75346       -0.193293
LJ          -1.67246         2.47979      -0.0718224
LJ         -0.668753        -2.54891       -0.916148
LJ         0.0611356        -1.69003       -0.966556
LJ         -0.572167        -1.79803       0.0452446
LJ         -0.203756         2.31734        0.104675
LJ          0.828587        -2.48858       -0.963783
LJ           1.80553        -1.71026       -0.810972
LJ          0.699162        -1.97497         0.12835
LJ           1.64826        -2.40789      -0.0232509
LJ          -2.44951       -0.922328       -0.785238
LJ          -1.94851       0.0706612       -0.659972
LJ           2.34354      0.00926309      -0.0271557
LJ           -1.6158       -0.828623       0.0138885
LJ         -0.621031       -0.772237       -0.820429
LJ         0.0624337          0.1912       -0.899538
LJ         -0.755352       -0.109372      -0.0473113
LJ         0.0503458       -0.799314        0.213931
LJ          0.849924       -0.825071       -0.769694
LJ           1.80123       -0.153308       -0.884976
LJ           0.73467       -0.023405      -0.0892375
LJ           1.72361       -0.907784       -0.101568
LJ           -2.4517        0.962642       -0.922414
LJ          -1.65167         1.71954       -0.992251
LJ           2.43661         1.60298       0.0325951
LJ          -1.94572        0.881881        0.079084
LJ          -0.93277        0.747137       -0.860567
LJ        -0.0829866         1.57434       -0.847133
LJ         -0.850619         1.50314      -0.0753363
LJ         0.0738284        0.968297        0.124449
LJ          0.791948         1.10858       -0.683516
LJ           1.74988          1.6878       -0.896161
LJ          0.850419         1.98743      -0.0161393
LJ           1.82283        0.835646       -0.111867
LJ           2.50242        -2.49138        0.856154
LJ           -1.4962        -1.71215        0.728493
LJ           2.51564        -1.44657         1.67425
LJ          -1.90374         2.50628         1.58398
LJ         -0.805576        -2.49972         1.04185
LJ          0.101841        -1.62113        0.934331
LJ         -0.886453        -1.66572         1.72716
LJ          0.111449        -2.44076         1.66805
LJ           1.02684         2.51198        0.901176
LJ           1.87119         -1.5423        0.764069
LJ          0.892621        -1.71554         1.72362
LJ           1.60304        -2.51281         1.76672
LJ           2.51683       -0.617481         1.05522
LJ          -1.82505     -0.00168626        0.792907
LJ           2.45148       0.0451121         1.92194
LJ          -1.67913       -0.931624         1.49497
LJ         -0.745751       -0.905717         1.01517
LJ         0.0388167      -0.0552911        0.944965
LJ         -0.827837        0.148721         2.12536
LJ          0.104605       -0.981159         1.73825
LJ          0.943169       -0.860683        0.763509
LJ           1.63416       -0.131286         0.62476
LJ          0.722924      -0.0523237         1.86742
LJ           1.61689        -0.83094          1.6635
LJ           2.48815          0.6595        0.854364
LJ          -1.45735         1.95729        0.745057
LJ           2.55684         1.56574         1.55256
LJ          -1.58548        0.916038         1.58468
LJ         -0.927755        0.732587        0.772993
LJ          0.172071         1.62859        0.888357
LJ         -0.753054         1.65648         1.52117
LJ        0.00160847        0.927423         1.57582
LJ          0.868106        0.640204        0.884375
LJ            1.7271         1.64385        0.779134
LJ          0.849881         1.55023         1.72163
LJ           1.70504        0.704847         1.74611
