108
#Comment!
LJ            2.5116         2.52808         2.49364
LJ          -1.72881        -1.82311        -2.56409
LJ          -2.46515        -1.78345        -1.71419
LJ          -1.83274         2.56002        -1.71504
LJ         -0.868098         2.45287           2.484
LJ         -0.224489        -1.78884        -2.49488
LJ          -0.82572        -1.62835        -1.54486
LJ        -0.0596157        -2.48994        -1.63697
LJ          0.901514         2.50643          2.5137
LJ           1.60475        -1.80302        -2.54952
LJ          0.873296        -1.58794        -1.63653
LJ           1.85015        -2.53342        -1.68775
LJ           2.41308       -0.886817         2.52614
LJ          -1.53693       0.0402259         2.54251
LJ           2.51511       0.0361906        -1.74173
LJ          -1.73882       -0.886366        -1.71866
LJ          -1.06932       -0.929735        -2.53905
LJ         0.0593924       -0.100048         2.51624
LJ         -0.912418         0.16542        -1.71384
LJ          0.059717       -0.887327         -1.7066
LJ          0.840546       -0.929833        -2.50478
LJ           1.81001        0.123946        -2.51758
LJ          0.774152        0.127528        -1.68672
LJ           1.65747       -0.871883        -1.69213
LJ           2.50375        0.811721         2.52364
LJ          -1.78222          1.6503          2.5347
LJ          -2.52072         1.54447        -1.77804
LJ          -1.77192         0.89242        -1.67148
LJ         -0.824884         1.03234         2.31657
LJ          0.140549         1.63587         2.40908
LJ         -0.793526         1.73934        -1.64077
LJ        -0.0355374        0.883115        -1.86953
LJ          0.872809        0.906849        -2.38463
LJ           1.80847         1.77277        -2.54008
LJ           1.00329         1.82418        -1.71957
LJ           1.69248         0.84175        -1.70015
LJ           2.55778        -2.47989       -0.909581
LJ          -1.54707        -1.74986       -0.766578
LJ           2.49291        -1.78362      -0.0134013
LJ          -1.67311         2.48555       0.0424583
LJ         -0.800374         2.56179       -0.877753
LJ         0.0382803        -1.69085       -0.860748
LJ         -0.834539        -1.73454       0.0817049
LJ         -0.123255         2.45676       0.0290941
LJ          0.881898         2.55053        -0.80532
LJ           1.64433        -1.79849       -0.747642
LJ          0.812749        -1.86708        0.158142
LJ           1.69963        -2.51407      -0.0819046
LJ              -2.5       -0.885084        -0.78508
LJ          -1.92503       0.0923785       -0.786492
LJ           2.44133      -0.0205778      -0.0498762
LJ          -1.71374       -0.886395      -0.0542782
LJ         -0.931718       -0.747719       -0.798967
LJ        -0.0727247      -0.0687537       -0.888795
LJ         -0.927826      -0.0482987      -0.0448647
LJ        -0.0688896       -0.710858       0.0280295
LJ          0.882334       -0.889082       -0.781889
LJ           1.67577       -0.176251       -0.874899
LJ          0.945321      -0.0594987        -0.14476
LJ           1.70195       -0.965663       -0.189569
LJ           -2.4444        0.964276       -0.841535
LJ          -1.78983         1.76062       -0.973155
LJ          -2.51089         1.77971        0.103462
LJ          -1.67657        0.917529         0.15346
LJ         -0.842698        0.795331       -0.679998
LJ         -0.124591         1.73425       -0.933327
LJ         -0.920195         1.73865       -0.127586
LJ        -0.0681519        0.926809       0.0788904
LJ           0.69409        0.897872       -0.852634
LJ           1.65469         1.89601       -0.868173
LJ          0.659269         1.73924       -0.176952
LJ           1.69783        0.727993       0.0312476
LJ            2.4987         2.51429        0.982838
LJ          -1.64754        -1.74126         1.00485
LJ           2.32045        -1.69919          1.7272
LJ          -1.87506        -2.52273         1.65939
LJ         -0.850869         2.38556        0.827703
LJ         0.0743251        -1.82322        0.919701
LJ         -0.879381        -1.66349         1.75329
LJ         0.0985913        -2.52155         1.85019
LJ            1.0483         2.44813        0.911309
LJ           1.71408        -1.79215        0.791079
LJ          0.990696        -1.67016         1.64949
LJ           1.70641        -2.50116         1.76245
LJ           2.37757       -0.643526        0.921411
LJ          -1.73035      -0.0223688        0.779977
LJ          -2.48894      -0.0259685         1.88597
LJ          -1.77476       -0.917558         1.78335
LJ         -0.783677       -0.894832        0.797524
LJ         0.0739333     -0.00393115         0.83334
LJ         -0.707133      -0.0266177         1.71518
LJ         -0.011715       -0.881214         1.64789
LJ          0.804013       -0.885618        0.795321
LJ            1.6062      -0.0317174        0.807348
LJ          0.841613       -0.144215         1.68634
LJ           1.71772       -0.862117         1.72803
LJ           2.51166        0.931834        0.778522
LJ          -1.79502         1.70088        0.846646
LJ           2.54637         1.74551         1.75226
LJ          -1.67868        0.798694         1.77851
LJ         -0.872375        0.662379        0.774008
LJ        -0.0543523         1.62489        0.954129
LJ         -0.845194         1.78663         1.74975
LJ         0.0432733          0.7856         1.52452
LJ          0.899699        0.735505        0.822037
LJ           1.73478         1.64199        0.755328
LJ          0.817543         1.60061         1.65832
LJ           1.68306         1.02058         1.67707
