108
#Comment!
LJ          -2.51877          -2.289         2.33025
LJ          -1.80367        -1.56123         2.47877
LJ          -2.27197        -1.51602        -1.63598
LJ          -1.77509        -2.52645        -1.55016
LJ         -0.708101          2.3595         2.55043
LJ         0.0810176        -1.85787        -2.41201
LJ          -1.19696        -1.56225        -1.75253
LJ        -0.0565301          2.2065        -1.89008
LJ          0.772445        -2.53508         2.47903
LJ           1.74883        -1.60107         2.46504
LJ          0.842067        -1.91413        -1.65188
LJ           1.92994         2.40224        -1.85353
LJ           2.52952       -0.881757         2.52262
LJ          -1.76453       0.0826471         2.54608
LJ           2.44438        0.174606        -1.81464
LJ          -1.84117        -0.50633        -1.66035
LJ          -1.08313       -0.791786        -2.39634
LJ        -0.0137312       -0.256978        -2.43361
LJ          -1.07148       0.0686442        -1.77423
LJ        -0.0744815        -1.11507        -1.76287
LJ          0.814261        -1.07077         2.54701
LJ           1.69813       0.0519834         2.48727
LJ          0.976944        0.137266        -1.77808
LJ           1.62327       -0.700127         -1.6703
LJ          -2.51068         0.86678        -2.52318
LJ          -1.71617         1.83928         2.34529
LJ          -2.41264         1.55941        -1.61022
LJ          -1.74887        0.874167        -1.77848
LJ         -0.508317         1.00101        -2.54122
LJ          0.109248         1.71357         2.41002
LJ          -1.08858         1.68466        -1.83698
LJ           0.17056         1.03735        -1.80433
LJ          0.863765        0.902276        -2.53165
LJ           1.71713         1.73266         2.38788
LJ          0.960124         1.92666        -1.91944
LJ           1.69175         1.11215        -1.65523
LJ           2.52326         2.36458       -0.774661
LJ          -1.54099        -1.66667       -0.747622
LJ          -2.42882        -1.80674       -0.100543
LJ          -1.73137         2.37248       0.0191851
LJ         -0.674595         -2.5553        -1.11421
LJ          0.118175        -1.71996       -0.812062
LJ         -0.786938        -2.02077       -0.221924
LJ         -0.175487         2.33015       0.0996799
LJ          0.901539        -2.48083       -0.909883
LJ           1.88566        -1.72944        -1.05582
LJ          0.810173        -1.86722        0.316116
LJ           1.70793        -2.51097        -0.13827
LJ          -2.41005       -0.989034       -0.779175
LJ          -1.91248      -0.0161998       -0.685263
LJ          -2.50793        0.165192       0.0675461
LJ          -1.63147       -0.667343        0.159565
LJ         -0.758328       -0.885548       -0.776634
LJ          -0.13269        0.127658        -1.06197
LJ         -0.659695       0.0408842      -0.0524881
LJ        -0.0441633       -0.651298       0.0911889
LJ           1.01906        -1.05278        -0.82649
LJ           1.85636       -0.234094       -0.539984
LJ          0.805341       0.0419958       0.0849398
LJ           1.98288          -1.067        -0.11265
LJ           2.46723        0.890651        -0.80662
LJ           -1.5431         1.77539        -0.88004
LJ           2.41068         1.64866      -0.0106467
LJ          -1.84415         1.05081        0.269115
LJ          -1.03511        0.732816       -0.984275
LJ          0.128438         1.62276       -0.914773
LJ         -0.796127         1.59206       -0.188824
LJ        -0.0699394        0.842162       -0.108218
LJ          0.926802        0.868788       -0.739021
LJ            1.6496         1.74812       -0.685169
LJ          0.853857         1.91933      -0.0862786
LJ           1.76427        0.742926        -0.10877
LJ           2.45253         2.39556        0.611422
LJ          -1.36268        -1.77045        0.714814
LJ           2.51026        -1.44678         1.54738
LJ          -1.92635        -2.34033         1.47747
LJ         -0.759226         2.54574        0.939369
LJ          0.120606        -1.45072        0.957039
LJ          -0.81749        -1.85205         1.86286
LJ         0.0673096         -2.4185         1.71975
LJ            0.6912         2.40567         1.08838
LJ            1.7724        -1.65742        0.951507
LJ          0.924559        -1.78172         1.74493
LJ           1.73569         -2.4566         1.68763
LJ          -2.51149       -0.650712         0.76135
LJ          -1.51867       0.0292355        0.830244
LJ           2.45362       0.0989594         1.64689
LJ          -1.74873        -0.76272         1.76846
LJ           -0.8202       -0.993654         1.03963
LJ          0.184665       -0.255244         1.06261
LJ         -0.947594         0.18409         1.94545
LJ          0.162754       -0.896438          1.8343
LJ          0.971383       -0.867437        0.784049
LJ            1.7441        -0.15421        0.646918
LJ          0.600366       0.0229867         1.97955
LJ           1.53585       -0.782248         1.79446
LJ           2.28107        0.863486        0.884985
LJ          -1.59723         1.92037         1.03959
LJ           2.41631         1.66313         1.52476
LJ          -1.84694        0.815533         1.52582
LJ         -0.779031        0.805663        0.683264
LJ          0.298686          1.3994        0.825626
LJ         -0.866666         1.49679         1.58768
LJ         0.0582561        0.881478         1.67193
LJ           1.15556        0.696014         1.00035
LJ           1.51091         1.74512        0.628979
LJ          0.984943         1.54556         1.62616
LJ           1.69875        0.859615         1.84513
