108
#Comment!
LJ          -2.01499         2.52142       -0.560939
LJ            1.2718         1.10258        0.442908
LJ         -0.538825        0.060988         1.82149
LJ           2.50676       -0.755755         1.20658
LJ           1.43509        -2.48898       -0.161653
LJ           2.34478        -1.25025       -0.756448
LJ           2.14003         -1.7289         1.60215
LJ          -1.72343         1.15212        0.386197
LJ           2.23738         -2.0968        -2.47453
LJ           1.51416        -2.37229        -1.32505
LJ           2.24334         2.11974       -0.956168
LJ            1.4003        -1.03221         1.57446
LJ          -2.31075         1.23927        -1.50536
LJ           1.00231         1.60192          2.1082
LJ           0.10912       -0.886771       -0.855275
LJ         -0.459231         2.25084       -0.858848
LJ           2.35234       -0.590603       0.0912235
LJ          0.259492        0.677986        -1.69809
LJ           2.21883          1.1248         2.53867
LJ         -0.709958        0.517022        0.586145
LJ           -1.6306         1.49558        -2.50835
LJ            1.3293        0.702025        -2.48524
LJ           1.91225     -0.00910009       -0.675784
LJ          0.951945         2.21376         -2.1173
LJ           1.76474        -0.50374        -2.53859
LJ         -0.976849        -2.50303       0.0460976
LJ         -0.930008         1.08391         1.68462
LJ           1.69319        0.104279        0.443587
LJ          -1.58711        0.412206       -0.300661
LJ           1.75547         1.32105          1.4544
LJ          0.190114        0.160092       -0.770553
LJ           1.13553        -1.26006        -1.65171
LJ          -1.46147       -0.939296         1.24148
LJ          -2.55803         1.85508        0.339011
LJ           2.48519         2.56338         1.02926
LJ          0.383895       -0.199832        -2.24386
LJ           2.44871        -2.00846      -0.0364018
LJ           2.05153       -0.663937        -1.60787
LJ          -1.89026        -1.84391        -2.35584
LJ          -2.14083        -1.71443        0.860575
LJ          -1.92424          1.0284         1.69968
LJ         -0.959768        -1.97838          1.1592
LJ          -2.49911         1.07519       -0.510901
LJ          -1.81742       -0.258451        0.448519
LJ         -0.686281         1.85454        0.807098
LJ          0.277974         -1.7575      -0.0567692
LJ           1.18583        -1.52022       -0.650777
LJ        -0.0198912        -1.27124        -1.90055
LJ           1.15291      -0.0823697        -1.55688
LJ          -0.12084        -2.43056        0.762532
LJ         -0.885452       -0.349046       -0.811058
LJ          0.415722        -0.29943        0.464568
LJ         -0.932363        0.730628        -2.38571
LJ          -1.98812       -0.912705        -1.70986
LJ          0.977895        -2.07982        0.721297
LJ            1.0984        -1.06078        0.334583
LJ           2.01437        -1.53405        0.603369
LJ          0.544879         1.80298         1.16276
LJ          -2.36396         2.04564         2.18966
LJ           -2.3161        0.262649           2.278
LJ         -0.577019       -0.270549        -1.76439
LJ          0.553217        -2.40444        -1.09144
LJ          0.284537        -0.64243         1.41774
LJ           1.48794         2.17773        0.747404
LJ          0.412493        0.772286        0.215103
LJ         -0.339482       -0.828186          2.2692
LJ         -0.913565        -1.65325        -1.95548
LJ          -1.18188         1.54109         -1.3873
LJ           1.00636         1.85148        -1.12462
LJ          0.430465        0.744397         1.29458
LJ         -0.310658         2.31403         1.81463
LJ           1.71384         1.56319       -0.282536
LJ           2.08931         2.03775        -1.88985
LJ         0.0569897        -1.69121         1.45573
LJ           2.36031         0.28014        -1.84327
LJ          -1.80375        -1.69906        -1.02176
LJ         -0.452167        -1.86952       -0.986372
LJ          -2.04529         -2.2216          1.7414
LJ           1.10102        0.675946        -0.54008
LJ          0.903419       -0.115064         1.97466
LJ          -1.31994       -0.414062         2.37401
LJ           1.64128         0.96362        -1.40489
LJ          0.104166         1.34178       -0.923769
LJ         -0.935279          1.5568       -0.227525
LJ          -1.91819         2.40547        -1.59018
LJ          -1.32447         2.03114         1.72846
LJ           2.39297        0.948229         0.56477
LJ          0.725888        -2.51698         1.89507
LJ         -0.606136        -1.33346     0.000186611
LJ          0.705798        -1.01382         2.39731
LJ          -1.98108       -0.379001       -0.731359
LJ           1.78009         2.29239         1.93707
LJ          0.162532         1.74997         0.11882
LJ          -1.09555        -1.58164         2.05691
LJ         -0.131372        -2.12127         2.53133
LJ           -1.5441       0.0660381         1.48898
LJ          -1.76385         0.31471        -1.52111
LJ         -0.718811        0.759179       -0.808515
LJ          -1.67004         2.39479         0.71185
LJ        -0.0490783          1.9522        -2.03505
LJ           2.46022        -2.09463        -1.37291
LJ          -1.07045         2.26951        -2.41854
LJ         0.0555204        0.739506         2.26884
LJ           1.31544        -1.81945         2.55229
LJ           1.03979       -0.509158       -0.611778
LJ          -1.91632        -1.21144      -0.0125488
LJ            1.9302        0.107546         1.61349
LJ          -2.19273         -0.8873          2.1735
