108
#Comment!
LJ            2.3507         2.41087        -2.46637
LJ          -1.87304        -1.82855        -2.52167
LJ          -2.39079        -1.71637        -1.30718
LJ          -1.65386        -2.40383          -1.728
LJ          -0.81864        -2.52332        -2.51283
LJ        -0.0373266        -1.61996          -2.402
LJ         -0.728671        -1.78713        -1.64647
LJ        -0.0914237        -2.55913        -1.34426
LJ           1.00263        -2.44549         2.37808
LJ           1.64956        -1.74611        -2.36592
LJ          0.849596        -1.36307         -1.8481
LJ           1.43387         2.45529        -1.72671
LJ          -2.28242       -0.665258         2.53974
LJ          -1.35505       0.0246812          2.5241
LJ           2.47878      -0.0873215        -1.62067
LJ          -1.54565        -1.17154        -1.70944
LJ         -0.698065       -0.796276         -2.3955
LJ          0.210524        0.026762         2.40446
LJ         -0.820874        0.283903        -1.67182
LJ        -0.0229422       -0.837024        -1.63262
LJ            0.8184        -1.13224         2.27444
LJ           1.74779         0.24098        -2.45914
LJ          0.789324        -0.11092        -1.89957
LJ           1.77658       -0.909676        -1.71194
LJ          -2.50938         1.11639        -2.50414
LJ          -1.67801          1.6358        -2.46125
LJ           -2.4101         1.75089        -1.63415
LJ           -1.8981        0.739315        -1.76575
LJ         -0.871725        0.994703         2.42471
LJ          0.156461         1.66269          2.5106
LJ         -0.646807         1.77877        -1.86317
LJ          0.180743        0.819855        -1.86998
LJ          0.945543        0.853083         2.43068
LJ            1.5822         1.76842        -2.39465
LJ           0.59956         1.86532        -1.44948
LJ           1.36341        0.959197        -1.77909
LJ           2.42389         2.38952       -0.694804
LJ          -1.46096        -1.83233       -0.848781
LJ           2.56252         -1.8138       -0.191347
LJ          -1.67652         2.43072      -0.0105948
LJ         -0.809888         2.32273       -0.722576
LJ         0.0135117        -1.51951       -0.896534
LJ         -0.614942        -1.66901      -0.0745765
LJ         0.0136304         2.55792       -0.124122
LJ           1.01341         2.52399       -0.747339
LJ           1.69678        -1.94927       -0.985448
LJ          0.764092        -1.81336     -0.00549208
LJ           1.56772        -2.43875        0.158997
LJ            2.4536       -0.895157       -0.833673
LJ          -1.62322       -0.214473        -1.31016
LJ          -2.35757      -0.0232242       -0.256982
LJ          -1.84024        -1.04049      -0.0966014
LJ         -0.899822       -0.680676       -0.427472
LJ          0.109257        0.123228       -0.974259
LJ          -1.23918      -0.0731399        0.445356
LJ           -0.2284       -0.272584        0.229886
LJ          0.856697       -0.583923        -1.02124
LJ           1.56885        0.155153        -1.07109
LJ          0.863651       0.0578753       -0.203299
LJ           1.48044        -1.13754       -0.288869
LJ           2.54281        0.898534         -0.8959
LJ          -1.71502         1.62479       -0.810452
LJ           2.52433          1.7455        0.061414
LJ           -1.7914         1.03053        0.208527
LJ         -0.978002        0.619289       -0.579577
LJ         -0.271828         1.44051       -0.855931
LJ         -0.878557          1.5025      -0.0556644
LJ         -0.207106        0.734054        0.201579
LJ          0.766726        0.984257        -0.70556
LJ           1.66856         1.66443        -0.85904
LJ          0.555945         1.76861       -0.178687
LJ           1.44762            1.01        0.097848
LJ          -2.46545        -2.55346        0.887356
LJ          -1.61421        -1.80255        0.760214
LJ           2.53836        -1.89538         1.89102
LJ          -1.44158        -2.39616         1.57245
LJ         -0.800374        -2.44846         0.73442
LJ          0.120027        -1.75412         1.21003
LJ         -0.792953        -1.59453         2.00297
LJ          0.133974         2.44499         1.84734
LJ          0.829086         2.13212        0.771021
LJ           1.87269        -1.63162        0.871353
LJ           1.09242        -2.11033         1.39768
LJ           1.78112         2.33588         1.67368
LJ           2.44318       -0.894321        0.565045
LJ          -2.00424      -0.0656562         1.02352
LJ          -2.46456        0.175619         1.90305
LJ           -1.4489       -0.801897          1.7151
LJ         -0.799436       -0.932231        0.621266
LJ          0.387282       -0.142989         1.25024
LJ         -0.808343      -0.0794802         1.53418
LJ         -0.165706       -0.869801         1.57035
LJ           1.00085        -0.87852        0.744914
LJ           1.75549       0.0704806        0.751517
LJ           1.24324       -0.135834         1.87708
LJ           2.27623       -0.632281         1.50079
LJ          -2.49495         1.07784         1.01754
LJ          -1.62884          1.6986         1.05996
LJ          -2.28713          1.9555         1.77566
LJ          -1.68782        0.869945         1.77725
LJ         -0.883076        0.825459        0.917652
LJ         -0.240147         1.69174        0.739155
LJ         -0.881474         1.87247         1.75567
LJ         -0.171758         0.67894         1.70392
LJ          0.700479        0.965663        0.958683
LJ           1.74266         1.49688         0.85015
LJ          0.942165         1.59595         1.69684
LJ           1.81197        0.817768         1.75245
