108
#Comment!
LJ          -2.54727         2.54092         2.54332
LJ          -1.69904        -1.88299         2.56106
LJ           2.52673        -1.76729        -1.67098
LJ          -1.78068         2.47866        -1.68243
LJ         -0.894553         2.51766         2.47135
LJ        -0.0497527         -1.7448        -2.49689
LJ         -0.732743        -1.69886        -1.75453
LJ         0.0245465        -2.55259        -1.59829
LJ          0.878479         2.55111         2.50541
LJ           1.73189        -1.80126        -2.46956
LJ          0.857616        -1.71089        -1.66073
LJ           1.74211         2.56478        -1.68963
LJ           2.55908       -0.785208         2.54633
LJ          -1.63945      0.00970698         -2.5266
LJ          -2.56039      -0.0217113        -1.66994
LJ           -1.6669       -0.854498        -1.70451
LJ         -0.886711       -0.770594         2.54181
LJ          0.126083      -0.0382726         2.55596
LJ          -0.88008        0.089477        -1.69148
LJ        -0.0821836       -0.864049        -1.66287
LJ          0.877526       -0.934943        -2.47328
LJ           1.69705       0.0966959         2.49901
LJ           0.74319       0.0291665        -1.74027
LJ           1.64821       -0.810796        -1.67435
LJ          -2.51591        0.842257         2.53219
LJ          -1.72094           1.668          2.5485
LJ           2.56487         1.52581        -1.71885
LJ          -1.68491        0.813039        -1.67475
LJ         -0.749536        0.887932         2.47036
LJ          0.025457         1.65403         2.44972
LJ         -0.771907         1.66243        -1.78281
LJ         0.0122399        0.855619        -1.84172
LJ          0.856653        0.892778        -2.55238
LJ           1.67608         1.66975         2.54301
LJ          0.980033          1.7419        -1.78181
LJ           1.60484        0.864151        -1.66908
LJ          -2.55245         2.52214       -0.768962
LJ           -1.5924        -1.67733       -0.888749
LJ          -2.51844        -1.81473      0.00193581
LJ          -1.76166        -2.54471      -0.0221026
LJ         -0.803426         2.52132       -0.831311
LJ        -0.0290992        -1.66267       -0.882743
LJ         -0.868822        -1.74305       0.0378054
LJ        -0.0971737         2.48478      -0.0769162
LJ          0.891931          2.5391       -0.715204
LJ           1.57969        -1.74928       -0.863383
LJ          0.812936        -1.75379       0.0333338
LJ           1.71558        -2.50243      -0.0515244
LJ           2.52957       -0.873159        -0.78607
LJ           -1.7877       0.0298015       -0.934437
LJ           2.49933      0.00915271      -0.0607912
LJ           -1.7054       -0.929472      0.00192161
LJ         -0.818409       -0.813064       -0.816922
LJ         0.0924992       -0.144622       -0.844362
LJ         -0.913606      -0.0264057       0.0196619
LJ         -0.019915       -0.724235        0.105573
LJ          0.904772       -0.739324       -0.852867
LJ           1.70331      0.00251487       -0.878958
LJ          0.874639     3.73492e-05       -0.123182
LJ           1.57987       -0.858417       -0.126502
LJ          -2.53872        0.882514       -0.874351
LJ          -1.73391         1.70529       -0.923155
LJ           2.54249         1.65569      0.00869333
LJ          -1.73609        0.952226        0.102805
LJ         -0.790383        0.840536        -0.77115
LJ         -0.122586         1.71397       -0.915414
LJ         -0.877941         1.74807           0.012
LJ        -0.0591363         0.85459        0.101225
LJ          0.877026        0.868549       -0.818067
LJ           1.83878         1.70389       -0.810101
LJ          0.787606         1.76224       -0.104155
LJ           1.66774        0.820491       0.0459832
LJ          -2.47077        -2.52591        0.839501
LJ          -1.67219          -1.772        0.835319
LJ          -2.55691        -1.66699          1.6831
LJ          -1.83708        -2.55215         1.66788
LJ         -0.823129        -2.47485        0.789379
LJ         0.0547896        -1.69691        0.851568
LJ         -0.848629        -1.70148         1.79718
LJ           0.12797        -2.51707         1.73117
LJ          0.886198         2.35977        0.943188
LJ           1.74936        -1.83233        0.884743
LJ          0.921872        -1.81924          1.5345
LJ           1.79486         2.56175          1.7397
LJ           2.51499       -0.759628        0.917078
LJ           -1.6799      -0.0249566        0.857122
LJ            2.5514      -0.0521732          1.7885
LJ          -1.71575       -0.833333         1.79769
LJ         -0.898364       -0.814745        0.795921
LJ         0.0864471      -0.0130492        0.950174
LJ            -0.795      -0.0157206         1.62191
LJ        -0.0106303       -0.891403         1.68768
LJ          0.910478       -0.866609        0.816121
LJ            1.6169      -0.0614188        0.797674
LJ          0.778761      -0.0154989         1.74494
LJ           1.77417       -0.764008         1.68914
LJ          -2.54801        0.901255        0.862381
LJ          -1.69045         1.56855        0.898408
LJ          -2.54905         1.76221          1.7786
LJ           -1.6532        0.807323          1.7254
LJ         -0.802857        0.844349        0.881921
LJ         0.0223496         1.66759        0.935361
LJ         -0.876545         1.71633         1.66672
LJ        -0.0288067        0.698964          1.6718
LJ          0.848179        0.748485        0.769258
LJ           1.68849          1.6341        0.859958
LJ          0.867289         1.65744         1.74445
LJ           1.79734        0.846238         1.67356
