108
#Comment!
LJ           -2.4903        -2.39163        -2.54739
LJ          -1.84299        -1.48761         2.46518
LJ          -2.27759        -1.60248        -1.76308
LJ          -1.52458        -2.40771        -1.84726
LJ         -0.824875         2.34315        -2.42304
LJ        -0.0999573        -1.52917         2.43479
LJ         -0.938941        -1.52313        -1.90018
LJ         0.0835498         2.47442        -1.85971
LJ           1.02694        -2.37636        -2.43831
LJ           1.70907        -1.63678         2.41629
LJ           1.22376        -1.68627        -1.65242
LJ           1.93383         2.46045        -1.53596
LJ           2.41199       -0.633548        -2.54482
LJ          -1.79737      -0.0182795         2.34178
LJ          -2.44352      -0.0380952        -1.81083
LJ           -1.5393       -0.597477        -1.65615
LJ         -0.961219       -0.776315        -2.50775
LJ        -0.0117259       -0.184452        -2.46116
LJ         -0.807823         0.13665        -1.73417
LJ           0.12497        -0.86433        -1.66865
LJ          0.788633       -0.937033        -2.55289
LJ           1.63466       0.0239354        -2.40491
LJ          0.763016        0.177607        -1.68851
LJ           1.58239        -0.66887        -1.57112
LJ          -2.54073         0.92825        -2.45096
LJ          -1.75195         1.95823         2.40156
LJ           -2.5387         1.70874        -1.54629
LJ          -1.57675        0.798034        -2.06242
LJ          -0.49429        0.753389          2.5337
LJ          0.100045         1.73854         2.34564
LJ          -1.26075         1.73751        -1.68375
LJ         0.0187359         1.02981        -1.71452
LJ           1.09986         1.06363        -2.44551
LJ            1.7579         1.88849         2.49146
LJ           1.02596         1.89354         -1.8688
LJ           1.77521        0.855238        -1.75739
LJ           2.50834        -2.48566       -0.732759
LJ          -1.43002        -1.71535       -0.896125
LJ          -2.29791        -1.63189       -0.236939
LJ          -1.59584         2.45078        0.121924
LJ         -0.677952        -2.49128        -1.03823
LJ         0.0480884         -1.7918       -0.711329
LJ         -0.695033        -1.75039      -0.0458017
LJ        -0.0120698         2.32304        0.208408
LJ          0.642058         2.51818       -0.847433
LJ           1.90898        -1.53645       -0.887356
LJ            0.8094        -1.88236        0.172261
LJ           1.70607        -2.49166      -0.0087965
LJ          -2.37813       -0.802638       -0.898757
LJ          -1.80244       0.0963338       -0.977615
LJ          -2.36684       0.0731323      -0.0293545
LJ          -1.62207       -0.719326      -0.0380762
LJ         -0.795162       -0.756558       -0.689165
LJ         -0.125076        0.141403        -1.02708
LJ         -0.686373      -0.0631837        0.116876
LJ        -0.0413953       -0.858704        0.131269
LJ          0.932655         -1.1449       -0.747774
LJ           1.85823       -0.222373       -0.613404
LJ          0.797228        0.113692        0.140562
LJ           1.95407        -1.05115        0.002912
LJ           2.45488        0.813972       -0.770376
LJ          -1.84258         1.69249       -0.720234
LJ           2.52923         1.58667      -0.0828897
LJ          -1.87367        0.957809         0.15307
LJ          -1.07747        0.774627       -0.947297
LJ          0.136506         1.76258       -0.823021
LJ         -0.774499         1.70572       -0.115026
LJ         0.0768631        0.851057       -0.169264
LJ          0.897457        0.867771       -0.907804
LJ           1.63973         1.71465        -0.86562
LJ          0.851151         1.75189      -0.0905284
LJ           1.61914        0.824138          0.1605
LJ           2.45852         2.45801        0.663211
LJ          -1.48015        -1.82245        0.791048
LJ          -2.55634         -1.4573         1.59409
LJ          -1.97405         -2.4017         1.66581
LJ         -0.874176         2.41567         1.03823
LJ         0.0220592         -1.4913         1.07861
LJ          -1.05515        -1.71998         1.87922
LJ        0.00575435         -2.2761         1.71991
LJ          0.805895         2.39697        0.860744
LJ           1.67045         -1.5251         1.06227
LJ          0.813087        -1.68985         1.79513
LJ           1.74734        -2.53113         1.49822
LJ          -2.41195       -0.766195        0.691534
LJ          -1.64505        0.109813        0.896829
LJ           2.36978       0.0317826         1.64948
LJ          -1.70424       -0.908886         1.60568
LJ          -0.83474       -0.902628         1.08533
LJ          0.145172       -0.115594        0.887501
LJ         -0.931887        0.022363         1.84995
LJ          0.224573       -0.753013         1.75477
LJ           0.92453       -0.827068        0.628922
LJ           1.75562       -0.358597        0.825673
LJ          0.862872       0.0745056         1.74876
LJ           1.50342       -0.756193         1.76931
LJ           2.31359        0.983577         1.05891
LJ          -1.79157         1.71644         0.98561
LJ           2.51125         1.86761         1.63937
LJ          -1.79512        0.847274         1.64998
LJ         -0.840777        0.981235        0.756491
LJ          0.378206          1.3966        0.790639
LJ         -0.726482         1.37672         1.71249
LJ         0.0911462        0.773863         1.64698
LJ           1.17419        0.651362         1.04513
LJ           1.52101         1.72728        0.695818
LJ          0.977758         1.69141         1.67896
LJ           1.82206         1.09836         1.92443
