108
#Comment!
LJ           -2.3937        -2.30679         2.43878
LJ          -1.69102         -1.6267         2.48173
LJ          -2.23206        -1.53345         -1.7581
LJ           -1.5128        -2.45671        -1.86452
LJ         -0.762524         2.44837        -2.54671
LJ         -0.109012        -1.55154         2.50446
LJ           -1.0095        -1.53684        -1.74215
LJ         0.0874674         2.39579         -1.8575
LJ          0.954151        -2.48646          2.5328
LJ           1.70607         -1.5703         2.44389
LJ           1.01897        -1.82097        -1.64532
LJ            1.9276         2.30926        -1.71884
LJ          -2.53237       -0.735752        -2.54601
LJ           -1.8276      -0.0236028         2.32097
LJ          -2.49449       0.0172225         -1.8295
LJ          -1.68824       -0.653998        -1.62978
LJ          -1.09039       -0.798522        -2.54268
LJ        -0.0235611        -0.13612        -2.29792
LJ         -0.935411       0.0391835        -1.78942
LJ        0.00207666        -1.04344        -1.70576
LJ          0.839643       -0.948674         2.50238
LJ           1.69942        0.015773        -2.48776
LJ          0.797575        0.130319        -1.78409
LJ           1.56655       -0.695133        -1.68659
LJ          -2.47039        0.978198        -2.48744
LJ          -1.74165         2.00066          2.3651
LJ          -2.47781         1.61124        -1.57641
LJ          -1.59452         0.74016        -1.89911
LJ         -0.526263        0.714329         2.50323
LJ          0.122387         1.65105         2.30716
LJ          -1.20247         1.63499        -1.63206
LJ        -0.0330455         1.13091        -1.78953
LJ           1.07672         1.00679         2.48992
LJ           1.82536         1.73008        -2.56267
LJ          0.930748         1.80878        -1.89607
LJ           1.66551        0.818661        -1.69234
LJ          -2.53026         2.34471       -0.777328
LJ          -1.47591        -1.63525       -0.883202
LJ          -2.27671        -1.74279      -0.0361956
LJ          -1.63654         2.54474        0.138321
LJ         -0.584414        -2.45787        -1.11682
LJ        0.00180184        -1.66426       -0.825636
LJ         -0.819856        -1.85274     -0.00563808
LJ        -0.0227248         2.25218       0.0791403
LJ          0.772389         -2.5513       -0.964336
LJ           1.99114        -1.75266       -0.897719
LJ          0.816773        -1.79986        0.258166
LJ           1.68354        -2.54493      0.00853505
LJ          -2.39276       -0.874279        -0.81726
LJ          -1.94806         0.13254       -0.931931
LJ          -2.43793       0.0890768       0.0468868
LJ          -1.65953       -0.787898       0.0743277
LJ          -0.75893       -0.900733       -0.846831
LJ          -0.20448      -0.0271148        -1.00977
LJ         -0.728354     -0.00130634       0.0136253
LJ        -0.0540666       -0.763302       0.0584684
LJ           1.00921        -1.26987       -0.816167
LJ           1.82574       -0.177148       -0.658754
LJ          0.902428        0.103451       0.0470445
LJ           1.94003        -1.03911     -0.00410346
LJ            2.4922        0.834189       -0.824708
LJ          -1.65697         1.59594       -0.770493
LJ           2.37644         1.55745        0.093823
LJ          -1.77031         1.09049        0.240918
LJ          -1.10396        0.696699       -0.936114
LJ          0.124028         1.69259       -0.808519
LJ         -0.870375         1.58861       -0.127762
LJ         0.0508069        0.865353       -0.161348
LJ           1.01167        0.852265       -0.839624
LJ           1.70671         1.73328       -0.778915
LJ          0.870669         1.67662         -0.1857
LJ            1.6488        0.745834       0.0513972
LJ          -2.56309         2.39411        0.664216
LJ          -1.39393         -1.7985        0.818343
LJ          -2.52306        -1.49815         1.54932
LJ          -1.93023        -2.29454         1.51109
LJ         -0.767712         2.38562        0.918564
LJ        -0.0435275        -1.51751        0.980125
LJ         -0.887114        -1.66501         1.87536
LJ         0.0561983        -2.31138         1.63181
LJ          0.770448         2.45268        0.952808
LJ            1.7091         -1.5429         0.96329
LJ           0.92904        -1.55498         1.75541
LJ           1.82919        -2.56049         1.59622
LJ          -2.49245       -0.943082        0.771508
LJ          -1.54509      -0.0986226        0.766217
LJ             2.417       -0.073456         1.60899
LJ          -1.67511       -0.743804         1.64922
LJ         -0.848675       -0.952662            1.18
LJ          0.202498       -0.115591        0.935401
LJ         -0.938695     -0.00324463         1.76521
LJ          0.174203       -0.785918         1.72566
LJ          0.871947       -0.932474        0.632751
LJ           1.67823       -0.270033        0.801237
LJ          0.781972      -0.0200863         1.78512
LJ           1.58929       -0.769523         1.69705
LJ           2.24137        0.908997         1.01787
LJ          -1.67815         1.73271         1.07173
LJ           2.49599         1.80429         1.72387
LJ          -1.91803        0.851032         1.41082
LJ         -0.884922        0.827598        0.550892
LJ          0.423299         1.49764         0.80035
LJ         -0.880916         1.39762         1.62147
LJ         0.0410345        0.924908         1.50566
LJ           1.18703        0.688623         1.06906
LJ           1.48629         1.69914        0.623456
LJ           1.15306         1.72123         1.72166
LJ           1.82145         1.03435         1.86439
