108
#Comment!
LJ           1.89006         2.42613        0.713949
LJ          -1.77874        -1.48087        0.629551
LJ         -0.399066        -2.32366       -0.174416
LJ          -1.40509         2.26488        0.425064
LJ          -1.01119        0.132095         1.58477
LJ           1.21126       -0.749611        0.447092
LJ            1.9299       -0.590142         1.29214
LJ          0.865028         1.16295         1.75696
LJ          -1.32341        -2.48731        -2.47128
LJ          -1.17491         0.99513        -2.01561
LJ          -2.34766          2.0396        -2.38028
LJ           1.74246        -2.07864         2.40559
LJ          0.470677         1.89773        -2.54904
LJ           0.21049         1.30288        0.739791
LJ           1.76224         1.73601         2.37967
LJ          0.525443        -2.32523       -0.678896
LJ          0.289643        -1.31278         2.26716
LJ          0.662069        0.292719         2.36657
LJ          0.540657         2.42287        0.305709
LJ           2.10373         0.68837       -0.586721
LJ          -1.41177       -0.362454        0.655952
LJ          -1.53296         2.25245       -0.617917
LJ           1.67086        -2.23785       -0.925367
LJ          -1.30536        -0.59091       -0.538368
LJ           1.17689        -1.85953         1.55012
LJ         -0.266444        -2.41465         -2.4333
LJ           1.88733         -1.1708       -0.947968
LJ           2.54453        -1.21893         2.10625
LJ          -2.43381         2.37239         1.47168
LJ          0.604836        -0.90862         1.25351
LJ          -2.10023        -1.78327        -2.45302
LJ           1.27403       0.0130909       -0.191162
LJ           2.50641        -1.48935      -0.0344557
LJ           1.66095        0.242212         2.07994
LJ           0.90533        -1.30699       -0.804249
LJ         -0.852423        -1.72003          2.0892
LJ         -0.389278         2.25609        0.801873
LJ          0.918748        -2.02889        -1.61532
LJ         0.0165907        -1.90036         1.13332
LJ           -1.6575         1.25821       -0.145847
LJ          -1.53602         2.06574         -1.6596
LJ           2.50102          1.7199       -0.795751
LJ           -2.4693         1.50838         1.90474
LJ         -0.889258       -0.221352        -2.35038
LJ         -0.910869       -0.978343        -1.39909
LJ           2.31661       -0.439839        -1.49666
LJ           1.28854       -0.743556         2.30104
LJ         -0.682474        0.175185        -1.08934
LJ             1.452        -1.83985        0.242318
LJ          -1.26683         2.34156         1.52861
LJ          -1.15692         1.21257          1.9394
LJ          -2.32245        0.578799        0.244563
LJ         -0.937685        -2.08318        0.911712
LJ           2.43557       -0.411647        -2.46561
LJ           2.45553       -0.555947       -0.378915
LJ          -1.63148       0.0177146        -1.59129
LJ         -0.340641        -2.46772        -1.26078
LJ           2.48752        -2.50226       -0.177352
LJ          0.807143         1.11994        -1.91246
LJ         -0.475665         1.78332        -2.21715
LJ           1.59142         1.81389       -0.438177
LJ         -0.496582         1.75433       -0.135848
LJ           1.54273         2.29453        -1.83289
LJ          -1.26313        -1.98353        -1.44568
LJ          0.771012        0.274854        -1.39506
LJ           2.50694         1.00769        -2.36304
LJ         -0.298607         1.92934         1.88507
LJ         -0.206064        0.808898         1.65346
LJ           1.03293        0.984418       -0.652149
LJ           -1.9114        0.447004       -0.696128
LJ           1.63975        0.442991        -1.97877
LJ           1.81686         1.25965        -1.42645
LJ          -1.76211        -1.92041         1.54292
LJ          -1.72063        -0.88435        -2.26437
LJ          -2.09232         1.11196        -1.53803
LJ          0.778064        -2.05605        -2.53613
LJ        0.00864497        -1.59775        -1.81985
LJ        -0.0574074        -1.50842       -0.678888
LJ          -2.49368       -0.346216        0.675423
LJ           2.04921         1.14312         1.28399
LJ           1.22126       -0.940261        -1.72114
LJ          0.139749       -0.381852       -0.384584
LJ          -1.56806        -1.95264       -0.242759
LJ         -0.131089         0.40373         -1.8653
LJ           2.34762         1.60079        0.291717
LJ           1.09942        0.141886         1.21926
LJ          -2.52623        0.256015          1.5043
LJ          -1.76258        0.362274         2.31239
LJ          0.461664         1.78718       -0.584145
LJ            2.0946         -1.6473        -1.86535
LJ          0.436347        -1.61596        0.281812
LJ          -1.92737         1.02697         1.19842
LJ          0.515768         2.45052         1.77115
LJ           2.18876        -1.76132         1.16227
LJ          -0.15841      -0.0754075        0.868948
LJ          -2.41128        -2.53552        -1.39038
LJ         -0.959332         1.37155        -1.09964
LJ          0.453789         2.14447        -1.61595
LJ         -0.547649        -0.94412         1.49571
LJ          0.026792       -0.554125        -1.38767
LJ        -0.0402236         1.05363        -1.06054
LJ           1.27743         1.62765        0.566478
LJ          -2.00208        -1.26436        -1.03006
LJ         0.0331372        0.783798       -0.040958
LJ          -1.77569       -0.895263         1.57068
LJ           1.74482        0.748165        0.379087
LJ         -0.420418       -0.962703        0.384739
LJ         -0.760026         1.15218        0.831349
