108
#Comment!
LJ           2.45451       -0.585802        0.287001
LJ           2.40395        -1.61552          0.7838
LJ         -0.660316       -0.592599         1.59157
LJ           2.12151        0.470014        -0.28598
LJ           2.25313        0.228667         2.27045
LJ          -1.18531        -1.93525         -1.0855
LJ          -2.44711       -0.671086        -2.29745
LJ          -2.26781        0.359764        0.506816
LJ            1.1485        -2.52725         2.12432
LJ         -0.600634        0.028594         2.42945
LJ            1.6193       -0.513737        -2.16953
LJ          0.308008         1.54869         1.98319
LJ         -0.346972        0.167759        0.814019
LJ          -1.68399         2.06164         1.97199
LJ           1.61294        0.050168         1.28833
LJ           1.78395          -0.462       -0.592924
LJ          0.132439         2.47971         2.40129
LJ         -0.817125         0.71996       -0.261115
LJ          0.132349         2.55838         1.18638
LJ          0.269774       -0.518519         0.10637
LJ           2.26059        0.825988         1.27036
LJ         -0.241127        -2.55308       -0.910886
LJ          0.159121         2.09871       -0.045881
LJ          0.661991        0.164653       -0.797678
LJ          0.605276         2.29119        -1.88851
LJ          -1.56456        -2.13227      -0.0320813
LJ           2.13529         2.26711       -0.403287
LJ           2.12502        -1.11263         -1.3194
LJ           1.77585         2.39664        0.969628
LJ          -1.78269         -1.9985          2.3223
LJ          -2.51648         1.87713         1.25435
LJ          -1.76243       -0.971102         1.01636
LJ           2.49695        -2.08684        -1.89146
LJ          0.260413       -0.826796        -2.54907
LJ         -0.207669       -0.419803       -0.848418
LJ          -1.49034       -0.594986         2.24197
LJ          -2.18326        -2.51858        0.653675
LJ         -0.220372        0.940212        -2.40851
LJ           1.30513        -1.47418        -2.38322
LJ          -2.22979       -0.130053        -1.02761
LJ           1.22153        -2.03695        -1.44591
LJ          0.353838        -1.53116        0.533907
LJ           1.20212        0.221278         2.42505
LJ          -2.33273        0.886668        -1.96973
LJ           1.53437       -0.956574        0.968516
LJ          0.311985        -1.58744        -1.74358
LJ           0.29635        0.156739        -2.04444
LJ           1.43667         1.00286        0.528512
LJ          0.511903       -0.626045         1.06674
LJ           2.40834         2.53756          2.2761
LJ          -2.41589       -0.202788         1.45117
LJ          0.677787         1.59682        0.855214
LJ          -2.39062         1.95344        -1.82907
LJ           1.40194        -1.81004        0.567249
LJ           1.46242       -0.892394         1.91388
LJ          -1.36945         2.15214        -1.18728
LJ          -1.18523         2.44993         1.02835
LJ           1.09097       -0.787677        -1.30246
LJ          -1.35383       -0.994316        -0.65323
LJ           -2.3683         1.43556         2.25016
LJ         -0.751136        -2.15528         1.86788
LJ         -0.733266        -1.51725         1.04836
LJ          -1.87693        0.919565       -0.219972
LJ          -1.79758        -1.18004        -1.69364
LJ         -0.658338       -0.557729        -1.77062
LJ           1.14109        0.910686        -1.39207
LJ           1.02946         1.02137         1.65489
LJ          0.297433        0.177867         1.71834
LJ          0.708052        -1.65963       -0.450221
LJ         -0.497588        0.512488        -1.51897
LJ         -0.325059        -1.47103       -0.607387
LJ          0.408796         1.00082       -0.172418
LJ           1.62185         2.39381        -2.11117
LJ           2.54324         1.33576       -0.863684
LJ          -2.16478        -2.16814        -0.84994
LJ         -0.585448        0.933501         1.64389
LJ          -1.53669         1.48923        -2.08238
LJ          -1.51517        0.157576        -1.92178
LJ          -1.25206        0.204797         1.03054
LJ         -0.279481         1.24461        0.565568
LJ         -0.864881        -1.50577        -2.00603
LJ         0.0807375         1.29372        -1.10493
LJ            -1.999         1.93735       -0.321508
LJ           1.76104          1.7728         1.88515
LJ          -1.27755         1.09502        -1.08934
LJ         -0.603349          1.7974         2.29545
LJ           2.51959        -1.13692         1.83217
LJ           2.04157        0.186464         -1.6533
LJ           1.41033       0.0634416        0.267396
LJ            1.8609        -1.86717       -0.624966
LJ          -1.61315      -0.0813467       -0.311388
LJ          -1.38881         1.41762        0.609708
LJ         -0.819781        -2.52621        -2.21817
LJ          0.111695         -1.5621         1.73294
LJ          -1.00766        -0.55092        0.354063
LJ           2.31062          1.4791        0.333101
LJ          0.852366           2.362       -0.830264
LJ           1.91436         1.32696        -2.31494
LJ           1.70751        -1.88462         1.58165
LJ          -1.69529        0.919602         1.79628
LJ          0.878105         1.24525        -2.40282
LJ           1.40901         1.51874       -0.327584
LJ         -0.561549        -2.30525        0.267298
LJ         -0.871865         1.88775       -0.273303
LJ           1.67422         1.86431        -1.25308
LJ          0.530732        0.475792        0.743514
LJ          -2.30382        -1.08244       -0.497687
LJ         -0.591719         1.65252        -1.69715
