108
#Comment!
LJ           2.53643         2.54239        -2.54964
LJ          -1.68765        -1.80539         2.50654
LJ          -2.55145         -1.7929        -1.75171
LJ          -1.82007        -2.55784        -1.70735
LJ         -0.944022         2.44746         2.47149
LJ         -0.177845        -1.79393        -2.52734
LJ          -0.84444        -1.64258         -1.5531
LJ        -0.0300242        -2.51926        -1.51142
LJ          0.933223         2.50939         2.41806
LJ           1.68141        -1.74737        -2.47456
LJ          0.946789        -1.56029        -1.57825
LJ           1.81608        -2.46753        -1.71211
LJ           2.37344       -0.865453         2.47976
LJ          -1.64121      -0.0117783         2.44719
LJ           2.48729       0.0392549        -1.74493
LJ          -1.66253       -0.922602        -1.69086
LJ         -0.944656       -0.951484         2.53748
LJ         0.0946409       -0.136936          2.5369
LJ         -0.851633        0.110965        -1.67898
LJ        -0.0383561        -0.91133        -1.68245
LJ          0.753713        -1.06744        -2.55667
LJ            1.8001       0.0858309         2.54478
LJ          0.724211        0.144404        -1.73513
LJ           1.66165       -0.888437        -1.60845
LJ           2.51036         0.87225         2.53765
LJ          -1.77636          1.6879        -2.56445
LJ          -2.50092         1.59276        -1.74534
LJ          -1.76771        0.828746        -1.64328
LJ          -0.80198         1.00924         2.38601
LJ         0.0958026          1.6427         2.42447
LJ          -0.85752         1.75115        -1.62806
LJ        0.00116448        0.854411        -1.77301
LJ          0.801121        0.918442        -2.45982
LJ           1.79232         1.77798         2.51586
LJ           1.08105         1.73641        -1.74946
LJ           1.63624        0.804576        -1.65198
LJ          -2.50389        -2.48697       -0.865465
LJ           -1.5813        -1.75969        -0.80433
LJ          -2.56144        -1.77308      -0.0787462
LJ          -1.63878         2.48118       0.0253598
LJ         -0.785177         2.50501       -0.855624
LJ        -0.0454435        -1.57741       -0.887449
LJ          -0.89182        -1.65277       0.0247031
LJ        -0.0751878         2.47354      -0.0274709
LJ          0.887182         2.50025       -0.820219
LJ             1.657        -1.80843       -0.792836
LJ          0.678571         -1.9471        0.154622
LJ           1.63027         -2.5553      -0.0531063
LJ          -2.49024       -0.828522       -0.802326
LJ          -1.85142       0.0969177       -0.886743
LJ           2.45575       0.0165437      -0.0265219
LJ          -1.72952       -0.903842      -0.0295087
LJ         -0.897006       -0.680968       -0.785995
LJ        -0.0626417       -0.126137       -0.857267
LJ         -0.879772      -0.0863338     0.000368838
LJ       -0.00863265        -0.70683        0.122613
LJ          0.857379       -0.805373         -0.8126
LJ           1.67696      -0.0548944       -0.901417
LJ           0.95464      -0.0415621       -0.101504
LJ           1.69464       -0.992792       -0.196629
LJ           -2.5073        0.918329       -0.812844
LJ          -1.78225         1.73286        -0.92462
LJ           2.54274         1.72503       0.0739631
LJ           -1.6919        0.823976         0.10148
LJ         -0.835372         0.80515       -0.598407
LJ         -0.110212         1.78787       -0.955714
LJ         -0.919579         1.78074      -0.0895911
LJ        -0.0844891        0.918112       0.0942631
LJ          0.786772        0.934545       -0.766691
LJ           1.72278         1.85144       -0.816835
LJ          0.671562         1.72143       -0.184522
LJ            1.7601        0.806469       0.0305013
LJ           2.53379         2.51354        0.923887
LJ          -1.65325        -1.80412         1.03621
LJ           2.44415        -1.66394         1.76605
LJ          -1.77895        -2.56131         1.74235
LJ         -0.821778         2.42644        0.812624
LJ          0.091352        -1.77293        0.957955
LJ         -0.831942        -1.69654         1.81261
LJ         0.0666545         -2.5226         1.72434
LJ           1.05106         2.50548        0.892364
LJ            1.7362        -1.79396        0.803825
LJ          0.984414        -1.69424         1.61143
LJ            1.6756        -2.52986         1.74265
LJ           2.47001       -0.679156        0.927699
LJ          -1.75351      -0.0274733        0.743851
LJ          -2.55734      -0.0523914         1.85486
LJ          -1.76345       -0.953415         1.86182
LJ         -0.820145       -0.904757        0.781073
LJ          0.103901      -0.0443309        0.870112
LJ         -0.744454       0.0336089         1.68746
LJ         0.0430754       -0.921843         1.61383
LJ          0.812854       -0.885654        0.834461
LJ           1.68217       -0.147941        0.769603
LJ          0.822392      -0.0872803         1.69767
LJ           1.72281       -0.832592         1.73692
LJ           2.56222        0.948575         0.75069
LJ          -1.71921         1.74883        0.824022
LJ          -2.47183          1.6788         1.76319
LJ           -1.6043        0.757336         1.77188
LJ         -0.813188        0.761394        0.774778
LJ        -0.0260382         1.58934         0.88837
LJ         -0.821589         1.74635         1.62449
LJ         0.0437015        0.810811         1.56327
LJ          0.872621        0.712245        0.780918
LJ           1.70107         1.64629        0.766314
LJ          0.870957         1.55253         1.64908
LJ           1.70275         1.01652         1.62815
