108
#Comment!
LJ           2.52527         2.56337         2.45912
LJ          -1.76874        -1.75779         2.44452
LJ          -2.55996         -1.6903        -1.55532
LJ          -1.75821        -2.49491        -1.83767
LJ         -0.992584         2.42613         2.48493
LJ        -0.0511802        -1.99795        -2.46217
LJ          -0.90727        -1.50763        -1.64055
LJ         0.0724331         2.29142         -1.6356
LJ            1.0171         2.48854        -2.37065
LJ           1.78882        -1.65838         2.53503
LJ          0.943909        -1.72385        -1.57404
LJ            2.0235        -2.52425        -1.53837
LJ           2.48874       -0.772169        -2.45173
LJ          -1.78053       0.0713832         2.50903
LJ          -2.49464         0.16333        -1.68986
LJ          -1.69725       -0.620496        -1.34689
LJ          -1.20619       -0.918664        -2.50753
LJ          -0.10684       -0.208529        -2.49488
LJ         -0.837085       0.0705041        -1.82549
LJ        -0.0575011       -0.936916        -1.74442
LJ          0.997612        -1.08604        -2.42513
LJ           1.65655       0.0878885        -2.53894
LJ          0.726228      0.00336503        -1.54197
LJ           1.72716        -0.82629        -1.73058
LJ          -2.49413         1.02036         2.34138
LJ          -1.76894         1.82624         -2.5622
LJ          -2.54536         1.65035         -1.7701
LJ          -1.68678        0.929202        -1.89727
LJ         -0.703444         1.09618         2.54855
LJ          0.056351         1.82195         2.51199
LJ          -0.77432         1.70679        -1.79057
LJ         0.0478647         0.84553        -1.88853
LJ          0.854162        0.832773        -2.48035
LJ           1.80682         1.88214         2.41486
LJ          0.896241         1.70767        -1.55392
LJ           1.80634        0.808921        -1.76783
LJ          -2.45004         2.44239       -0.654471
LJ          -1.51289        -1.81906       -0.645604
LJ           2.53466        -1.72762       -0.129328
LJ          -1.61636         2.35633      -0.0912015
LJ          -0.76403         2.49044        -0.92093
LJ         0.0250192        -1.73331       -0.914879
LJ         -0.646436        -1.81313       0.0517034
LJ         -0.209295         2.33411       0.0389338
LJ          0.828041        -2.44262       -0.860918
LJ           1.80055        -1.65897       -0.896434
LJ          0.705692        -1.94856       0.0949433
LJ           1.63976        -2.36352       -0.119225
LJ          -2.53835       -0.860684       -0.756275
LJ          -1.84619        0.166082       -0.746247
LJ           2.40157      -0.0308182       0.0102456
LJ            -1.699       -0.905009      0.00737479
LJ           -0.6441       -0.815901       -0.825367
LJ         0.0300654        0.237723        -0.94012
LJ         -0.728167      -0.0813948      -0.0481614
LJ         0.0457981        -0.77141        0.153604
LJ          0.831716        -0.79711       -0.789108
LJ           1.78383       -0.103249       -0.836693
LJ          0.727969       0.0424916      -0.0675544
LJ           1.58706       -0.998419      -0.0856455
LJ          -2.40776         1.01186       -0.907002
LJ          -1.64256         1.68371        -1.06404
LJ           2.55274         1.60394       0.0613235
LJ          -1.91894        0.828862       0.0448583
LJ         -0.976708        0.754454       -0.828056
LJ        -0.0931876         1.54699       -0.844696
LJ         -0.844501         1.48191       -0.042932
LJ         0.0439872        0.985738       0.0324682
LJ          0.886046         1.08091        -0.72731
LJ           1.77611         1.65671       -0.954169
LJ          0.838089         1.92523       0.0433929
LJ           1.77688         0.85256       -0.144689
LJ           2.43268        -2.48713         0.83843
LJ          -1.49751        -1.66517        0.731767
LJ          -2.55908         -1.4203         1.74932
LJ          -2.00277         2.52121          1.5527
LJ         -0.708496        -2.51685        0.978531
LJ          0.153636        -1.81748        0.970205
LJ         -0.951893        -1.63821         1.75394
LJ         0.0241095        -2.41958         1.68814
LJ           1.05705        -2.53255        0.899782
LJ           1.74252        -1.48936        0.750864
LJ          0.853452        -1.65009         1.68119
LJ           1.53781        -2.48654         1.87438
LJ           2.55507       -0.582625         1.04764
LJ          -1.82786      -0.0104612        0.835233
LJ           2.52903        0.133021         1.83028
LJ          -1.67544       -0.913995         1.50301
LJ         -0.787775       -0.881576        0.897326
LJ          0.108207       -0.107828         1.02926
LJ         -0.854248        0.189092         2.10247
LJ          0.130778       -0.930348         1.63133
LJ          0.985025       -0.817198        0.813759
LJ           1.58493       -0.111358        0.585035
LJ           0.76219       -0.116393         1.88226
LJ           1.66766       -0.806129         1.69964
LJ           2.44784        0.664447        0.714678
LJ          -1.42902         1.93566        0.809844
LJ          -2.56278          1.5903         1.46074
LJ          -1.49883        0.890962         1.63164
LJ         -0.840027        0.772241        0.649681
LJ          0.178099         1.65164        0.991606
LJ         -0.796336         1.64894         1.50749
LJ         0.0269011        0.900585         1.61937
LJ          0.800505        0.618206        0.938072
LJ           1.79424         1.68495        0.754127
LJ          0.976045         1.72082         1.71413
LJ           1.68842        0.755809          1.6354
