108
#Comment!
LJ          -2.54839        -2.52473         2.36503
LJ          -1.77986        -1.63208         2.43132
LJ          -2.46493        -1.62929        -1.80831
LJ          -1.76399         2.51684         -1.6764
LJ         -0.871369        -2.54913        -2.48404
LJ        0.00512059        -1.99977         -2.4858
LJ          -1.14241        -1.46974        -1.79078
LJ        -0.0573891         2.26733        -1.76616
LJ          0.842578         2.54742         2.42744
LJ           1.78402        -1.69988        -2.55505
LJ          0.753389        -1.91052        -1.83146
LJ           1.95633         2.46798        -1.71898
LJ           2.45287       -0.838837         2.53859
LJ           -1.7104       0.0326718        -2.53786
LJ           2.45267        0.119217        -1.87968
LJ          -1.70623       -0.627799         -1.6098
LJ          -1.08054       -0.720587        -2.47564
LJ         -0.147967       -0.248793        -2.51354
LJ         -0.801931      0.00923539        -1.86682
LJ         -0.105466        -1.15846        -1.95011
LJ          0.907458        -1.13102        -2.51434
LJ           1.66582      -0.0300466         2.50876
LJ          0.884189        0.104055        -1.86691
LJ           1.67719       -0.667241        -1.80289
LJ          -2.56298        0.941405         2.52006
LJ           -1.7228         1.91573         2.47927
LJ          -2.36716         1.59034        -1.63472
LJ           -1.6805        0.848308        -1.85543
LJ         -0.612778        0.969553         2.50854
LJ          0.158074           1.754         2.33742
LJ          -1.09155         1.69448        -1.76373
LJ           0.14401         1.08698        -1.84398
LJ          0.835992        0.890567          2.4719
LJ           1.78394           1.858         2.33572
LJ          0.949769         1.93397        -1.86332
LJ           1.62384          1.0191         -1.6577
LJ           2.49016           2.372        -0.74546
LJ           -1.3393        -1.72484       -0.783944
LJ          -2.35904        -1.89067        -0.14002
LJ          -1.69152         2.37905      -0.0371547
LJ         -0.852069        -2.53304        -1.10882
LJ          0.189762        -1.66054       -0.825991
LJ         -0.629296        -1.96227       -0.135622
LJ         -0.138869         2.34355       0.0464597
LJ           0.77667        -2.47327       -0.909113
LJ            1.9305        -1.80285        -1.05675
LJ          0.753737        -1.90509        0.249492
LJ           1.65501        -2.43578      -0.0877601
LJ          -2.53969        -0.88961       -0.759011
LJ          -1.91276        0.104532       -0.805471
LJ          -2.46903        0.143526      -0.0160527
LJ          -1.80407       -0.877495        0.119882
LJ         -0.599915       -0.827561       -0.619902
LJ        -0.0993419        0.249599       -0.969685
LJ         -0.732251        0.074395        0.100937
LJ        -0.0504161       -0.698427        0.244613
LJ          0.786188       -0.929885       -0.633158
LJ           1.90564      -0.0240819        -0.68764
LJ          0.609912     -0.00710267       0.0610481
LJ           1.80581        -1.26578       -0.187087
LJ          -2.56248        0.984208       -0.774449
LJ          -1.60327         1.73044       -0.761535
LJ           2.52631         1.64846      -0.0569185
LJ          -1.85584         1.07353        0.265206
LJ           -1.0676        0.780302       -0.833434
LJ         0.0913045         1.70744       -0.964949
LJ         -0.789351         1.56459      -0.0882917
LJ          0.165827        0.906698       -0.122256
LJ           0.91462         0.97639       -0.818708
LJ           1.71558         1.72827       -0.810717
LJ          0.767827         1.92926      -0.0231662
LJ           1.64266        0.818353       -0.109194
LJ           2.40481         2.36413        0.712978
LJ          -1.41745        -1.79118         0.69694
LJ           2.50056        -1.56868         1.68891
LJ          -2.04351        -2.41864         1.37334
LJ         -0.713929         2.44028         1.08999
LJ          0.165576        -1.54785        0.963113
LJ         -0.999243        -1.82753         1.82234
LJ         0.0628071        -2.33717         1.71697
LJ          0.839197         2.33238         1.01564
LJ           1.96103        -1.65242        0.813852
LJ            1.0323        -1.79996         1.72611
LJ           1.71574        -2.56024         1.57744
LJ           2.50887        -0.63446        0.906116
LJ          -1.64214       0.0773479        0.762782
LJ           2.52811         0.11973         1.76677
LJ          -1.72015       -0.717569         1.80538
LJ         -0.756697        -1.07199        0.974169
LJ         0.0752283       -0.131115         1.05346
LJ         -0.899218        0.171286         1.98229
LJ          0.148486       -0.978806         1.87128
LJ           1.08204        -1.07298        0.700083
LJ           1.53813       -0.118064        0.598583
LJ          0.771587      -0.0624796         1.97769
LJ           1.66091       -0.802684         1.85366
LJ           2.31518        0.846766        0.796718
LJ          -1.62258         1.87015         0.89472
LJ            2.4243         1.58427         1.49052
LJ          -1.83512         1.01933         1.58593
LJ         -0.851586        0.751013        0.843271
LJ          0.148555         1.41671        0.780586
LJ         -0.812895         1.50201         1.58144
LJ          0.166591        0.867261         1.63192
LJ           1.00835        0.759055         1.00923
LJ           1.58416          1.6624        0.570119
LJ          0.864264         1.59082         1.65406
LJ            1.6431        0.902334         1.83901
