108
#Comment!
LJ           1.46677       -0.289881         1.09034
LJ           2.45984        -1.06311        0.939886
LJ         -0.435379        0.451021         1.77307
LJ          0.110375        -0.30814        -1.15627
LJ          0.941194          1.1348         1.24492
LJ           2.01202         2.39365       -0.351885
LJ          0.946291      -0.0974655        -1.73994
LJ            1.8294        0.906016        0.375755
LJ           1.55514        0.998867         2.32836
LJ          -1.17517         1.23121         1.19781
LJ           1.60438       -0.276715       -0.345307
LJ          0.187991      -0.0646955         1.06627
LJ          -1.50208         -1.5519       -0.833445
LJ           1.12485         2.19742         1.88428
LJ           2.54519        0.255834         1.30814
LJ         -0.872014       -0.989268      -0.0899848
LJ          -1.00558        -1.81523         2.08955
LJ          -2.11599        0.727311        0.316687
LJ        -0.0171196        -2.49349         2.37517
LJ           2.47968       -0.707053       -0.795192
LJ          0.427661         1.72153        -2.37889
LJ         -0.701247         1.56806       -0.705881
LJ         -0.691053        0.434439        -1.07079
LJ          -1.26465       0.0810369        -2.01533
LJ           1.46338       -0.813151        -1.26282
LJ           -1.8557         2.50447        0.825865
LJ           2.20217        -1.45542       -0.193694
LJ         -0.209002       -0.068511        -2.22552
LJ          0.624606          2.0557        0.930493
LJ         -0.985555        -1.02635        -2.34043
LJ           1.71311        -1.92002        -1.32671
LJ          -2.20878        -1.98158        -2.37159
LJ           2.50809       -0.881205        -1.78147
LJ        -0.0598985        -2.40782         -1.0127
LJ          -2.09308        -2.09635       -0.161204
LJ          -0.48506         2.11836         1.33652
LJ           1.66029         1.91244        0.580087
LJ         -0.611742       -0.495161         1.45837
LJ           1.56447        -1.26342        -2.19022
LJ          0.850868       0.0852834        0.340198
LJ           1.17868        -1.95303       -0.498596
LJ          -1.91949        -1.03746       0.0137037
LJ         -0.850638       -0.586446        -1.04361
LJ          -1.62704         1.40327        -2.46201
LJ           1.17537        -2.15478        0.853098
LJ          -1.38222          2.4604       -0.560994
LJ         -0.392334        0.983375         -2.4996
LJ           1.57823     -0.00730446         2.00441
LJ            0.1129        -1.97847         1.27075
LJ          0.826609        -1.91763         2.39683
LJ          -1.54499       0.0333543          1.8413
LJ          0.208443         1.35353         1.85671
LJ           1.62823         1.92595        -2.21223
LJ         -0.325801          2.2058        0.196878
LJ          -2.08642         1.49685         1.51446
LJ           2.55624         1.31112         -1.6733
LJ         -0.756696         1.90923         2.26831
LJ         -0.374369        -1.35462        -1.62781
LJ           1.24537        -1.06485        0.321863
LJ           1.04567         1.07402        -1.67218
LJ          -1.84859        -1.56994        0.880719
LJ          0.432629        -1.02148        -2.19614
LJ          -1.25674         1.83193        0.361128
LJ          -2.49547        0.522254         2.36451
LJ          -2.56155       -0.146984     -0.00850617
LJ           1.07846        0.606847       -0.785805
LJ          -1.01967        0.562869        0.178552
LJ          0.876281       -0.773491         1.66148
LJ          -1.12041        -2.06886        0.248633
LJ          -2.32905        0.182286        -1.63123
LJ           1.80129        -2.32372        -2.53554
LJ          -1.37495         1.31246        -1.44765
LJ          0.578692         1.81682       -0.923828
LJ          -2.43279         1.71129           0.422
LJ           2.46862         2.33457        -1.57484
LJ         -0.890996        -1.44573         1.13222
LJ          0.695256        -1.77355        -1.53858
LJ          -1.69472       -0.081879       -0.593998
LJ         -0.129916        -1.23354         1.98175
LJ          -0.16167       0.0699233       0.0897719
LJ          -1.72411       -0.860483        -1.56285
LJ          0.132887         1.00157       -0.401704
LJ           2.25777        -2.08845        0.747319
LJ          -0.14654         1.05923        0.660547
LJ           1.76764        0.307788        -2.00315
LJ           2.19036         2.26666         1.36418
LJ           2.54251       -0.645087         2.16556
LJ          0.574288        0.103407         2.30328
LJ          0.415542         -1.2161       -0.709105
LJ          0.340032        -1.83066        0.137654
LJ           2.51043        -1.97211         1.81819
LJ          0.111109       -0.882546        0.446572
LJ          -2.54837         2.03326         2.25152
LJ          -1.51833       -0.976085         1.90103
LJ          -2.26994         -1.9114        -1.26043
LJ           2.07807         1.22088         1.32056
LJ           1.71433          1.5037       -0.795174
LJ          -0.51057         1.88365        -1.80084
LJ           1.58943        -1.64408          1.6868
LJ          -1.56038       -0.566782        0.907433
LJ          0.880686         1.19691        0.224349
LJ           0.85943         2.41016       -0.018103
LJ          -1.98033         1.37588       -0.636956
LJ           2.21778        0.542171       -0.646983
LJ           1.25763         2.32316        -1.39578
LJ           -1.6772        -2.48367         1.85638
LJ          -1.55156         2.32873        -1.98435
LJ          0.116653        0.783906        -1.52069
