108
#Comment!
LJ          -2.50238        -2.28237        -2.55946
LJ          -1.69532        -1.50464        -2.56414
LJ          -2.43148        -1.55503        -1.71042
LJ          -1.68756        -2.44815         -1.7472
LJ         -0.810261         2.35114        -2.45855
LJ         -0.130329        -1.50056         2.49284
LJ         -0.811789         -1.4424        -1.92654
LJ          0.134206        -2.54492        -1.84371
LJ           1.07161        -2.52286        -2.51226
LJ           1.59417        -1.47192         2.45207
LJ           1.06082        -1.76672        -1.74483
LJ           1.95331        -2.56402        -1.62707
LJ           2.52984        -0.74943        -2.44162
LJ          -1.92121      -0.0381514          2.2822
LJ           2.55643       0.0400608         -1.6186
LJ          -1.59353       -0.581951        -1.59527
LJ         -0.759391       -0.686363         2.49859
LJ         0.0674345      -0.0215001        -2.31413
LJ         -0.743404       0.0705841        -1.74601
LJ         0.0727409       -0.910676        -1.53925
LJ           0.68754       -0.991064        -2.55409
LJ           1.71864       0.0830358        -2.43023
LJ          0.870406        0.259551        -1.63015
LJ           1.43486       -0.686104        -1.53325
LJ          -2.55961        0.908976        -2.36822
LJ          -1.77632         1.89434         2.47253
LJ          -2.44518         1.70698        -1.52345
LJ          -1.54082        0.679297        -2.01016
LJ         -0.486679        0.846965         2.49979
LJ         0.0542467         1.86513         2.45081
LJ          -1.19033         1.60258        -1.71316
LJ         -0.177696        0.978692        -1.66151
LJ           1.02306        0.985312        -2.52338
LJ           1.75601         1.96534         -2.5615
LJ          0.960873         1.86163        -1.83581
LJ           1.72994         1.20744        -1.81316
LJ           2.56196        -2.42333       -0.643746
LJ          -1.40682        -1.57092       -0.800608
LJ           -2.2745        -1.61689       0.0324276
LJ          -1.67616         2.43919        0.353786
LJ          -0.70158        -2.53089        -1.04286
LJ         0.0326825         -1.8763       -0.694353
LJ         -0.743257        -1.86356       0.0442001
LJ         0.0688583          2.4464        0.074346
LJ           1.01519        -2.47186       -0.936712
LJ           1.89127          -1.524       -0.910602
LJ           0.74874        -1.97814         0.23723
LJ           1.69061        -2.49519       0.0111971
LJ           -2.2853       -0.809634       -0.730156
LJ          -1.81343        0.269395       -0.925648
LJ           -2.4094      -0.0293157       0.0214587
LJ          -1.60967       -0.615389       -0.105493
LJ         -0.740143       -0.787167       -0.811763
LJ        -0.0143773      -0.0260872       -0.815264
LJ         -0.639616      -0.0774704       0.0610546
LJ        0.00253362        -1.08144       0.0686053
LJ          0.918987        -1.15821       -0.640264
LJ           1.92925       -0.306754       -0.574257
LJ          0.818566        0.059688       0.0318941
LJ           1.91657        -1.05954        0.163424
LJ           2.36491        0.786628       -0.719349
LJ          -1.78185           1.667       -0.636674
LJ           2.37731         1.62364       0.0137063
LJ          -1.79117        0.981347        0.125763
LJ         -0.838678        0.855233       -0.894125
LJ         -0.028334         1.78367       -0.946314
LJ         -0.786762         1.71345       -0.129948
LJ          0.187014        0.929274       -0.199065
LJ          0.867204         1.01337       -0.991641
LJ           1.73159         1.72122       -0.805653
LJ          0.847578         1.83001       -0.151484
LJ           1.72552        0.691303       0.0468119
LJ           2.47595          2.4109        0.755138
LJ           -1.4733        -1.83029        0.872858
LJ           2.42584        -1.46151         1.65416
LJ          -1.95145        -2.45862         1.65774
LJ         -0.716518          2.4436           1.003
LJ         -0.138287        -1.57565         1.03082
LJ         -0.909009         -1.6388         1.80107
LJ        -0.0205231        -2.32624         1.77603
LJ          0.851905         2.49225        0.889298
LJ           1.56492        -1.64674        0.962106
LJ          0.734521        -1.54143         1.65073
LJ            1.6102         2.55999         1.54656
LJ          -2.39278       -0.755795        0.893869
LJ          -1.83114        0.224144        0.798485
LJ           2.33735       0.0829417         1.68298
LJ          -1.60664       -0.819537         1.67725
LJ          -0.95708       -0.914504        0.873474
LJ         0.0881908      -0.0711321        0.892163
LJ          -1.03844      -0.0269508         1.55871
LJ         0.0197384       -0.706364         1.80063
LJ          0.936243       -0.941555         0.49123
LJ           1.67024       -0.219336         0.85044
LJ          0.928681      -0.0630465         1.70977
LJ           1.56022       -0.834691         1.72187
LJ           2.32433        0.935554         1.07074
LJ          -1.90301         1.63613        0.957047
LJ            2.4529         1.90989         1.62879
LJ          -1.68841        0.826766         1.66914
LJ         -0.966694        0.841893        0.922787
LJ          0.267592         1.48926        0.766637
LJ         -0.729836         1.45245         1.69424
LJ           0.16846        0.696661         1.63174
LJ             1.172        0.670562         1.10137
LJ           1.56677         1.71584        0.779781
LJ          0.868323         1.79019         1.62463
LJ           1.72943        0.894992         1.92995
