108
#Comment!
LJ           2.55835         2.52005        -2.52967
LJ          -1.67956        -1.80016         2.49287
LJ           2.54004         -1.8073         -1.7439
LJ          -1.80834         2.55134        -1.71521
LJ         -0.943742         2.41455         2.50304
LJ        -0.0941548         -1.7303        -2.49324
LJ         -0.788392        -1.65034        -1.64372
LJ        -0.0419735        -2.47488         -1.5765
LJ          0.898414        -2.56469         2.46762
LJ           1.69721        -1.79056        -2.46083
LJ          0.909147        -1.61769        -1.58557
LJ           1.78323        -2.51624         -1.7034
LJ           2.39401       -0.815121         2.46455
LJ          -1.58207      0.00408733         2.43169
LJ           2.50573        -0.03097        -1.71692
LJ          -1.63883       -0.913589        -1.67789
LJ         -0.909419       -0.828689        -2.55986
LJ          0.111456      -0.0849347        -2.56251
LJ         -0.879779       0.0973343         -1.6366
LJ        -0.0211241        -0.95517        -1.68531
LJ          0.763694       -0.962513        -2.54799
LJ           1.77221       0.0895523         2.53692
LJ          0.761756       0.0569701        -1.71981
LJ           1.64311       -0.833662        -1.63769
LJ          -2.56211        0.857308         2.51334
LJ          -1.75587         1.73927         2.56279
LJ          -2.47005          1.5969        -1.76348
LJ          -1.80634        0.835951         -1.7183
LJ         -0.788453        0.913814         2.37324
LJ         0.0608216         1.63374          2.4202
LJ         -0.812966         1.75131        -1.70832
LJ         0.0130556        0.854445        -1.81716
LJ          0.840293        0.957204        -2.45952
LJ           1.73963         1.77853         2.55905
LJ            1.0178         1.75926        -1.75795
LJ           1.63196         0.80061        -1.60561
LJ          -2.51598        -2.54894       -0.873881
LJ          -1.59824        -1.74498       -0.820263
LJ          -2.55995        -1.77877      -0.0596722
LJ          -1.63716         2.53104       0.0116013
LJ         -0.799647         2.49179       -0.871654
LJ        -0.0473295        -1.63864       -0.874239
LJ          -0.87011        -1.66753      -0.0788897
LJ         -0.108424         2.43131       -0.078571
LJ          0.891865          2.4967       -0.806036
LJ           1.65027        -1.77471       -0.771259
LJ          0.737214        -1.85903       0.0843072
LJ           1.68627        -2.52604      -0.0272088
LJ          -2.52718       -0.850967       -0.780831
LJ          -1.83601         0.13888       -0.965737
LJ           2.55943      -0.0403376      -0.0360274
LJ          -1.78053       -0.911287      -0.0444169
LJ         -0.806599       -0.761807       -0.783695
LJ         0.0347047       -0.197716       -0.878542
LJ         -0.952044       -0.169893      0.00719108
LJ         0.0176787       -0.717904        0.112998
LJ          0.952015       -0.792777        -0.85414
LJ           1.66098      -0.0265823       -0.914389
LJ          0.893666       0.0160316      -0.0682897
LJ            1.6792        -0.90579       -0.148164
LJ           2.55231        0.925415       -0.874016
LJ          -1.75994         1.69468        -0.89762
LJ           2.52482         1.71048       0.0447852
LJ          -1.68855        0.899435        0.102963
LJ         -0.836171        0.769052       -0.638536
LJ         -0.123776         1.75898       -0.969982
LJ         -0.919501         1.69682      -0.0596034
LJ        -0.0614645        0.906257        0.142551
LJ          0.784693        0.967268       -0.816226
LJ           1.76226         1.77022       -0.799339
LJ          0.713966         1.72584       -0.100449
LJ           1.67246        0.764292       0.0544029
LJ          -2.53313        -2.51927        0.888098
LJ          -1.64535         -1.7724        0.993987
LJ           2.47583        -1.61787         1.72385
LJ          -1.77733         2.55592         1.69253
LJ         -0.885965         2.50256        0.778561
LJ         0.0800823        -1.75484        0.913025
LJ         -0.854657        -1.75015         1.83844
LJ         0.0936228        -2.51748         1.72622
LJ          0.990154         2.39601        0.880015
LJ            1.7269        -1.85155        0.836919
LJ          0.962882        -1.75257         1.56398
LJ           1.77555         2.56185         1.74261
LJ           2.48158       -0.790419        0.885314
LJ          -1.72699       0.0154183        0.864396
LJ          -2.50569      -0.0465304         1.85312
LJ          -1.75321       -0.941466         1.81024
LJ         -0.819067       -0.835768        0.780207
LJ           0.15136       0.0257623        0.819486
LJ         -0.729055       0.0824443         1.70519
LJ         0.0140928       -0.906436         1.64651
LJ          0.783052       -0.870219        0.859218
LJ           1.66008       -0.131855        0.863358
LJ          0.833362     -0.00220828         1.70764
LJ           1.78425       -0.786039         1.63568
LJ            2.5223        0.835875        0.782124
LJ          -1.71029          1.6351        0.824131
LJ           2.54047         1.66828         1.78954
LJ          -1.60044        0.826045         1.77622
LJ         -0.840112        0.780291        0.828434
LJ        0.00237227         1.56326         0.87305
LJ         -0.796413         1.77392         1.63901
LJ         0.0109422         0.74918         1.60641
LJ           0.88195        0.757896        0.698602
LJ           1.64748         1.62051        0.799005
LJ          0.851802         1.55021          1.6743
LJ           1.70895          0.9809          1.6379
