108
#Comment!
LJ           2.54974        -2.49246        -2.55176
LJ          -1.78051        -1.70753          2.3874
LJ            2.5588        -1.76624        -1.78072
LJ          -1.80068         2.52434         -1.5953
LJ         -0.844642         2.49648        -2.47913
LJ        0.00183426        -2.02988         -2.5073
LJ          -1.20608        -1.49959          -1.738
LJ         0.0126787         2.21642        -1.79352
LJ          0.860709         2.56104         2.48505
LJ            1.7592        -1.70805        -2.49112
LJ          0.824411        -1.90217        -1.80376
LJ           1.86085         2.53503        -1.73247
LJ           2.50039       -0.932538         2.53414
LJ           -1.8529      0.00803375         2.54127
LJ           2.46496        0.160778        -1.97235
LJ          -1.79562        -0.54114        -1.67906
LJ          -1.20854       -0.761749        -2.43083
LJ       -0.00848991       -0.272152        -2.47166
LJ         -0.747532       0.0255437        -1.83591
LJ         -0.161792        -1.15359        -1.85006
LJ          0.856144        -1.22132        -2.49386
LJ           1.74918      0.00591039         2.51305
LJ          0.918645       0.0737628         -1.7794
LJ           1.65459       -0.639971         -1.7473
LJ          -2.54365        0.943048         2.41262
LJ          -1.70304         1.92837         2.44847
LJ          -2.40873         1.64523        -1.62308
LJ          -1.62911        0.785141        -1.81476
LJ         -0.602308        0.966208          2.4692
LJ            0.1852         1.74214         2.47745
LJ          -1.02858         1.64413         -1.7994
LJ         0.0626378         1.05949        -1.80525
LJ          0.933617        0.838243         2.47333
LJ           1.80514         1.87949         2.49465
LJ          0.893868         1.86643        -1.63063
LJ           1.57746          1.0138        -1.68006
LJ           2.48988         2.36309       -0.748588
LJ          -1.44806        -1.70077       -0.754846
LJ          -2.49081        -1.91602      -0.0763428
LJ          -1.63115          2.4659      -0.0135654
LJ         -0.796123         2.56389        -1.01836
LJ          0.153295        -1.67981        -0.91753
LJ         -0.638839        -1.87577     -0.00558188
LJ         -0.188448         2.34817       0.0971574
LJ          0.832088        -2.43505       -0.927276
LJ           1.85731        -1.77622       -0.944113
LJ           0.77589         -1.9863        0.188532
LJ           1.67994        -2.41116      -0.0453372
LJ          -2.52316       -0.944298         -0.7141
LJ          -1.85387        0.173555       -0.815553
LJ          -2.51099       0.0920396       0.0418069
LJ          -1.79412       -0.921039         0.06888
LJ         -0.596473       -0.849794        -0.72829
LJ        -0.0951396        0.320981       -0.938444
LJ         -0.685013      -0.0350708       0.0189489
LJ         0.0591557        -0.80866        0.298222
LJ          0.784646        -0.96926       -0.623501
LJ           1.99013       -0.160262       -0.729642
LJ          0.703171      0.00252414      -0.0379329
LJ           1.70964        -1.14566       -0.135112
LJ           2.51416        0.981693       -0.873756
LJ          -1.52803         1.82911       -0.788712
LJ            2.4311         1.71686      -0.0192398
LJ          -1.91402         1.15233        0.174343
LJ          -1.05942        0.775902       -0.902709
LJ          0.167377         1.84999       -0.848449
LJ          -0.72101         1.57039       -0.119351
LJ          0.110732        0.875085      -0.0610328
LJ          0.752031         1.01135       -0.781623
LJ           1.67405          1.7247       -0.868662
LJ          0.718489         2.05411      -0.0444425
LJ           1.76561        0.819084       -0.149442
LJ           2.39151         2.27029        0.769284
LJ          -1.39762        -1.86758        0.653812
LJ           2.51855        -1.54452         1.69952
LJ          -2.01413        -2.38187         1.46257
LJ         -0.584233         2.46613         1.14741
LJ         0.0847214        -1.60117        0.959684
LJ         -0.922444         -1.8697         1.80384
LJ          0.080427        -2.32766          1.7206
LJ          0.825806         2.34498        0.944996
LJ           2.00227        -1.64519        0.752265
LJ          0.947591        -1.76281          1.7365
LJ            1.6425         2.52946          1.6161
LJ           2.45765       -0.678609        0.965784
LJ          -1.78138       0.0682335        0.839512
LJ           2.51025      0.00277391         1.76222
LJ          -1.88299       -0.742186         1.75433
LJ         -0.729044       -0.913099         1.02237
LJ         0.0403829       -0.146055          1.0575
LJ         -0.915695        0.209701         1.95948
LJ          0.226694         -1.0091          1.8576
LJ           1.09398         -1.0131        0.659501
LJ           1.57007       -0.127374        0.787153
LJ          0.845357      -0.0581729         1.91756
LJ           1.58789       -0.834644          1.8989
LJ           2.36249        0.857544        0.838905
LJ          -1.45636         1.91706        0.840287
LJ           2.43178         1.59647         1.58031
LJ          -1.82092        0.982045         1.59275
LJ         -0.898533        0.679516        0.938342
LJ          0.200388          1.4729        0.729572
LJ         -0.802608         1.58718         1.61164
LJ         0.0516723        0.820346         1.56007
LJ           1.08155        0.766464        0.944569
LJ           1.55573         1.67435        0.595982
LJ          0.846515         1.53162         1.64178
LJ           1.68412        0.805006         1.73639
