108
#Comment!
LJ          -2.47821        -2.29518         2.55614
LJ           -1.6943        -1.49082          2.5544
LJ          -2.44647        -1.54875        -1.75174
LJ          -1.72974        -2.43272        -1.80581
LJ         -0.779603         2.32337        -2.41104
LJ          -0.15274        -1.45061          2.4425
LJ         -0.863836        -1.47419        -1.92999
LJ          0.132416        -2.43953        -1.87623
LJ           1.03406         -2.4695        -2.49609
LJ           1.64074        -1.52079          2.4234
LJ           1.09952        -1.77213        -1.72298
LJ           1.95193        -2.54808        -1.62893
LJ           2.49867       -0.807862         -2.4344
LJ           -1.8552      -0.0132354          2.2747
LJ           2.55932       0.0853114        -1.62064
LJ          -1.60024       -0.597493        -1.55919
LJ         -0.749111       -0.671761         2.51732
LJ         0.0742845      -0.0339585        -2.35745
LJ         -0.757585       0.0699276        -1.74168
LJ         0.0834975       -0.944858        -1.54436
LJ           0.69852       -0.945256        -2.52341
LJ           1.69321       0.0788549        -2.45605
LJ          0.877414        0.237966        -1.64173
LJ           1.49184       -0.696164        -1.55391
LJ          -2.55314        0.894145        -2.37394
LJ          -1.79307         1.92516         2.48351
LJ          -2.46203         1.68864        -1.56132
LJ          -1.54946         0.68951        -2.08866
LJ         -0.468749        0.861711         2.51773
LJ         0.0573629         1.83121         2.43995
LJ          -1.23436         1.64047        -1.72632
LJ         -0.135669         1.00459        -1.58736
LJ          0.984421         1.00812        -2.50214
LJ           1.78025         1.95116        -2.54949
LJ          0.972379         1.86332        -1.83685
LJ           1.69369         1.12702        -1.82239
LJ          -2.56071        -2.47179       -0.669466
LJ           -1.3804        -1.59047        -0.79898
LJ          -2.24675        -1.61519       0.0535072
LJ          -1.67612         2.49583        0.286154
LJ         -0.712765        -2.47932         -1.0317
LJ         0.0328963        -1.90333       -0.734583
LJ         -0.705179        -1.87349        0.056615
LJ         0.0286229         2.41153        0.163755
LJ           1.01665        -2.45466       -0.946062
LJ           1.86302         -1.5723       -0.931634
LJ          0.733739        -1.91392        0.202728
LJ           1.66559        -2.50091      -0.0127144
LJ          -2.31895       -0.801657        -0.75755
LJ            -1.842        0.249218       -0.954821
LJ          -2.41716        -0.04596      0.00405543
LJ          -1.58721       -0.612247       -0.128029
LJ          -0.73714       -0.757412       -0.847088
LJ         0.0587818      -0.0796998       -0.884066
LJ         -0.643794       -0.035276      -0.0114448
LJ         0.0125518        -1.10188       0.0983185
LJ          0.963606        -1.13785       -0.568469
LJ           1.93999       -0.295762       -0.589799
LJ          0.797165       0.0670189       0.0357679
LJ           1.92048       -0.968181        0.149125
LJ           2.32571        0.793495       -0.723589
LJ          -1.78246         1.64874       -0.662984
LJ            2.4033         1.58846       0.0094538
LJ          -1.73355        0.989925        0.115424
LJ         -0.885824        0.845845       -0.948247
LJ         -0.028627         1.76902       -0.883144
LJ         -0.784793         1.69351       -0.105399
LJ          0.169109        0.961919       -0.153252
LJ          0.853423         1.01589       -0.972277
LJ            1.7037         1.73444       -0.838608
LJ           0.84041          1.8321       -0.170523
LJ           1.71039        0.759578       0.0767518
LJ           2.48503         2.38235        0.754935
LJ          -1.44526         -1.7932        0.870629
LJ            2.4115        -1.47675         1.62889
LJ          -1.90809        -2.39939         1.63268
LJ         -0.770076         2.39114        0.984505
LJ         -0.119943        -1.54985         1.08949
LJ         -0.869389        -1.63604         1.78522
LJ       -0.00268276        -2.31618          1.8077
LJ          0.776551          2.4455        0.898757
LJ           1.60098        -1.63457        0.929602
LJ          0.729116        -1.54394         1.71219
LJ           1.64275        -2.55951         1.51238
LJ          -2.36475       -0.757927        0.888757
LJ          -1.81839         0.22288        0.767705
LJ           2.39306       0.0260211          1.7009
LJ          -1.62185       -0.802625         1.64192
LJ         -0.948827       -0.905557        0.886033
LJ         0.0963444      -0.0815145        0.922572
LJ          -1.02064       -0.062094         1.60929
LJ           0.05873       -0.674964         1.82872
LJ          0.946904       -0.896641        0.464009
LJ           1.70015       -0.210928         0.87011
LJ          0.918346      -0.0517821         1.76801
LJ           1.52905       -0.829565          1.7499
LJ           2.30538        0.921629         1.07336
LJ          -1.87288         1.60464        0.992464
LJ           2.43504         1.93824         1.63671
LJ          -1.70803        0.843055         1.62451
LJ          -0.95345        0.876377        0.855352
LJ          0.300586         1.45614        0.725959
LJ         -0.736908         1.48788         1.69996
LJ          0.154276        0.699026         1.63279
LJ            1.1869        0.711189         1.10977
LJ           1.58467         1.73138        0.776861
LJ          0.864775         1.81385          1.6488
LJ           1.76284        0.977965         1.92652
