108
#Comment!
LJ           2.51656        -2.47333         2.48481
LJ           -1.6777        -1.82771         2.46338
LJ          -2.49278        -1.68681        -1.54662
LJ          -1.86601        -2.47745        -1.81759
LJ          -1.04913         2.43916         2.44879
LJ         -0.179918        -1.89243         2.56109
LJ         -0.914027        -1.51644        -1.71009
LJ         0.0621154         2.37602        -1.71768
LJ          0.897748         2.46938        -2.42823
LJ           1.81419        -1.69004         2.49157
LJ          0.832759        -1.61956         -1.5788
LJ           2.01376        -2.50383         -1.6096
LJ           2.46575        -0.78652        -2.52504
LJ          -1.86108        0.109152         2.50895
LJ          -2.51806       0.0830771        -1.77178
LJ          -1.67311       -0.638798         -1.3605
LJ          -1.20521       -0.889202         2.53323
LJ        -0.0800485        -0.16825         2.54157
LJ         -0.815347        0.175235         -1.8012
LJ         0.0970341       -0.954276        -1.76584
LJ          0.987699       -0.970615        -2.49799
LJ           1.69523       0.0600501         2.51412
LJ          0.802558     -0.00965805        -1.53457
LJ           1.77661       -0.818588        -1.70684
LJ          -2.54559         1.06203         2.43945
LJ          -1.80288         1.83068         2.50704
LJ          -2.56209         1.64887        -1.75673
LJ          -1.62591        0.956651        -1.87487
LJ         -0.765069         1.09554         2.47648
LJ         0.0444102         1.70575         2.39343
LJ         -0.756489         1.58099        -1.81173
LJ        -0.0322558        0.803204        -1.78763
LJ          0.833563        0.876064        -2.38246
LJ           1.82058         1.84599         2.43803
LJ           1.01644         1.76632        -1.53707
LJ           1.75106        0.831145        -1.76149
LJ          -2.42488         2.53516       -0.723034
LJ          -1.58702        -1.85986        -0.57984
LJ           2.52825        -1.76119        -0.11569
LJ           -1.6347          2.4733       0.0424693
LJ         -0.796831         2.43864        -1.01319
LJ         0.0569395        -1.73534       -0.924955
LJ         -0.784971        -1.79269        0.104497
LJ         -0.239686         2.30388      -0.0136593
LJ          0.895893        -2.49611       -0.955004
LJ           1.70838        -1.61272       -0.877191
LJ          0.732592        -2.01031        0.072698
LJ            1.6208        -2.39585       -0.169891
LJ           2.49849       -0.859857       -0.711723
LJ          -1.87696        0.131832       -0.733786
LJ           2.52432      -0.0333674     -0.00648204
LJ          -1.70776        -0.79058     -0.00716649
LJ         -0.761101       -0.788945       -0.811516
LJ        -0.0247456        0.212536        -0.94327
LJ         -0.782914      -0.0477779      -0.0573165
LJ         0.0172442        -0.79005       0.0635066
LJ          0.813604       -0.881954       -0.710365
LJ           1.71551      -0.0938853       -0.832662
LJ          0.894236       0.0269226       -0.125359
LJ           1.62169       -0.928353       -0.119859
LJ          -2.52186         1.03774       -0.889477
LJ          -1.63321         1.75358        -1.12955
LJ          -2.52374         1.73842       0.0919061
LJ          -1.80316        0.809594       0.0666196
LJ          -1.03615        0.798169       -0.847601
LJ        -0.0397929         1.52396       -0.951747
LJ         -0.885109         1.46596      -0.0751179
LJ         0.0581542        0.953205        0.112651
LJ          0.886673         1.05331       -0.782782
LJ           1.83712         1.68466        -1.01191
LJ          0.827746         1.94704      -0.0130384
LJ           1.77279        0.861182       -0.124826
LJ           2.38688        -2.55356        0.925734
LJ          -1.47658        -1.65911        0.883628
LJ          -2.56466        -1.49737         1.80123
LJ          -2.02164         2.48093          1.6902
LJ         -0.659818        -2.50708        0.959952
LJ          0.220037        -1.82074         0.97291
LJ         -0.924774        -1.63118         1.71904
LJ         0.0715968        -2.45171         1.77227
LJ           1.18589        -2.53187         0.88996
LJ           1.79255        -1.49255        0.899069
LJ          0.903528        -1.72265          1.7067
LJ           1.54131        -2.45595         1.86024
LJ           2.49434        -0.57929         0.97687
LJ          -1.87036        0.110662        0.866405
LJ           2.53587       0.0475574         1.83906
LJ          -1.65678       -0.864907         1.60621
LJ          -0.69999       -0.857176        0.912088
LJ          0.101692      -0.0739689        0.936142
LJ         -0.895948        0.146331         2.04417
LJ          0.173669       -0.919912         1.63282
LJ           0.96433       -0.830578        0.867507
LJ           1.63115       -0.114553        0.531192
LJ          0.735452       -0.143802         1.86028
LJ           1.76181       -0.819699         1.71407
LJ           2.41418        0.796954        0.681598
LJ          -1.53703         1.87022        0.839697
LJ          -2.53413         1.60364         1.55768
LJ          -1.54481        0.863204         1.68779
LJ          -1.00058        0.717208         0.76665
LJ         0.0951688         1.66354        0.902597
LJ         -0.752931         1.69142         1.44622
LJ        -0.0376875        0.879649         1.63524
LJ          0.839324        0.700511         0.97464
LJ           1.84584          1.6695         0.78119
LJ          0.977991         1.64366         1.77479
LJ           1.74922        0.793971         1.56599
