108
#Comment!
LJ           2.39165         2.55929         2.51243
LJ           -1.6557        -1.86447         2.56228
LJ           -2.5038        -1.71081        -1.84766
LJ          -1.84446         2.48202        -1.74405
LJ         -0.925598         2.39914         2.47093
LJ         -0.156727        -1.91394        -2.43167
LJ         -0.847471        -1.67737        -1.59997
LJ       -0.00240162         2.53833        -1.71881
LJ          0.840076         2.53727        -2.50727
LJ           1.63439        -1.78227           2.554
LJ          0.827936        -1.50644         -1.5552
LJ           1.88785        -2.51781        -1.67396
LJ            2.5068       -0.894099         2.46219
LJ          -1.59392       0.0421907         2.52663
LJ           -2.5382        0.101182         -1.7658
LJ          -1.77044        -0.99637        -1.66492
LJ          -1.14054       -0.901996         2.52866
LJ        -0.0285673      -0.0508297         2.53918
LJ         -0.778257         0.12858        -1.70758
LJ         0.0848855       -0.820458         -1.7177
LJ          0.893956       -0.894253        -2.50942
LJ           1.76076       0.0970535        -2.52343
LJ          0.694388        0.148467        -1.64911
LJ           1.64702       -0.767343        -1.75229
LJ          -2.49307        0.843025         2.48137
LJ          -1.76885         1.83157          2.5161
LJ          -2.52089         1.63747        -1.80479
LJ          -1.71763        0.904406        -1.79297
LJ         -0.606557          1.0215         2.31513
LJ          0.183065         1.73915         2.40475
LJ         -0.800657         1.69787        -1.59376
LJ         -0.104759        0.935159        -1.75838
LJ          0.766528        0.859217        -2.36594
LJ           1.85464         1.71086        -2.49796
LJ          0.898001         1.78742        -1.62229
LJ           1.72319        0.777889         -1.6967
LJ          -2.50764        -2.48575       -0.803968
LJ          -1.48551         -1.7502       -0.721398
LJ           2.53111        -1.83435      -0.0603343
LJ          -1.66082         2.48632       0.0154735
LJ         -0.789477         2.53036       -0.767456
LJ         -0.108589        -1.66266       -0.914671
LJ         -0.846095         -1.7303        0.104177
LJ         -0.132219         2.39379       0.0135401
LJ          0.867533         2.46087       -0.830581
LJ           1.57853        -1.77603       -0.819921
LJ          0.742975        -1.81361        0.128924
LJ           1.64692        -2.48964      -0.0767286
LJ           -2.5132        -0.94049       -0.795769
LJ           -1.9386        0.185241       -0.813911
LJ           2.48556       0.0574269      -0.0535123
LJ          -1.65998       -0.862771      -0.0786246
LJ         -0.876135       -0.748855       -0.752152
LJ        -0.0341572       0.0158611       -0.713468
LJ         -0.956474       0.0218836      -0.0413252
LJ        -0.0655985       -0.707412      -0.0496816
LJ          0.967949       -0.785303       -0.782302
LJ            1.8031       -0.147608       -0.816449
LJ          0.907368      -0.0681094      -0.0824741
LJ           1.73855        -1.01873       -0.123589
LJ          -2.56385         1.06568       -0.797734
LJ          -1.68441         1.77826       -0.954335
LJ           2.56098         1.78907        0.131501
LJ          -1.82471        0.937082       0.0436378
LJ         -0.810329        0.709525       -0.857074
LJ         -0.079877         1.75419       -0.952333
LJ          -0.96814          1.6843       -0.163579
LJ         -0.111979         1.01581      -0.0651242
LJ          0.719046        0.931403       -0.823789
LJ            1.7902         1.91334       -0.916815
LJ          0.666277          1.7756      -0.0529059
LJ           1.63345        0.824652      0.00767985
LJ            2.5477         2.50431        0.931913
LJ          -1.56959        -1.70445        0.900695
LJ           2.43102        -1.69551         1.63996
LJ          -1.90504         2.50312         1.66274
LJ         -0.738647         2.49922        0.799065
LJ        0.00478269        -1.75244          0.8191
LJ         -0.864296        -1.64458         1.73822
LJ          0.154973        -2.47156         1.80616
LJ             1.094          2.5222        0.982749
LJ            1.8004        -1.79146         0.82463
LJ          0.897698        -1.64287         1.58747
LJ            1.7369        -2.44167         1.78195
LJ           2.45846       -0.660028        0.871122
LJ          -1.83205       0.0182181        0.932843
LJ          -2.48937     -0.00688637         1.95037
LJ          -1.79454       -0.864011         1.70116
LJ         -0.685673       -0.889249        0.781854
LJ          0.156169     -0.00228382        0.786743
LJ         -0.669714       0.0544846         1.70736
LJ       -0.00923293       -0.937295         1.61066
LJ          0.736441       -0.869677        0.820091
LJ           1.61072      0.00218826        0.788718
LJ          0.805095       -0.177867         1.82997
LJ           1.68978       -0.830544         1.64469
LJ           2.39438        0.884966        0.817498
LJ          -1.78197         1.74574        0.827421
LJ          -2.55665         1.71811         1.81677
LJ          -1.77109        0.754406         1.62411
LJ         -0.892505        0.722962        0.849767
LJ         0.0178168         1.58758         0.88633
LJ         -0.869549         1.75727         1.59955
LJ         0.0140319        0.831115         1.57538
LJ          0.817026        0.805878        0.923567
LJ           1.74709         1.74768        0.823558
LJ          0.868741         1.63293         1.69204
LJ           1.67553         1.03812         1.67734
