108
#Comment!
LJ          -2.56262        -2.42288         2.54353
LJ          -1.72059        -1.63575         2.50028
LJ            2.5515        -1.67239        -1.75726
LJ           -1.7171        -2.38428        -1.74566
LJ         -0.767975         2.51676          2.4758
LJ         0.0319078        -2.04703        -2.41855
LJ          -1.09855        -1.41103        -1.59827
LJ          0.011214         2.24718        -1.73359
LJ          0.998208          2.4392        -2.52576
LJ           1.71723        -1.82894         2.51359
LJ           1.03377        -1.81622        -1.71437
LJ           1.90269         2.50019        -1.59507
LJ           2.49059       -0.753531         2.53711
LJ          -1.86469       0.0250708         2.55128
LJ           2.49359        0.165906        -1.97939
LJ          -1.76663       -0.477896        -1.54755
LJ          -1.09821       -0.859112        -2.38484
LJ        0.00352131       -0.185787        -2.43283
LJ         -0.704799     -0.00165464        -1.67117
LJ         -0.128117        -1.07157        -1.90802
LJ          0.981539        -1.11375         -2.4974
LJ           1.63984       0.0263441        -2.50002
LJ          0.807958       0.0426487        -1.72384
LJ            1.5997        -0.69316        -1.73011
LJ           -2.4666         1.01849         2.50834
LJ          -1.74449         1.98618         2.55618
LJ          -2.45876         1.68488         -1.6592
LJ          -1.50564        0.862783        -1.82695
LJ         -0.658026          1.1026         2.49211
LJ          0.143388         1.80517         2.45106
LJ         -0.833026         1.61854        -1.72505
LJ         0.0503883         1.05702        -1.75434
LJ           0.97837        0.918227         2.55184
LJ           1.91272         1.81416         2.43857
LJ          0.918083           1.804         -1.7117
LJ           1.71816        0.886134        -1.74804
LJ           2.44686         2.38727        -0.76469
LJ          -1.48841        -1.82606       -0.724057
LJ          -2.49778         -1.8529      -0.0253611
LJ          -1.65526         2.53031      -0.0689199
LJ         -0.776478        -2.49393        -1.10861
LJ          0.104529        -1.66665       -0.899539
LJ         -0.423215        -1.78178      -0.0215965
LJ         -0.210977         2.37426       0.0542292
LJ          0.812928        -2.54628       -0.979984
LJ           1.72508        -1.73983       -0.956699
LJ          0.634729        -2.05304        0.128332
LJ           1.69266        -2.38576      -0.0420208
LJ           -2.5012       -0.883502        -0.65885
LJ          -1.89962       0.0585521       -0.700696
LJ           2.48862       0.0609337       0.0753723
LJ          -1.56392       -0.972134       0.0505209
LJ         -0.539836       -0.863231       -0.730815
LJ        -0.0560442        0.209977        -1.01703
LJ         -0.954755       -0.144358       -0.100009
LJ         0.0222277       -0.758944        0.277777
LJ          0.870359       -0.997244       -0.717247
LJ           2.03443      -0.0604737       -0.895915
LJ          0.692445       0.0349556      -0.0262407
LJ           1.59657       -0.898688      -0.0954854
LJ          -2.41499        0.957201       -0.923638
LJ          -1.55742         1.73313       -0.773515
LJ           2.45111         1.77496        0.056898
LJ          -1.92862        0.974926     -0.00231556
LJ          -1.11657        0.703144        -0.89387
LJ         0.0773106         1.83661       -0.799205
LJ         -0.811979         1.45013       -0.131759
LJ        -0.0640669        0.821899       0.0765925
LJ          0.746297          1.0245       -0.692385
LJ           1.63838         1.57351        -0.95645
LJ          0.844763         1.97605      -0.0808479
LJ           1.67853        0.876424       -0.240849
LJ           2.51796          2.4582         0.90157
LJ          -1.40609        -1.75138         0.64195
LJ           2.49475        -1.56902         1.82122
LJ          -2.07449        -2.50548         1.70976
LJ         -0.639259        -2.50628         1.05079
LJ          0.169978        -1.62065        0.986331
LJ         -0.910633        -1.70404         1.67638
LJ         0.0932985         -2.3412         1.70302
LJ          0.962548         2.37724         0.93621
LJ           1.89958        -1.51114          0.7212
LJ           1.01026        -1.78165          1.6884
LJ           1.71487         2.54812         1.72354
LJ           2.55794        -0.67744         1.01057
LJ          -1.69906     -0.00848565        0.841838
LJ          -2.54611       0.0556938         1.86549
LJ          -1.80178         -0.8336         1.63701
LJ         -0.751589       -0.827575         1.06272
LJ          0.040131      -0.0137929        0.912664
LJ         -0.811431        0.185936         1.95714
LJ          0.258231       -0.950116          1.8939
LJ          0.978013        -1.04341        0.733926
LJ           1.64977       -0.117846         0.69384
LJ          0.876995      -0.0128518          1.8263
LJ           1.64383       -0.784022         1.77687
LJ           2.45575         0.91184        0.888583
LJ          -1.52212         1.90895        0.785122
LJ           2.45789         1.62197         1.59197
LJ          -1.73501        0.917822         1.50308
LJ         -0.908861         0.61611         0.86354
LJ          0.214417         1.46228        0.795441
LJ         -0.877415         1.61289         1.50521
LJ        -0.0246495        0.825466         1.61401
LJ            1.0133        0.724733        0.837184
LJ            1.5777         1.69641        0.559103
LJ          0.835496         1.54755           1.734
LJ           1.89422        0.818839         1.82037
