108
#Comment!
LJ          -0.59161         1.84227         1.39668
LJ           1.88385         1.63564       -0.802782
LJ           2.16443        0.663883        -2.27391
LJ         -0.186527         1.51653        0.397185
LJ          -1.06311        -1.56016        0.633732
LJ          -1.64427         -2.4064        -2.13647
LJ           1.58237        0.449018         1.07565
LJ          0.791606        0.102409        0.378528
LJ           1.89619          1.9019        0.179412
LJ          0.445481        0.561286         1.20694
LJ           1.16231       -0.624881        -1.67983
LJ          -2.11244        -1.43957         0.85956
LJ           2.17624        -2.43858        0.999725
LJ           1.01707       -0.660946       -0.338342
LJ           2.19519       -0.145447       -0.103573
LJ          0.767635         1.81607       -0.346281
LJ         -0.200776        -1.60478         2.21598
LJ           1.91592         1.53255         1.11989
LJ           1.57488        -1.60797        -2.02616
LJ          -1.87771          1.2061        0.973012
LJ          -1.15383       -0.346609        -1.58433
LJ           1.25315         2.21657         2.46289
LJ           2.43817        0.935725        0.295932
LJ           1.42716        -2.50662         -1.2412
LJ         -0.503459        -1.19789       -0.124357
LJ          -2.20748        -1.45114       -0.209534
LJ          0.627475        -1.21559        -2.30978
LJ        -0.0712044        -1.64417         1.16918
LJ          0.153524        -1.09416        -1.17535
LJ          -1.01001       -0.300606         2.36393
LJ         -0.894907        -1.79619       -0.838506
LJ          -2.43974         1.76042        -1.43108
LJ         -0.319797        -2.50079        0.611953
LJ          0.364812        0.808518       -0.585767
LJ         -0.868035         2.47347         2.28729
LJ          0.680512          2.3623        0.511683
LJ           -2.2446          -1.142        -1.22782
LJ         -0.729951         1.55141        -2.05915
LJ           2.24656       -0.379033         -1.2663
LJ          -1.82679       -0.620354        0.143812
LJ          0.999957        0.366725         -1.3434
LJ          -1.14623         2.34389        -1.27806
LJ          -1.68246         1.70296         2.55946
LJ         -0.495867       -0.235583         1.44523
LJ          0.277114       -0.816011         1.70281
LJ           1.74146         1.28978         2.11331
LJ          0.882192          1.0973        -2.53804
LJ          -1.08716       -0.335063         0.73438
LJ           1.07024       -0.769721        0.962278
LJ          0.320413        -1.60672        0.266225
LJ         -0.201103       -0.813606        -2.10377
LJ          0.990859         -1.7272          1.3742
LJ           1.44537        0.724645       -0.366011
LJ           -1.5187         1.35411        -1.43278
LJ          -1.71277         1.89639       -0.490946
LJ           1.17221        -2.18634      -0.0859768
LJ         -0.434938        -2.08861        -1.88189
LJ          -1.35231        0.396146       0.0770005
LJ          0.516148         1.42482         1.60543
LJ         -0.523804        0.607203        -1.31548
LJ          -1.56208         -2.2862        0.064524
LJ          0.986955         1.29721        0.625423
LJ          -1.25047         1.60282        0.319338
LJ          -2.46342         2.13385          2.0085
LJ          -1.33884       -0.876316       -0.688261
LJ          0.546851        -2.12524         -2.5647
LJ           2.13897          1.8228        -2.23666
LJ           2.54849        0.599147       -0.836317
LJ          -1.54683        -1.31395         2.56025
LJ          0.299851         1.10482        -1.66166
LJ           1.16738         1.72045        -1.59072
LJ          -2.21464         2.15929        0.600976
LJ           1.37337        -1.54873       -0.915717
LJ          -2.32253        -1.95509          1.6982
LJ         -0.687085         2.48232       -0.399333
LJ          -1.63534        0.702224         -2.1709
LJ          -1.84786        -2.10218       -0.941874
LJ           1.37959        -1.09872         2.14718
LJ         -0.280106        0.547757        0.282572
LJ           -1.2971        -2.43061         1.30309
LJ          -1.11446        -1.09992         1.57409
LJ          0.216615      -0.0980639       -0.812043
LJ           2.38185        -1.39934         2.55279
LJ           1.07657      -0.0893834         1.94549
LJ         -0.123483        0.498463        -2.42925
LJ          -0.63237         1.41514       -0.682067
LJ           2.34394        0.549456         1.71966
LJ           1.71107        -2.02475         2.09355
LJ          -2.31947       -0.382049         2.03236
LJ         -0.673915       -0.127737       -0.361804
LJ          -1.64178         0.18067       -0.832008
LJ           0.16638        -2.52042         1.60113
LJ         -0.523972        0.884294         1.87226
LJ         -0.909735        0.736517        0.954425
LJ          0.626884        -2.01032        -1.62357
LJ          -2.23489      -0.0331963           0.928
LJ          0.235853        -2.10497       -0.667531
LJ           2.54646         2.40455       -0.544861
LJ           1.27375         2.28673         1.45174
LJ        -0.0394029         1.66891         2.42274
LJ           2.14926        -1.13437         1.36819
LJ           -2.1441        -0.49046        -2.02128
LJ       -0.00924599         2.16952        -1.16405
LJ          -2.54557        -2.26358        -1.66249
LJ          -1.58877        0.462497         1.82802
LJ           1.93141       -0.346977        -2.34075
LJ           1.86514        -1.34089        0.173792
LJ        -0.0898251       -0.631117        0.620998
