108
#Comment!
LJ          -1.39814        -1.95062        -1.23625
LJ           1.64512        0.946117        0.097364
LJ          0.208501        0.175151        0.477121
LJ           2.13389          1.8574         1.48779
LJ           2.08525         2.30708       -0.976766
LJ          -0.84528         1.82833        -2.37749
LJ         -0.887948        0.307956         1.06084
LJ          -2.20455        0.454808         2.27432
LJ          -2.49393        -1.84256        -1.89339
LJ         -0.298562        -1.33368        -1.61119
LJ          -2.47693       -0.739844        0.382958
LJ          -1.33956         1.02313        -2.19261
LJ          -1.95126         2.27785         -0.8775
LJ           1.58545         1.10605         2.08721
LJ          0.629421        -1.83194        -1.55189
LJ           1.22318         1.88627       -0.666605
LJ         -0.794365        -2.17077       -0.463928
LJ           1.15946       -0.832582       -0.807631
LJ           2.07901         2.31987        -1.99926
LJ          0.101808        -0.50248       -0.863043
LJ         -0.778618       -0.881236         2.18318
LJ          -1.53992         1.20457         1.22597
LJ          -2.05018          1.6215          2.0509
LJ            2.4472      -0.0803186          1.5814
LJ          0.786028        0.310209        -1.51335
LJ           1.70661         2.10841        0.310739
LJ          0.415437        -2.27455         2.11701
LJ         -0.665161       -0.173243        0.012971
LJ          0.591749         1.41434        -1.62816
LJ           2.08715        -1.18799       -0.362561
LJ          0.771401      0.00422545         2.12198
LJ         -0.285779        0.968722         2.30828
LJ          -1.34852        -1.09682       -0.057229
LJ          -2.07335       -0.217226       -0.596659
LJ           1.12976        -2.54258         1.16323
LJ             2.429        -1.19611         1.97367
LJ          -2.54292       -0.886303        -1.22627
LJ           1.82895        -1.79124        -2.54105
LJ          -1.70251        -1.70961         2.23992
LJ         -0.320436        -1.60771         1.03829
LJ         -0.757176        -2.34193         2.26334
LJ        -0.0553434       -0.256837         1.63027
LJ           -2.3356         1.83348        0.495137
LJ          0.439013         1.16631        0.159177
LJ          0.709193         2.24031         0.28981
LJ         -0.156043        -2.44352        0.228608
LJ          -1.51485        -1.06509        -1.77977
LJ          0.841372        0.924673        -2.42843
LJ          0.858364        0.356003        -0.40618
LJ           1.32795         1.32502         1.01918
LJ        -0.0790517        -0.23267        -2.34083
LJ           1.34497        -1.46887        0.455727
LJ         -0.804482         1.73954         1.70926
LJ          -1.82738          2.0981        -2.04392
LJ           2.28415        -2.27513        0.135576
LJ           1.76102        -1.88026        -1.37447
LJ          -2.42767        -1.86168       -0.857461
LJ           1.09693        0.355069        0.897726
LJ           2.33469        -2.26372         1.14987
LJ         -0.978462        0.250808         1.99832
LJ          -1.11944        -2.50568        0.806904
LJ          0.926474         2.40519        -2.12568
LJ           1.87768       -0.789023           1.062
LJ          -2.48743         1.35932        -2.12432
LJ            2.3393        0.814883          1.1402
LJ          0.704809        -1.07944         2.39154
LJ           -1.1707       -0.141174        -1.97672
LJ         -0.269715        0.720586        -1.81795
LJ           2.37326         1.35764       -0.658367
LJ          0.196909        -1.47335       -0.561602
LJ           1.70577         1.46099        -1.71241
LJ            1.9843       0.0433866        0.521758
LJ          -1.77892       -0.745555          1.6693
LJ          -1.16558         1.93158       -0.346929
LJ          -1.86972        0.821836       -0.967939
LJ          0.421286         2.52513       -0.912761
LJ          0.680158       -0.761501        -1.77346
LJ          -0.95637       -0.750517        0.955127
LJ          -1.87451       0.0986545        0.708475
LJ           1.53268       -0.576144         1.97211
LJ           1.82684       -0.670328        -1.86901
LJ           2.48597        0.294167        -1.69585
LJ          -1.75212        -2.08727       0.0341688
LJ           1.07267       -0.560249        0.305471
LJ         -0.865623         2.32146        -1.24694
LJ          -1.88394        -2.51717         1.69109
LJ          -2.32698        0.812318        0.145256
LJ          0.538719        -1.91141        0.728909
LJ           1.34682        -2.19263       -0.189461
LJ          0.768302       -0.927061          1.3013
LJ          -0.47228         1.49588        0.547057
LJ           1.39618         2.24916         2.06801
LJ          0.358047         1.78808         1.96013
LJ          0.037801        0.969218         1.30123
LJ        -0.0412306         2.48407        -1.89272
LJ          -1.01524        0.775624        -0.22827
LJ          -1.12044       -0.159763       -0.907819
LJ         0.0220697         1.65729       -0.572275
LJ        -0.0220077       -0.896696        0.331573
LJ           1.51536        0.908614       -0.915095
LJ          -1.78784        -1.59406         1.04416
LJ         -0.283068        0.444309       -0.876935
LJ        -0.0688677         2.39806         1.24238
LJ           1.47698        -1.66346         1.50161
LJ           1.82761         0.21324        -2.47782
LJ           1.88383       -0.098762       -0.452641
LJ          -1.10124         1.35453        -1.23428
LJ          -2.29116       -0.622783        -2.29909
