108
#Comment!
LJ           2.53656        -2.55733         2.56163
LJ          -1.70273        -1.82669        -2.51778
LJ           2.55612        -1.72849        -1.68498
LJ          -1.73165         2.54886        -1.74336
LJ         -0.884754         2.56054         2.52112
LJ        -0.0394381        -1.70254         -2.5185
LJ         -0.780429         -1.7257        -1.72799
LJ        -0.0453152         2.53031        -1.60746
LJ          0.849304         2.53923         2.50136
LJ           1.74579        -1.80635        -2.48441
LJ          0.839048        -1.67919        -1.72454
LJ           1.70235         2.55809        -1.71117
LJ           2.55441       -0.815977         -2.5336
LJ          -1.65222      -0.0118871        -2.50494
LJ          -2.56136      -0.0611116        -1.67099
LJ          -1.66039       -0.851413        -1.67523
LJ         -0.812493       -0.755973        -2.53721
LJ         0.0367569      -0.0203533         2.51114
LJ         -0.913234       0.0913558        -1.68173
LJ        -0.0675626       -0.915332        -1.77372
LJ          0.886516       -0.920024        -2.52936
LJ           1.67251        0.133006         2.52114
LJ          0.713088      -0.0224187         -1.7571
LJ           1.66285       -0.866688        -1.70629
LJ           -2.5426        0.833892        -2.54143
LJ          -1.72084         1.72009        -2.55656
LJ          -2.55268         1.58035        -1.78156
LJ          -1.71433        0.856034        -1.68946
LJ         -0.800056        0.898369         2.48312
LJ       -0.00739408         1.65108         2.47754
LJ         -0.815971         1.67604        -1.79645
LJ        0.00999117        0.868235        -1.83104
LJ           0.86888        0.934493         2.53342
LJ           1.65186         1.67964          -2.555
LJ          0.923935         1.68445        -1.75293
LJ           1.64769        0.904016        -1.69886
LJ          -2.54446        -2.54779       -0.779006
LJ          -1.58381        -1.67291       -0.872026
LJ          -2.54305        -1.78243      0.00663367
LJ          -1.72329        -2.54226      -0.0693672
LJ         -0.791377         2.54679        -0.80045
LJ        -0.0278464        -1.72533       -0.906336
LJ         -0.794111          -1.744       0.0247975
LJ         -0.127642         2.50625       -0.101352
LJ          0.946303         2.54594       -0.791574
LJ           1.62074        -1.75536        -0.87742
LJ          0.815973        -1.77567       -0.011027
LJ           1.71564        -2.50418      -0.0392502
LJ           2.51502       -0.828923       -0.858649
LJ          -1.74828     -0.00908506        -1.01611
LJ           2.54718      -0.0103556      -0.0998837
LJ          -1.72307       -0.880432     -0.00232858
LJ          -0.83629       -0.796061       -0.766175
LJ         0.0677679       -0.035022       -0.864749
LJ         -0.919822     -0.00664239       0.0454362
LJ        0.00739078       -0.807389       0.0365582
LJ          0.918056       -0.735093       -0.858498
LJ           1.68309     -0.00406668       -0.871142
LJ          0.836218     -0.00875954      -0.0715177
LJ           1.64441       -0.901122       -0.122662
LJ          -2.53564        0.846701       -0.833886
LJ          -1.72072         1.71143       -0.891869
LJ           2.50463         1.67193      -0.0163396
LJ          -1.75709        0.953517       0.0208344
LJ         -0.833276        0.811881       -0.765845
LJ        -0.0892326         1.66127       -0.862872
LJ         -0.873151         1.67509       0.0400386
LJ        -0.0192829        0.875822        0.106966
LJ           0.91713        0.893394       -0.812695
LJ           1.75003         1.69501       -0.843467
LJ          0.851007         1.82136      -0.0480315
LJ           1.74227         0.85708       0.0644352
LJ          -2.49142        -2.51582        0.862939
LJ          -1.68841        -1.75374        0.789223
LJ          -2.54605        -1.72211         1.70492
LJ          -1.77487        -2.54018         1.66078
LJ         -0.766792        -2.50543        0.774042
LJ         0.0682715        -1.70106          0.8733
LJ         -0.854841        -1.71427         1.77661
LJ         0.0242003          2.5263         1.75717
LJ           0.90704         2.38799        0.904021
LJ           1.71672        -1.80283        0.883049
LJ          0.900374        -1.77594         1.60311
LJ           1.82218        -2.55373         1.72686
LJ           2.55499       -0.777111        0.878028
LJ          -1.74263     -0.00647921        0.906204
LJ          -2.56022       0.0670217          1.7256
LJ          -1.70211       -0.823901         1.76197
LJ         -0.899044       -0.878768        0.767786
LJ         0.0785125      -0.0260752        0.915568
LJ         -0.781302      -0.0343771         1.62739
LJ        -0.0650349        -0.76103         1.68543
LJ           0.87845        -0.89915        0.830664
LJ           1.59718      -0.0480998        0.772336
LJ          0.797212      -0.0457943         1.71318
LJ           1.77535       -0.748052         1.66962
LJ          -2.45545        0.864746         0.88497
LJ          -1.64957          1.6607        0.940242
LJ          -2.55917         1.72067         1.76143
LJ          -1.71107        0.861591         1.71403
LJ         -0.851045        0.842341        0.846635
LJ         0.0263892         1.65167        0.835121
LJ         -0.827329         1.72565         1.69035
LJ        -0.0889381        0.778976         1.67362
LJ          0.818783        0.757272        0.788253
LJ           1.69565         1.59532        0.879374
LJ          0.858525         1.65266         1.76114
LJ           1.79659        0.845002          1.7119
