108
#Comment!
LJ           2.53172        -2.54686         2.50585
LJ          -1.75782        -1.74666         2.50285
LJ          -2.51352        -1.67818        -1.84466
LJ          -1.79546         2.52115        -1.63027
LJ         -0.861287         2.50495        -2.42924
LJ           0.04669        -1.99704        -2.45356
LJ          -1.15599          -1.473          -1.746
LJ        -0.0531793         2.30661        -1.84881
LJ          0.764638         2.53961         2.43971
LJ            1.7579        -1.70983        -2.53843
LJ          0.806779        -1.97438        -1.78408
LJ           1.87742         2.50802        -1.69814
LJ           2.53846       -0.934804        -2.56067
LJ           -1.8194       0.0312263         2.53852
LJ           2.47275         0.17525        -1.96527
LJ          -1.72737       -0.585677        -1.70037
LJ          -1.10529       -0.757473         -2.4262
LJ         -0.051581       -0.245329         -2.4338
LJ         -0.831245       0.0265919        -1.81432
LJ         -0.180097        -1.20288        -1.88731
LJ          0.875138        -1.18564        -2.49455
LJ           1.68465       0.0303552         2.50534
LJ          0.863594       0.0546742        -1.79978
LJ           1.68257       -0.557565        -1.78199
LJ           -2.5535        0.922084         2.47543
LJ           -1.6748         1.92462         2.47015
LJ          -2.37981         1.63844        -1.63415
LJ          -1.64497        0.796349        -1.84495
LJ         -0.607289        0.909094         2.48606
LJ         0.0992975          1.6782          2.3819
LJ          -1.09693         1.64688        -1.77218
LJ         0.0650561         1.05822        -1.72839
LJ          0.923062        0.809819         2.44736
LJ           1.82894         1.90668         2.42871
LJ          0.934716          1.9684        -1.72547
LJ           1.57888        0.934767        -1.65133
LJ            2.5024          2.4558       -0.781934
LJ          -1.42565        -1.71123       -0.777123
LJ          -2.43392        -1.91343       -0.125899
LJ          -1.66612         2.52213      -0.0442629
LJ         -0.828901        -2.55531        -1.09588
LJ           0.10109        -1.69177       -0.792169
LJ         -0.630123        -1.92863     -0.00347911
LJ         -0.123474         2.33199       0.0251165
LJ          0.765613        -2.44766       -0.937254
LJ           1.88748        -1.78465         -1.0145
LJ          0.795201        -1.98039        0.238346
LJ           1.70774        -2.39054       -0.127791
LJ          -2.44617        -0.94359       -0.724698
LJ          -1.88801        0.115741        -0.80461
LJ          -2.50358        0.097249       -0.002492
LJ          -1.79909       -0.907986        0.106036
LJ         -0.545305       -0.763307       -0.676283
LJ         -0.155629         0.31463        -0.94721
LJ         -0.675017       0.0325043       0.0768243
LJ        -0.0624344       -0.806313        0.274251
LJ          0.805199       -0.907358       -0.681923
LJ           1.96073       -0.117479       -0.733671
LJ          0.627628      -0.0145824      -0.0421751
LJ           1.77153        -1.18195        -0.18233
LJ          -2.55609         0.93571       -0.805617
LJ          -1.58819         1.79833       -0.780579
LJ           2.43384         1.69676      -0.0447753
LJ          -1.92534          1.0456        0.271435
LJ          -1.09233        0.775592       -0.845983
LJ           0.13598         1.77284       -0.856935
LJ         -0.716718         1.55143      -0.0679365
LJ          0.146918        0.953315      -0.0571267
LJ          0.846456        0.930699       -0.760457
LJ           1.67814         1.73511        -0.89326
LJ          0.794502         2.04161      -0.0691643
LJ           1.73935        0.847974      -0.0760818
LJ           2.43691          2.3586        0.753106
LJ          -1.41036        -1.77556        0.655456
LJ           2.48281        -1.52918          1.6931
LJ          -2.07293        -2.33742         1.44961
LJ         -0.616806         2.43313         1.11225
LJ         0.0834893        -1.59319         0.92667
LJ          -1.01459         -1.7941         1.80944
LJ         0.0558067        -2.34385         1.76434
LJ          0.845026         2.40289        0.959772
LJ           1.98748        -1.61138        0.783977
LJ           1.01227        -1.74347         1.79103
LJ           1.66438         2.52912         1.64324
LJ           2.50978       -0.680259        0.991493
LJ          -1.75454       0.0961962        0.780905
LJ           2.52239      -0.0268277         1.74724
LJ          -1.86885       -0.750021         1.77762
LJ         -0.685111       -0.931493         1.00111
LJ       -0.00260686       -0.106991         1.11302
LJ         -0.884484         0.15529         1.92309
LJ          0.219052        -1.04296         1.86267
LJ           1.06875         -1.0194        0.703848
LJ           1.57336       -0.121454        0.688763
LJ          0.839935     0.000450622         1.91124
LJ           1.61214         -0.7926         1.85113
LJ           2.34957        0.850372        0.795291
LJ          -1.60155         1.88181        0.857676
LJ           2.49252         1.57787         1.58564
LJ          -1.79189         0.98491         1.62021
LJ         -0.929608        0.717508        0.891935
LJ          0.161915         1.45852        0.805708
LJ         -0.775591         1.48699         1.55028
LJ         0.0678383        0.783835         1.57312
LJ            1.0913        0.739186        0.926373
LJ            1.5714         1.70367        0.518521
LJ          0.845306         1.58621         1.63538
LJ           1.70409        0.860605         1.75689
