108
#Comment!
LJ           2.33639         1.69819       -0.388079
LJ           0.69007        0.769719        0.233831
LJ          -1.67182       -0.536376         1.29787
LJ          0.380336        -1.80758         2.45662
LJ          0.866695        -2.18252         0.65076
LJ          -2.48324        -1.03561        -1.13325
LJ           1.60629        -1.63293         1.04685
LJ         -0.990243        0.355909         1.23813
LJ           1.44041        -1.66398        -1.29704
LJ          -2.49089        -1.40351         -0.1325
LJ           2.37258        -2.52915        -1.00214
LJ           1.27336         -2.4207         1.67331
LJ          -2.17438        0.280799         2.45814
LJ         0.0653594        -2.24102        -1.63273
LJ         -0.609704       -0.292848       -0.588594
LJ         -0.535342         1.60802        -1.62654
LJ           1.43542       -0.614435         1.29788
LJ         0.0465484         1.35623       -0.345347
LJ           1.69717       0.0436972         2.08502
LJ         -0.167678         0.72741         1.50011
LJ          -1.89871         1.74687         1.69089
LJ           0.91127        0.790496         2.21201
LJ            1.6529       -0.166566       -0.988347
LJ           1.64665         2.10737        -1.43872
LJ           1.07481      -0.0622406         -1.9955
LJ         -0.707013         -2.0263        -1.04544
LJ         -0.659582         2.16678        0.425117
LJ           1.35345      -0.0252393        0.020051
LJ           2.39453        0.238815      -0.0356074
LJ          0.933534        0.406513         1.25885
LJ          -1.21402        0.520975        -1.95046
LJ           1.02293        -2.36988        -2.05248
LJ         -0.845407        -1.62281        0.966911
LJ          -1.71481         1.09178        0.838628
LJ           1.79792         1.57502         1.55881
LJ          0.671477       -0.365178       -0.540157
LJ          -2.48136         1.71045        0.765285
LJ          -1.51077        -1.58992        -1.42333
LJ           1.98923         2.35454         2.51633
LJ          -1.78366        -1.42975        0.660901
LJ           2.48955        0.842623         1.62536
LJ         -0.298495        -1.90288       0.0358733
LJ           1.76134        0.952576        0.344491
LJ            2.0808       -0.718044        0.456595
LJ         -0.678513         0.91493        0.298522
LJ           1.15532        -2.33789       -0.660409
LJ           1.50216         -1.1473       -0.414854
LJ          0.887299       -0.903262         0.50047
LJ          0.675094        -1.13954        -1.90972
LJ          0.190154        -1.45804        -0.94923
LJ          -1.94999       -0.508762         0.17613
LJ         -0.620112        -0.60351         1.21917
LJ         -0.903078         1.15605         2.38344
LJ          -1.62732       -0.472628       -0.865187
LJ          0.214321        -2.06836         1.45045
LJ         0.0344643       0.0485944        0.712797
LJ          -2.55777        -2.45739        0.135949
LJ          0.166585        0.910035        -2.03544
LJ           2.47167          1.3982        -2.39498
LJ           1.08902       -0.972832         2.30038
LJ          0.126928       -0.265337        -1.47183
LJ          -1.16818         -2.4882         -2.0973
LJ         -0.177169        -1.00498          2.1912
LJ         -0.212155         2.14725         1.39399
LJ          -0.53584         0.69976       -0.784909
LJ          -1.13913       -0.374283         2.16339
LJ          -1.42605        -1.28684        -2.39524
LJ          -1.40538         2.11825        -1.09656
LJ           0.12316         2.48932       -0.602356
LJ           0.80937         1.49229         1.23271
LJ          -1.28802         2.53508         1.14429
LJ           1.66383         2.02642        0.665595
LJ           1.34389         0.92954        -1.62416
LJ         -0.933844        -1.98188          2.1275
LJ           1.91003        -1.09169        -2.03702
LJ          -1.79348        0.551321       -0.131074
LJ         -0.873369       -0.681151        -1.57255
LJ          -2.43403        -2.12043         1.11413
LJ           1.17153         1.76847       -0.388964
LJ         0.0256635        0.137148         2.38009
LJ           -1.9062       -0.569746        -1.99467
LJ           1.62956        0.874031       -0.677114
LJ          -1.57226         1.58241      -0.0951801
LJ          -2.55285        0.354815       -0.939793
LJ          -1.74324         1.65702        -2.05537
LJ         -0.899548         1.46363          1.2572
LJ           2.03972        0.204048         1.02172
LJ         0.0299112          1.5001         2.08597
LJ         -0.257097       -0.886361        0.274582
LJ         -0.350201        -1.47818        -2.10881
LJ           2.31845         1.28913        -1.38182
LJ           1.09033         1.69057        -2.45388
LJ          0.544073         1.98494        0.361851
LJ          -1.80595        -1.55149          1.7278
LJ         -0.128903         2.54694         2.33653
LJ           2.43578        -1.14136         1.36525
LJ           2.21072       0.0143495        -1.88303
LJ          -1.75262        0.981913        -1.06963
LJ          -1.37164        -2.41988       0.0538802
LJ          -1.15222         2.11578         2.07582
LJ          -2.40963         2.55009        -1.93375
LJ          -2.20673        -2.41872         2.21351
LJ          0.639156         1.81834        -1.40024
LJ           2.00626        -1.62612         2.28053
LJ          0.539209        0.567003       -0.897612
LJ           -1.2531        -1.29607       -0.324411
LJ          0.435534       -0.914565         1.38422
LJ          -2.44864       -0.696538         2.31978
