108
#Comment!
LJ          -2.47127        -2.29017        -2.54763
LJ          -1.67149        -1.54477         2.55892
LJ          -2.44976        -1.52355        -1.73259
LJ          -1.73875        -2.44849        -1.77219
LJ         -0.833623         2.37756        -2.49913
LJ        -0.0694419        -1.51056           2.534
LJ         -0.795956        -1.41079        -1.91392
LJ          0.100968         2.54134        -1.81951
LJ           1.06895        -2.52776         2.56009
LJ            1.5838        -1.55039         2.42631
LJ           1.06378        -1.70926        -1.74117
LJ           1.93414        -2.56265        -1.62919
LJ           2.55393       -0.780834        -2.47119
LJ          -1.93075       -0.057122         2.30308
LJ           2.53172       0.0801499        -1.59742
LJ          -1.62754       -0.576997        -1.61734
LJ          -0.78742       -0.706552         2.49085
LJ          0.108807      -0.0219776        -2.33046
LJ         -0.746303       0.0635951        -1.74227
LJ          0.184331       -0.892219        -1.52607
LJ           0.72947       -0.993715        -2.49638
LJ           1.73541       0.0854315        -2.43901
LJ          0.867331        0.250265        -1.62754
LJ            1.3864       -0.693655        -1.53124
LJ           2.55284        0.910683        -2.34294
LJ          -1.75876          1.9015         2.40078
LJ          -2.43741            1.73        -1.48989
LJ          -1.55023        0.645485        -2.00232
LJ         -0.469068        0.862299          2.5197
LJ         0.0967733         1.87885         2.46296
LJ          -1.18323         1.63386        -1.71891
LJ         -0.215929         1.08586        -1.65553
LJ          0.990051        0.980277        -2.46535
LJ           1.78065         1.93121        -2.52325
LJ          0.933816         1.84558        -1.79057
LJ           1.72028         1.24403        -1.81603
LJ           2.51294         -2.3656       -0.641975
LJ          -1.42283        -1.60807       -0.924775
LJ          -2.31266        -1.64555       0.0818357
LJ          -1.74073         2.44193        0.329487
LJ         -0.708626          2.5486        -1.02084
LJ          0.108923        -1.82666       -0.720625
LJ         -0.812605        -1.84749       0.0609162
LJ      -0.000988036         2.44935       0.0595842
LJ           1.02893        -2.44533       -0.919895
LJ           1.92593        -1.50678        -0.87751
LJ          0.714535        -1.92584         0.22381
LJ           1.66475        -2.50398       0.0207043
LJ          -2.24157       -0.818601       -0.737817
LJ           -1.8456        0.289401       -0.922434
LJ          -2.45135      -0.0090646      0.00361787
LJ          -1.53302       -0.619505       -0.095267
LJ         -0.728515       -0.777208       -0.842762
LJ        0.00625691       0.0244259       -0.793989
LJ         -0.662473      -0.0449838        0.035163
LJ        -0.0623892        -1.08451       0.0948115
LJ          0.906139        -1.11587       -0.647222
LJ           1.92698       -0.300336        -0.56707
LJ          0.868375        0.062873       0.0202365
LJ           1.90914        -1.02917        0.185583
LJ           2.30144        0.831626       -0.699006
LJ          -1.76263         1.65776       -0.650782
LJ           2.36418         1.63053       0.0282458
LJ          -1.80258         1.03363       0.0919952
LJ         -0.871317        0.842928       -0.895272
LJ         0.0495053         1.82853        -0.89613
LJ         -0.833685         1.66529      -0.0985335
LJ          0.182095        0.925978       -0.129578
LJ          0.832869        0.946469       -0.937724
LJ           1.72195         1.74573       -0.851823
LJ          0.867087         1.84034       -0.142409
LJ           1.67789        0.661156       0.0650663
LJ           2.42294         2.43737        0.729589
LJ          -1.51138        -1.80068        0.912777
LJ           2.39792        -1.44741         1.62401
LJ          -1.91533        -2.40036          1.6669
LJ         -0.704565         2.43636        0.980333
LJ          -0.12025        -1.58629         1.06481
LJ         -0.837188        -1.66951         1.81129
LJ       -0.00325525        -2.30064         1.76484
LJ          0.857735          2.4991        0.934054
LJ           1.54943        -1.66653         1.00069
LJ          0.777199        -1.55805         1.68855
LJ           1.58554           2.547         1.58482
LJ          -2.32954       -0.754345        0.955892
LJ          -1.80228        0.192331        0.791663
LJ            2.3298        0.112747          1.6796
LJ          -1.61129        -0.83228         1.62548
LJ         -0.910782       -0.900153        0.877285
LJ          0.125983      -0.0632221        0.894117
LJ          -1.00256      -0.0272999         1.58054
LJ         0.0498381       -0.631763         1.81336
LJ          0.956045       -0.921537         0.50882
LJ           1.70096       -0.207709         0.86616
LJ          0.974962      -0.0434198         1.72833
LJ           1.56631       -0.815677         1.70619
LJ           2.39483        0.941342         1.02745
LJ          -1.92125         1.67681         0.90656
LJ           2.41323         1.95603         1.64895
LJ          -1.67215        0.836372         1.62204
LJ         -0.923429        0.898244        0.923553
LJ          0.265789         1.46686        0.739766
LJ         -0.721078         1.49971         1.69209
LJ          0.149538        0.712275         1.62569
LJ           1.13454        0.691377         1.10519
LJ           1.56844         1.76558        0.839653
LJ           0.79012         1.78226         1.61918
LJ           1.76133        0.867811         1.92151
