108
#Comment!
LJ          -2.43924        -2.28021         2.40355
LJ          -1.68391        -1.57915         2.39984
LJ          -2.24644        -1.55377         -1.6321
LJ          -1.57402        -2.42772         -1.8101
LJ         -0.788302         2.45805         2.52348
LJ         -0.131298        -1.75082         2.56068
LJ          -1.08033        -1.53272        -1.79662
LJ          0.157242         2.36634        -1.89277
LJ           0.95302        -2.53852         2.48436
LJ           1.71181        -1.57765         2.41598
LJ           1.00512        -1.83592        -1.69316
LJ           1.97681         2.38648        -1.83363
LJ          -2.51216       -0.766871         2.53009
LJ          -1.76249      -0.0505915         2.40873
LJ          -2.50116       0.0252062        -1.78041
LJ          -1.68937       -0.650771        -1.62873
LJ          -1.11708         -0.8546         -2.4802
LJ          0.010649       -0.191324        -2.32503
LJ         -0.999558       0.0760733        -1.87108
LJ         0.0420079        -1.11796        -1.69684
LJ          0.886029       -0.882116         2.55212
LJ           1.70148    -0.000707059        -2.43845
LJ          0.879418        0.158945         -1.7829
LJ           1.61328        -0.66006        -1.68653
LJ          -2.46792        0.999781        -2.45984
LJ          -1.69811         2.01429         2.33717
LJ          -2.51735          1.6098        -1.55741
LJ          -1.70041        0.720262        -1.90211
LJ         -0.443058        0.800989         2.43535
LJ          0.162068         1.59512         2.32299
LJ          -1.24024         1.65111        -1.75394
LJ        0.00121772          1.1049        -1.83402
LJ           1.05127         0.93579         2.46415
LJ           1.88104         1.71873        -2.55643
LJ          0.946152         1.75704        -1.92254
LJ           1.60673        0.859776        -1.66725
LJ           2.54676         2.42061       -0.818703
LJ          -1.42714        -1.70477       -0.860255
LJ           -2.2323        -1.75718      -0.0226272
LJ          -1.64996         2.56457        0.133743
LJ         -0.538259        -2.49732        -1.11196
LJ         0.0267839        -1.69366       -0.818833
LJ         -0.775604        -1.94233       0.0155769
LJ        -0.0389342         2.26185       0.0766448
LJ           0.77522        -2.55175       -0.907287
LJ           1.95229        -1.71338       -0.913963
LJ          0.806987        -1.82351        0.377057
LJ           1.76194        -2.49844       0.0312757
LJ          -2.35018       -0.878346       -0.814151
LJ          -1.93088      0.00405714       -0.889612
LJ          -2.44828     0.000557617       0.0719741
LJ          -1.69291       -0.695983        0.065651
LJ         -0.674138       -0.845609        -0.82978
LJ         -0.194658      -0.0747571        -1.07584
LJ         -0.684494       0.0021001      -0.0358248
LJ         0.0394067       -0.820198        0.117872
LJ           1.04401         -1.2686       -0.873696
LJ            1.8462       -0.173625       -0.645739
LJ          0.993478       0.0943349       0.0954883
LJ           1.91714       -0.967914       0.0300262
LJ           2.44734        0.847188       -0.817592
LJ           -1.6065         1.72492       -0.845232
LJ           2.30526         1.60464       0.0855587
LJ          -1.82976         1.02245        0.353169
LJ          -1.11189        0.731318       -0.942168
LJ          0.171449         1.70721       -0.873702
LJ         -0.835894         1.60509       -0.239169
LJ        -0.0455194        0.826671       -0.245164
LJ          0.996818        0.780235       -0.833226
LJ           1.66818         1.64481       -0.750613
LJ          0.888433         1.69985       -0.181834
LJ           1.62235        0.804043      -0.0439587
LJ           2.53392         2.36473        0.681542
LJ          -1.35563        -1.79525        0.840873
LJ           2.56142         -1.5164         1.62108
LJ          -1.96089        -2.31502         1.52177
LJ         -0.791909         2.45679        0.926974
LJ         -0.124844        -1.53275         0.93062
LJ         -0.861056        -1.73604         1.94814
LJ         0.0226935        -2.33849          1.7511
LJ          0.814144         2.45387        0.988537
LJ           1.64697        -1.55701        0.852712
LJ          0.856248        -1.65816         1.77695
LJ           1.79605        -2.45707         1.60565
LJ          -2.49927       -0.900252        0.750282
LJ          -1.48723      -0.0450501        0.773402
LJ           2.51858      -0.0663395         1.66595
LJ          -1.72269       -0.751362         1.64418
LJ         -0.890822       -0.885861         1.11522
LJ          0.183121       -0.127242        0.966654
LJ         -0.921014       0.0263252          1.7826
LJ            0.2019       -0.805667         1.75134
LJ          0.846422       -0.870444        0.653364
LJ           1.72625       -0.276961        0.742097
LJ          0.690023       0.0195722         1.82624
LJ           1.59461       -0.807361         1.69243
LJ           2.25924        0.904062        0.940685
LJ          -1.76023         1.80096        0.922903
LJ           2.50397         1.82972         1.70638
LJ          -1.93616        0.858608         1.44666
LJ         -0.872147        0.878427        0.625774
LJ          0.397241         1.55304        0.785879
LJ         -0.908415         1.37071         1.64543
LJ         0.0740391        0.950521         1.48614
LJ           1.13961        0.639357         1.03481
LJ           1.51487         1.63025        0.600771
LJ            1.1136         1.73943         1.75912
LJ             1.787         1.04335         1.86097
