108
#Comment!
LJ           1.80259        -1.12622         1.39025
LJ         -0.662566        -1.43076        -0.96619
LJ          0.284869       -0.943349         -1.4185
LJ          -1.88226         2.03556       -0.864128
LJ          0.939869       -0.149446         1.93565
LJ            1.5756         0.66072       -0.220367
LJ          0.737335        0.565884        -2.38543
LJ          -1.04801        -2.08088        -1.88338
LJ           -1.9313         -1.3179         2.20685
LJ           1.35738        -2.31274       -0.303355
LJ           1.81099         1.33852         1.82778
LJ          -1.86822         2.27278        0.522217
LJ           1.26053       -0.292289        0.831067
LJ         -0.515763       -0.385432         1.91102
LJ          -1.90349        -2.56024         2.26899
LJ         -0.966354         1.51016       -0.544303
LJ         -0.715144       -0.295648       -0.245613
LJ          -1.88076        0.445294        -1.83119
LJ          -2.49843        -2.11667        0.974843
LJ            2.1961        -2.41519         2.14361
LJ           2.19181        0.625899          -2.375
LJ          -1.48401        0.741733        0.299494
LJ           -2.4599         1.79901         1.36709
LJ           2.04553       -0.543721        0.263054
LJ           1.27199          1.7173        0.831346
LJ           1.66034       -0.055443        -1.89851
LJ          -1.79665        -1.08647        -1.93893
LJ         0.0412782        -2.26304        -1.50265
LJ         -0.350897        0.438982       -0.996951
LJ          0.741952         2.27407        -1.36027
LJ         0.0711293         1.35671        -1.88326
LJ         -0.415019        0.692519      -0.0292301
LJ          -1.07628        0.688546         1.93247
LJ          -1.21423        -2.51996       -0.266423
LJ         -0.848269         2.43116         1.36631
LJ          0.671366         1.02904         0.39732
LJ          -2.07969       -0.751806       -0.581186
LJ          -2.06855        -1.19616        0.415032
LJ         -0.418432         1.55297         2.23735
LJ          0.434881       0.0221105       -0.264699
LJ          0.365578         1.24281         1.48928
LJ          -1.63404          1.5104        -2.12803
LJ          0.453554        -1.96833         1.33833
LJ          -1.95608        0.971045         1.19806
LJ           2.51141       -0.476706        -1.52758
LJ           1.56545         1.46791        -2.06083
LJ           2.20548         1.97905        0.350017
LJ          -1.31083       -0.807998          1.6258
LJ          -1.64066        0.420306       -0.797536
LJ           1.56704       -0.243173       -0.635273
LJ           0.43595        -1.95786       -0.324629
LJ          0.268123         1.28368       -0.914579
LJ          0.932585        -1.71578        -1.29468
LJ           -1.8426       0.0141122         1.49153
LJ            2.1728         1.84895       -0.913263
LJ          0.490276          2.4589        0.543317
LJ           1.88142       -0.540989         2.35796
LJ         -0.758369      -0.0213495         0.92829
LJ           2.53099        0.163555       -0.606903
LJ           2.50695         1.13742        -1.54383
LJ         -0.277509        -1.51916         2.01324
LJ          -2.38498         2.38972         -1.6471
LJ           -0.4901        -2.30618        0.435241
LJ            1.2941        0.686445         1.16468
LJ           2.16891        -1.56914        0.319335
LJ         -0.570991         1.10762         1.18934
LJ          -1.64807       -0.310203        0.358639
LJ           1.22246         2.48769         2.02354
LJ         -0.908242         2.07756         -1.5162
LJ           2.00802        -1.24594       -0.779368
LJ          -1.14599        -2.00374          2.1943
LJ          0.960717        -1.20464         1.89267
LJ          0.569243        -1.96758        -2.47333
LJ         -0.172778         1.61631        0.385172
LJ          -2.47492        -2.45939       -0.262424
LJ           2.25555        0.865844        0.520464
LJ           -2.3418       -0.881089         1.38344
LJ          0.598571        0.202484        -1.43552
LJ          -1.27814       -0.445071         -1.4186
LJ        0.00236604         2.21199       -0.450524
LJ       -0.00831832        0.567777         2.01658
LJ          -2.06111         0.78148         2.30555
LJ          0.708071         1.68335         2.53411
LJ           1.23579         1.74548       -0.278444
LJ           1.95588        -2.19316        -1.17637
LJ          -1.47264         1.56311         1.90451
LJ          0.189489        0.185462         0.87651
LJ          -1.02097         -1.5512      -0.0338962
LJ          -1.25405        -1.81996        0.917888
LJ           2.47216         1.74966        -2.48042
LJ           1.53828        -2.22111        0.988899
LJ        -0.0590375      -0.0366762        -2.26881
LJ         0.0938299       -0.980475       -0.096923
LJ           2.31034        0.448181          1.6526
LJ         -0.321523          2.4077        -2.36285
LJ           1.46291        -2.55228        -2.09189
LJ          -1.74706        -1.74016       -0.949746
LJ          -2.26374       -0.281089        -2.46539
LJ           1.40451         1.00944        -1.15306
LJ         -0.873445        0.682491        -2.05745
LJ         -0.672022       -0.932605        -2.21064
LJ         0.0733169         2.38183         1.86894
LJ           0.28332       -0.820752          1.1081
LJ           1.85887        -1.60793        -2.24893
LJ           1.02273        -1.18167        0.414008
LJ           -2.0876         1.46706      -0.0224115
LJ          -1.25732       -0.177835         2.55225
LJ           1.38089       -0.922595        -1.58586
