108
#Comment!
LJ           1.81238       -0.352471        -0.76773
LJ          -2.25641       -0.607655        -1.14247
LJ          0.357265         2.18329         2.11208
LJ         -0.342849        -2.22505         2.35108
LJ         -0.625019        0.971669        -1.76569
LJ           2.34879       -0.106527        -1.83894
LJ          -1.75635        -1.56452         2.53995
LJ           1.88164        0.556711        0.117311
LJ           1.47028         1.53975        -1.97034
LJ           1.54163        -2.32336      -0.0621227
LJ          -1.16327         2.21047        0.345685
LJ         -0.783442        -1.12549         2.36445
LJ           2.28855        -2.14967        -1.48857
LJ          0.106698     -0.00970461        0.739087
LJ          0.814589         1.88157     -0.00895176
LJ           2.42612         2.25343        -2.23012
LJ           1.35283        -1.42141        -1.99954
LJ          0.294175        -1.21869        0.467322
LJ         -0.970996         2.11232       -0.762716
LJ          -1.29041         1.95833         1.42187
LJ          -1.22306        0.578009         1.06687
LJ         -0.417376         1.29398         1.35241
LJ          0.846324       -0.477912        -1.25375
LJ          0.875207        -2.33845       -0.855819
LJ           2.39214        -1.22389        -1.98641
LJ          0.692385         2.24212         1.08693
LJ          -2.19557         2.41761        0.715425
LJ           1.04153        -2.12659         2.22699
LJ           2.05706        -2.29167           1.555
LJ           2.51623         1.84682      -0.0535238
LJ          -2.41525        0.979251         1.43299
LJ           1.83225        0.889178         2.06274
LJ           2.46096          1.9224         1.65583
LJ          -1.42053        -2.23457        -1.87895
LJ      -3.25042e-05       -0.886195       -0.698386
LJ          0.552376         1.18483          1.7431
LJ          -1.58983         2.20984         2.43492
LJ         -0.312304         2.01712        -1.59068
LJ          0.927189       -0.368215        0.159014
LJ           2.35331         1.50544        -1.57542
LJ          -1.54629        0.345406        -1.58168
LJ          0.369609        0.591835        -1.80422
LJ           1.68164        0.994876       -0.854153
LJ         -0.934208       -0.103952        -2.51974
LJ           2.46717       -0.223404         1.26152
LJ         -0.417504       -0.118115        -1.40478
LJ           2.31834        -1.70375         2.29881
LJ           1.43823        -2.55684        -1.92875
LJ        -0.0164414        0.308469        -0.52622
LJ         -0.496982       -0.837517         1.10384
LJ         -0.951443        -1.09799        -1.69956
LJ         -0.313033        0.747727         2.31065
LJ           1.14449        -1.86009        0.871771
LJ         -0.527148       -0.534098       0.0873665
LJ          -2.41712        0.321111       -0.508272
LJ           1.31702         1.85613         2.00218
LJ           1.62436          1.7169        0.876735
LJ          -2.25218        -1.06061       -0.304786
LJ          -1.30521       -0.787909       -0.696279
LJ           1.60009       -0.685567         -2.5426
LJ            1.0095        0.311668         2.30132
LJ          -1.26363         1.13677          2.0996
LJ           1.40733        0.484846        -1.77122
LJ         -0.569139         1.80489         2.46363
LJ          -2.00699         -2.3821         1.67285
LJ           -1.9229         1.18791       -0.936143
LJ          0.103244      -0.0786941        -2.52484
LJ           1.89687        -1.38465       -0.829204
LJ          0.736367         1.82665        -1.29843
LJ          0.368411         1.44008        -2.33499
LJ          -1.08597         1.24865      -0.0838776
LJ          -1.76258       -0.768617        0.658399
LJ           2.53994        -2.13513       -0.205674
LJ        -0.0926926         1.45743       -0.729911
LJ           2.26986        -1.64215        0.628373
LJ         0.0472974        -1.07104        -2.01202
LJ          0.234734        -1.67456         1.51993
LJ          -2.21763        -1.24654         1.49206
LJ          -1.98195        0.500656         2.35971
LJ          0.430807        -2.15868       0.0516354
LJ          -2.47586       -0.593126         2.31433
LJ          -2.08607        0.345505        0.665621
LJ          -1.97272        -1.55407        -1.35646
LJ          -0.36281        0.834094        0.473291
LJ         -0.348403        -1.94565       -0.854515
LJ          0.434208        -2.00712        -1.88421
LJ         -0.410436         2.51514         1.24817
LJ          0.803397       -0.731078         1.15654
LJ           2.10406       -0.576126        0.248247
LJ           1.74998          2.0077       -0.826995
LJ            -1.409       -0.561883         1.68349
LJ          -1.00498        0.170258       -0.612889
LJ          -1.15652        -1.95585         1.68915
LJ           1.18182         -1.3845       -0.127119
LJ          -2.21233         2.24438       -0.995296
LJ           1.09938        0.462633         1.26256
LJ         -0.069915          2.1129        0.317879
LJ          0.594105       -0.950967         2.20462
LJ         -0.551155      -0.0181765         1.63986
LJ           -1.8003       -0.469109        -2.06956
LJ          0.798911        0.811571         0.23717
LJ          -1.78944        -1.74308        0.376842
LJ          -1.77386         1.39484        0.677291
LJ          -1.53777        -2.11151       -0.576525
LJ          -2.25556         1.41612          2.4918
LJ         -0.554788        -1.94252        0.128424
LJ          -1.41383         1.64531         -1.7572
LJ           1.72177        -1.17641         1.40999
