108
#Comment!
LJ          -2.53734         -2.3139         2.30986
LJ          -1.77484         -1.5871         2.50812
LJ          -2.26301        -1.55944        -1.64496
LJ          -1.78539        -2.54613        -1.60529
LJ           -0.6673         2.38899          2.5471
LJ         0.0738604        -1.82031        -2.48291
LJ          -1.18106         -1.5119        -1.75633
LJ        -0.0147567         2.19518        -1.85542
LJ          0.794452        -2.54243         2.51464
LJ           1.79879        -1.57552          2.4498
LJ          0.844855        -1.93593        -1.66704
LJ           1.95656         2.38975        -1.83595
LJ           2.50296       -0.885749         2.43559
LJ          -1.76013        0.088867         2.51093
LJ           2.38368        0.135141        -1.75241
LJ          -1.86252       -0.527854        -1.65459
LJ          -1.01728       -0.794493        -2.40698
LJ        -0.0234908         -0.2606        -2.40295
LJ          -1.03889       0.0534067         -1.7697
LJ        -0.0529545        -1.09555        -1.71082
LJ          0.792621        -1.02632        -2.53111
LJ           1.67602       0.0307224         2.52287
LJ          0.952145        0.110743        -1.75805
LJ           1.63003       -0.758479         -1.7048
LJ          -2.49277         0.86869        -2.48388
LJ          -1.69095         1.91636          2.3855
LJ          -2.44731         1.61204        -1.60313
LJ          -1.73259        0.893741        -1.77286
LJ         -0.528057         1.01184        -2.52903
LJ          0.142344         1.68056         2.39846
LJ          -1.08055           1.654        -1.80838
LJ          0.184349          1.0833         -1.8146
LJ          0.842588        0.901332        -2.54167
LJ           1.73595         1.78742          2.3964
LJ          0.951114         1.89101        -1.90131
LJ           1.72668         1.16158        -1.71177
LJ           2.49081         2.34181       -0.753978
LJ          -1.54495        -1.71468       -0.755619
LJ          -2.37552        -1.77777      -0.0892207
LJ          -1.71529         2.40304       0.0684772
LJ         -0.673014        -2.52683        -1.09625
LJ         0.0865471        -1.62822       -0.799217
LJ          -0.77947        -2.06539       -0.181683
LJ         -0.160497         2.34678        0.157945
LJ          0.897083        -2.51261       -0.934251
LJ           1.89508        -1.71281        -1.05796
LJ          0.827646        -1.84954        0.349677
LJ            1.6831        -2.51349       -0.158486
LJ          -2.37388       -0.983618        -0.75273
LJ          -1.91458       0.0600971       -0.676068
LJ          -2.49398        0.207653        0.106728
LJ          -1.65613       -0.680934        0.149073
LJ         -0.689635       -0.884395       -0.790628
LJ         -0.151293        0.111786        -1.04957
LJ         -0.654465       0.0772863       -0.112968
LJ        -0.0318896         -0.6479       0.0655547
LJ           1.04029        -1.14254       -0.806542
LJ           1.90235       -0.210762       -0.534825
LJ          0.808721       0.0919953        0.129261
LJ            1.9852        -1.03084      -0.0979582
LJ           2.50967        0.912232       -0.764333
LJ          -1.56139         1.78893       -0.851913
LJ            2.3664         1.67883      -0.0247521
LJ          -1.81018         1.04871        0.277179
LJ          -1.03981        0.695912       -0.921127
LJ          0.125715         1.69897       -0.886284
LJ         -0.793375         1.60747       -0.219171
LJ        -0.0615237        0.903732       -0.143855
LJ          0.966965        0.837428        -0.78318
LJ           1.62954         1.71853       -0.748182
LJ           0.78667         1.90418      -0.0960023
LJ           1.78237          0.7475      -0.0715298
LJ            2.3951         2.35179        0.630916
LJ          -1.28048        -1.83096         0.79643
LJ           2.52825        -1.44909          1.5188
LJ          -1.91282        -2.36262         1.42826
LJ         -0.767216          2.5167         0.93748
LJ         0.0795054        -1.46318        0.954641
LJ          -0.85351        -1.88938         1.91233
LJ         0.0763944        -2.42691         1.77041
LJ          0.645616         2.41522         1.06161
LJ           1.73983        -1.65487        0.952829
LJ          0.936089        -1.73897         1.75219
LJ           1.73528        -2.50444         1.68035
LJ           -2.4645       -0.705996        0.755185
LJ          -1.50832       0.0235304        0.807233
LJ           2.48186        0.075638         1.68963
LJ          -1.74923       -0.723421         1.74932
LJ         -0.838907       -0.992602         1.05015
LJ           0.16517        -0.27064        0.976945
LJ         -0.911323        0.211297         1.92607
LJ          0.179548       -0.950929         1.80264
LJ            0.9403       -0.845633        0.841676
LJ           1.75823       -0.130849         0.69325
LJ          0.637579    -0.000755776         1.97897
LJ           1.48821       -0.792594         1.73317
LJ           2.27343        0.882341        0.821657
LJ          -1.64069         1.89887         1.00835
LJ           2.45009         1.67809         1.55393
LJ          -1.86337        0.852793         1.50419
LJ         -0.797791        0.820216        0.644486
LJ          0.265197         1.41705        0.817301
LJ         -0.907255         1.37957         1.58845
LJ         0.0157378        0.908946         1.69268
LJ           1.17151        0.661875        0.971904
LJ            1.4942         1.76392        0.594735
LJ          0.995439          1.5471         1.65674
LJ           1.71015        0.870406         1.87771
