108
#Comment!
LJ           2.51452          2.5156        -2.53132
LJ          -1.69294        -1.80994         2.50311
LJ           2.53865        -1.80425        -1.74537
LJ          -1.83333        -2.55138         -1.7005
LJ         -0.940592         2.41246         2.45609
LJ         -0.145221        -1.79832        -2.53359
LJ         -0.834084        -1.68476        -1.59979
LJ        -0.0267591        -2.51721         -1.5264
LJ          0.928641         2.52809         2.38995
LJ           1.67834        -1.77415        -2.41134
LJ          0.926003        -1.57489        -1.58658
LJ           1.78844        -2.49899        -1.71372
LJ           2.40035       -0.837367         2.43717
LJ          -1.58795     -0.00997472         2.43031
LJ           2.48569      -0.0042279        -1.71832
LJ          -1.62754       -0.909107        -1.69667
LJ         -0.958444       -0.937173         2.53905
LJ         0.0942207       -0.147277         2.54988
LJ         -0.869741        0.124419        -1.69494
LJ        -0.0135526       -0.934056        -1.65929
LJ          0.764173        -1.03481        -2.54678
LJ           1.77783       0.0915641        -2.56214
LJ          0.736916       0.0997721        -1.71876
LJ           1.63951       -0.860602        -1.61289
LJ           2.53264        0.857094         2.55245
LJ          -1.74635         1.71541        -2.51676
LJ          -2.47399         1.58798        -1.74074
LJ          -1.80051        0.831863        -1.65538
LJ         -0.803992        0.968889          2.3325
LJ         0.0855357         1.63053         2.44342
LJ         -0.864665         1.74101        -1.67418
LJ        -0.0177386         0.86332        -1.78379
LJ          0.812133        0.900442        -2.45197
LJ            1.8099         1.74122         2.54041
LJ           1.08753         1.74348        -1.74143
LJ           1.63007        0.792621         -1.6433
LJ          -2.48175        -2.53731        -0.85642
LJ          -1.58941        -1.71872       -0.830423
LJ          -2.56314        -1.79891      -0.0561011
LJ          -1.63062         2.54739       0.0387076
LJ         -0.781867          2.5268       -0.876187
LJ       -0.00667695        -1.63196       -0.865306
LJ         -0.878759        -1.66789      -0.0313409
LJ         -0.114895          2.4481      0.00531685
LJ          0.941848         2.46509       -0.782787
LJ           1.67763        -1.81293       -0.784437
LJ          0.696222        -1.88977         0.11295
LJ           1.65381        -2.51526      -0.0318137
LJ          -2.54918       -0.800828       -0.772728
LJ          -1.82677        0.100441       -0.923407
LJ           2.47977      0.00290423       -0.029122
LJ          -1.73962       -0.887031      -0.0288343
LJ         -0.869794       -0.704531       -0.792079
LJ         0.0215407       -0.169295       -0.840318
LJ         -0.906146      -0.0992573       0.0135006
LJ         0.0124236       -0.714467       0.0984387
LJ          0.893184       -0.830326       -0.819776
LJ           1.67468      -0.0644732       -0.899504
LJ          0.961355       0.0128084      -0.0972872
LJ           1.65695        -0.92924       -0.172737
LJ          -2.55007        0.950306       -0.868213
LJ          -1.79734         1.73074       -0.920963
LJ           2.50646         1.68792       0.0295699
LJ          -1.62554        0.854129        0.147787
LJ         -0.823269        0.761766       -0.623418
LJ         -0.115616         1.75658        -0.96248
LJ         -0.918655         1.71993      -0.0945327
LJ        -0.0305867        0.913101       0.0932788
LJ          0.757675        0.960836       -0.812058
LJ           1.76349         1.85788       -0.817013
LJ          0.671596         1.72666       -0.165174
LJ           1.72048        0.782498        0.023195
LJ           2.54571         2.54568        0.926247
LJ          -1.63928         -1.8112         1.01135
LJ           2.44456         -1.6434         1.77118
LJ          -1.78165        -2.54029         1.73212
LJ         -0.888097         2.44087        0.800783
LJ          0.102718        -1.76317        0.926109
LJ         -0.828773        -1.71279         1.83444
LJ         0.0516058        -2.55976         1.67492
LJ           1.02427         2.48479        0.903335
LJ            1.7341        -1.85956         0.77396
LJ          0.993045        -1.73554         1.55396
LJ           1.74134         2.55166         1.73779
LJ           2.44873       -0.739604        0.930293
LJ          -1.72394      -0.0150253         0.76706
LJ          -2.51473      -0.0827892         1.87299
LJ          -1.75796       -0.951549         1.83622
LJ         -0.820727        -0.90552        0.780688
LJ          0.102993      -0.0334131        0.893341
LJ         -0.726805       0.0398741         1.63952
LJ       -0.00325037       -0.914202         1.63178
LJ          0.787131        -0.83005        0.843051
LJ           1.62158       -0.121387        0.832532
LJ          0.852613       -0.106912         1.74119
LJ           1.74112       -0.821177         1.71606
LJ           2.54472        0.867109          0.7564
LJ          -1.68964         1.71252        0.851876
LJ          -2.52262         1.64657         1.75391
LJ          -1.64782        0.766881         1.77804
LJ         -0.829056        0.734273        0.786456
LJ        -0.0135825         1.54274        0.898766
LJ         -0.851607         1.73668         1.64453
LJ         0.0277631        0.805561         1.57623
LJ          0.850285        0.698033        0.778332
LJ           1.71438           1.668        0.774282
LJ          0.853588         1.53673         1.63767
LJ           1.68899        0.987147         1.62464
