108
#Comment!
LJ          0.127117        0.731494        0.340878
LJ          -1.72656          2.1335        -1.72705
LJ         -0.565701        0.565768         2.54788
LJ         -0.718005        -2.08498       -0.194765
LJ         -0.423043        -1.59382         1.00569
LJ          -1.04113         1.60297           2.564
LJ            -0.818       -0.659986        0.728934
LJ          0.224351       -0.646877        0.957157
LJ         -0.644507         2.10096        0.240407
LJ          0.953898       -0.343108         1.61638
LJ           2.08562        0.931873       -0.526542
LJ          -2.20302        -2.19175         1.52412
LJ          -2.06598        -1.12052         1.17452
LJ           1.95341        0.165752        0.108422
LJ          -1.94328       -0.759221       -0.967675
LJ           2.35027        -1.73197       -0.734095
LJ         -0.560991        -1.25826         1.98624
LJ            1.0296       -0.195377        -1.40602
LJ           2.49068      -0.0831334        -2.33807
LJ         -0.308064         1.20839        -1.94685
LJ          -1.70446        0.610648        -2.53576
LJ          -2.46461          1.5927        -1.13058
LJ          -2.12603         1.08576        0.412547
LJ           2.40745        -2.47202        -1.29652
LJ          0.217781       0.0607198        -1.94138
LJ          -1.29255        -2.25779        -1.21841
LJ         0.0287156        -0.66022        -1.01723
LJ          0.771968        -0.22355        0.132045
LJ           1.18919         1.43403        0.078286
LJ        -0.0580407        -1.73702        -2.39421
LJ          -1.15107         -1.5712        -1.97224
LJ          -1.22083        0.998707        -1.61437
LJ           1.04801        -1.78608        0.104096
LJ          -2.15568        0.376641       -0.442101
LJ          -1.83948         1.93805         1.73279
LJ          -1.72993        -2.40107          0.6463
LJ          -1.08575      -0.0326062         1.70926
LJ          -1.27116        -2.43047        -2.49924
LJ           2.06442       -0.206113       -0.916639
LJ          0.157489        0.376572         1.46775
LJ          -2.10655        0.229196        -1.57658
LJ         -0.863622         1.79398        -1.17245
LJ         -0.177506         1.43958         1.83164
LJ          0.102635        -1.24275      -0.0484688
LJ        -0.0110327       -0.460493         2.37059
LJ           1.31629        -2.30247        -1.05003
LJ          0.956105        -1.26044         2.36485
LJ          -1.17704       -0.666532       -0.390198
LJ           2.41374        -1.90027        0.332058
LJ          0.728114        -1.11121         -1.8065
LJ           1.21409      -0.0925247          -2.546
LJ           1.52301       -0.940757        0.869673
LJ           -2.3668       -0.547072        0.055257
LJ         -0.849665         1.01242       0.0858279
LJ          -1.55815          1.5798       -0.451497
LJ           2.48942         1.93078        0.613623
LJ          0.845549         1.61517        -2.40243
LJ        -0.0757836        0.695409       -0.863573
LJ            1.7031        0.707522         1.98594
LJ          0.843769        0.824434        -1.74574
LJ          -1.62769        -1.72746       -0.334892
LJ           1.92924           1.027        0.928015
LJ          0.784931         -2.5095        -2.13816
LJ          -1.43257         1.57244        0.832594
LJ          -1.76908       -0.654296        -1.93479
LJ           1.77113        -1.87053        -2.01772
LJ          -2.28268        -2.25549        -2.43734
LJ          -2.39813         1.59149        -2.48905
LJ           1.49257         2.51503         2.18998
LJ          0.854153         2.36155       -0.313344
LJ           1.80655         2.22703        -1.96885
LJ         -0.517279        -2.40366        -1.77937
LJ           0.35081        -2.10434        -1.16734
LJ          -1.56385         -1.1933         2.08024
LJ          0.959278       -0.956512       -0.652889
LJ         -0.142242         2.24037        -2.50315
LJ          -2.29572         2.46318       -0.341491
LJ          0.523411        -1.65752         1.05445
LJ          0.963791         1.65837         1.59442
LJ         -0.532789         2.50506         1.50483
LJ          -2.16055       -0.433547         2.01334
LJ           1.12348         0.52728       -0.446364
LJ           2.09096        -1.27666         1.97963
LJ           -2.4794      -0.0955353        0.986013
LJ            2.1118        0.948501        -1.83076
LJ           0.42373         1.78529        0.744992
LJ           1.07435        0.611313          1.0738
LJ           2.11031         1.69843         1.87541
LJ           2.00971       -0.211693         1.71975
LJ          -0.22719       -0.147452       -0.258453
LJ          -1.15611        0.275622        -0.95585
LJ          0.561576        -2.38336         1.88433
LJ           1.82486         2.50723      -0.0515673
LJ          0.119789        -2.30122        0.439709
LJ          0.337969         1.96588        -1.37184
LJ          -1.57421        0.114771        0.601946
LJ         -0.766826       -0.547942        -1.76352
LJ           1.87037       -0.870209        -1.62313
LJ           1.38352         2.27532        0.899692
LJ          0.611039        0.653316         2.32894
LJ           1.76875         -1.9037         1.24971
LJ          -2.42339        0.868387         1.64366
LJ          0.144452         1.50223       -0.318848
LJ         -0.760836        -1.38514        -1.01131
LJ         -0.763815        0.863168         1.31608
LJ          -2.42312        -1.33874         -2.2019
LJ           1.80189       -0.901052       -0.146964
LJ           1.43783         1.78611        -1.17304
