108
#Comment!
LJ          0.447884        -1.91156        -1.14812
LJ            2.3719       -0.749273        0.471485
LJ          -0.20603         1.68721        0.228592
LJ          -1.40005        -1.81947         1.97018
LJ          -2.29722        -0.52378         1.67154
LJ          0.580275        -1.94278         1.82718
LJ         -0.523086        0.210654      -0.0461256
LJ          0.249615        -1.32322        -2.38429
LJ         -0.203155        0.177851        -1.10892
LJ           0.50957         2.51571         2.55109
LJ         0.0861671        -2.27803        0.347027
LJ         -0.327925        -1.07755         1.68631
LJ          -1.08998        -2.49236      -0.0419463
LJ          -1.73525        0.869372          1.9842
LJ           1.52627       -0.357416         2.09585
LJ           1.27721        -1.45418         -1.2447
LJ            1.8224         1.60039       -0.215438
LJ          0.828403        0.582668        -1.04641
LJ          -1.03473         2.31063         2.20116
LJ          0.873995         1.55276        -2.48294
LJ           1.21529        -1.36995         2.45218
LJ          0.473711         2.08125        -1.56316
LJ          0.393326       -0.367598         -2.4819
LJ           1.76678      -0.0550975         1.12657
LJ           1.97814        -2.23182        -1.62231
LJ           1.86329         2.19281         1.17713
LJ           1.36598         2.53725         2.02406
LJ         -0.652636        0.745575        -2.30352
LJ         -0.224358         1.63967         2.48151
LJ            1.6578        -1.09806       -0.141997
LJ          -1.24818        0.593777         1.12558
LJ          -1.05115        -2.30085        0.986445
LJ          0.972328         2.46889       -0.644114
LJ          -1.73353         1.29841       -0.995636
LJ          -2.32273        -1.40448       -0.225145
LJ          -2.49591         1.32558         1.57964
LJ          -0.33216         -2.1152         2.09068
LJ          -2.54553       -0.195941        -2.52397
LJ         -0.148333         2.48102       -0.612447
LJ        -0.0261673         0.72962        0.709162
LJ         -0.408926        -1.62422        -0.35529
LJ          -1.23542       -0.468696          1.3506
LJ          -1.02115        -2.28709        -1.32943
LJ          -2.28846         2.33524         1.59408
LJ             1.089        -1.70549        0.804135
LJ           1.93537        -1.97922       -0.495132
LJ          -1.83069        -1.28504        -2.23711
LJ          0.751636          2.4961         1.13599
LJ          -2.05706        -2.21406        0.430036
LJ         -0.383721        0.195646          1.9407
LJ          -2.32845        0.340455         1.10247
LJ           2.18841        -1.66841        0.658157
LJ          0.475349        0.641184         2.28847
LJ          -1.47078          1.8211         1.27559
LJ          0.981341         1.56144         0.61295
LJ         -0.736858       -0.313317        -1.92642
LJ          -1.86806         1.77836          2.5024
LJ         -0.558901         1.94712        -1.64075
LJ         -0.783141        -1.24172        -2.35817
LJ          -1.87493        -0.25402       -0.612636
LJ           2.48487         -1.7756         1.72844
LJ          -2.05084        -1.32543         1.07668
LJ          0.263145         1.31183          1.5419
LJ           1.16105       -0.282138       -0.596475
LJ          -1.43177        0.621524        0.044733
LJ         -0.441966        -1.07266        -1.25654
LJ         -0.216382        -1.33812        0.666958
LJ           1.12338        0.682808        -2.06834
LJ          -1.34228       -0.988899        0.232722
LJ             2.142         1.13382        -1.13045
LJ           2.47125        0.848578         -2.5501
LJ           1.82943        -1.07518         1.38438
LJ           -2.5142        0.893127       0.0508447
LJ           1.54238        -2.55278         0.33198
LJ           0.21451          1.0343        -1.85053
LJ          -2.55374         1.90881        0.555273
LJ          0.550552       -0.688276        -1.31765
LJ           1.88347        0.115319        0.093716
LJ          -1.81162       -0.249515        -1.72872
LJ          -1.94436       -0.222363        0.420058
LJ           2.29271       -0.320017       -0.769876
LJ         -0.355336       -0.305127        0.944629
LJ          -2.54904         2.17986       -0.708096
LJ           1.85661       0.0373135        -1.69343
LJ         -0.235576         1.21204        -0.68768
LJ         -0.197072        -2.11715        -1.97202
LJ            2.2999        -1.11714        -1.41068
LJ          0.664696       -0.794575         1.47115
LJ          -1.56758        -2.46057        -2.07901
LJ          -1.28284         0.37904        -1.02992
LJ          0.716351       -0.682025        0.324017
LJ          -2.12206        -1.93805        -1.45739
LJ          -2.55292        -2.25581         -2.5279
LJ           1.89821         1.19704        0.705471
LJ           2.32999        -1.17001        -2.42041
LJ          0.969455        0.628041         1.20266
LJ           1.58148         1.78101        -1.65549
LJ          0.857489        0.510834       0.0359595
LJ          0.574218        -1.38292       -0.318766
LJ          -1.73466        0.675503        -1.92868
LJ         -0.213115         2.20346         1.40431
LJ          -1.65452         1.72815         0.22873
LJ          0.738381         1.55218       -0.461573
LJ           1.51632        0.820631         2.08635
LJ          -1.38295       -0.329254         2.40496
LJ           2.05048         1.82993        -2.53704
LJ          -2.37855           1.945        -1.75421
LJ          -1.60512        -1.05181         -1.1926
