108
#Comment!
LJ           1.18619         -1.5918           0.934
LJ           1.42643       -0.745291         1.64358
LJ         -0.908392         1.08782        -2.07594
LJ          -1.30348       -0.824373        -1.36213
LJ         -0.250347        0.269418         1.52576
LJ           1.15741         2.31272        0.212544
LJ           1.03428        0.387329         -1.0991
LJ           1.65774       -0.690456        0.371975
LJ          0.688897        0.424837          2.0705
LJ          -2.00556         1.39597       -0.363473
LJ           1.51992        -1.86872      -0.0480516
LJ         0.0903685       -0.422365         2.24146
LJ          -1.47563        -2.01649        0.194877
LJ         -0.281688         1.19749         2.09468
LJ           2.18572       -0.234788         1.16271
LJ          -1.23875       -0.699756        0.344679
LJ         -0.807489        -1.87052         1.44239
LJ           2.10544         1.65683       0.0410448
LJ          0.593196        -2.45949         2.20095
LJ           2.07436       -0.966567       -0.539218
LJ          0.353597         2.42779        -1.93441
LJ         -0.836806          2.4168        -1.80645
LJ         -0.364114        0.739491       -0.894736
LJ            -2.007         1.34734         1.84398
LJ       -0.00209283        -1.05392        -1.13735
LJ          -1.89312         2.47084         1.24601
LJ           2.31968        -1.24568         1.16494
LJ         -0.462858       -0.548432         -2.0447
LJ          0.814321         1.71382         1.60191
LJ          -1.44965       -0.515242         -2.2622
LJ           1.35231         2.34995        -1.48886
LJ          -1.04262        -1.66476        -1.99687
LJ           2.15005        -1.47563        -1.52014
LJ          -1.29118         2.26744       -0.549977
LJ          -2.40315        -1.60126        0.192093
LJ          -1.05775         1.62872        0.540335
LJ           1.23982         1.40583        0.630903
LJ          -2.01598      -0.0562412         1.95904
LJ           1.36666       -0.762971        -1.16468
LJ          0.244479       -0.234416       -0.213321
LJ          0.860694        -1.75933        -1.34226
LJ          -2.46273       -0.577035        0.271939
LJ         -0.936359      -0.0403766       -0.577823
LJ          -1.80126        -2.16926          2.3332
LJ           2.17133        -2.48383        0.605034
LJ           2.32056         1.75774        -1.09341
LJ          -1.46118        0.222519        -1.27892
LJ           1.20024        0.248443         1.05394
LJ          0.644499        -2.46161          1.0442
LJ          0.232692        -1.70334         1.63172
LJ           -2.0567         1.43027        0.778521
LJ          -1.16281         1.85593         2.49621
LJ           1.65781         1.10836         1.71868
LJ          0.156554         1.95194        0.444172
LJ           2.21862        0.804457        0.872423
LJ          -1.97853        0.521259         -2.3227
LJ          -0.58764         1.83438          1.3948
LJ          -0.49858        -2.05179       -0.942986
LJ          0.293526        -0.67122         1.29035
LJ           1.24082         0.77805        -2.24938
LJ          -1.72534        -1.49711         1.08559
LJ         -0.572209        -1.16442         2.27031
LJ          -2.22536         2.30121      -0.0127231
LJ           2.03673        0.201576         2.13885
LJ           -2.2691        0.549743        0.152838
LJ           2.08256        0.601281       -0.529972
LJ          -2.31742       -0.238533       -0.658418
LJ            1.2206       -0.442507        -2.44575
LJ         -0.385974        -2.28426         0.65301
LJ          -2.33109       -0.451803        -1.65745
LJ           1.45678        -2.05515         -2.1776
LJ          -1.31449        0.704699      -0.0255072
LJ          0.318701         1.41146        -1.62171
LJ           2.17422         1.82434         1.25135
LJ           1.66836         1.83375        -2.24146
LJ         -0.859516       -0.592263         1.47884
LJ           0.37615        -1.22974         -2.2443
LJ          -2.38816        0.807003        -1.27884
LJ         -0.450913         -2.4207         2.37646
LJ         -0.482524        0.102142        0.521697
LJ          -2.15177        -1.25001       -0.799535
LJ          0.252439        0.714338        0.715723
LJ            2.2402        -1.96718         2.09385
LJ         -0.916883     -0.00732518         2.26734
LJ           1.84854       0.0171619        -1.66218
LJ           1.60653        -2.45391         1.43619
LJ           2.16551       -0.873164         2.55456
LJ          0.118268          0.6517        -2.17508
LJ         -0.808122        -1.18725       -0.493052
LJ          0.367353        -1.97902       0.0862323
LJ          -2.04568        -1.48675        -2.02629
LJ         -0.338591        -1.22496        0.675631
LJ           2.38811         1.21467        -2.47919
LJ          -1.68783        -1.11744         1.99646
LJ          -1.93746        -2.37426        -1.19309
LJ           1.04358        0.327904      -0.0908825
LJ           1.47593         1.26667        -1.23636
LJ          -1.36868          1.5166        -1.28778
LJ           1.17777        -1.62112         2.05166
LJ          -1.55726        0.321354         1.07125
LJ          0.836374         1.36721       -0.514081
LJ          0.515172         2.35054       -0.648514
LJ           2.25409        -2.35504       -0.757377
LJ          0.937126         -1.0915       -0.199105
LJ          0.657485         1.53962        -2.52877
LJ          -2.51192         2.15705         2.26897
LJ          -1.95361          2.2014        -1.99439
LJ         -0.364985         1.96228       -0.581037
