108
#Comment!
LJ         -0.884736         2.35633        0.531217
LJ          -2.53622         -1.6968       -0.855373
LJ        -0.0509115        -1.08044         1.31433
LJ          0.688465        -2.07272       -0.642319
LJ         -0.824827        -2.04581         1.60528
LJ           2.12777       -0.199067        0.614628
LJ          0.965605          1.1004      -0.0261685
LJ           1.03344       -0.974299         -2.0912
LJ            1.6334        -2.47775         1.10748
LJ           0.99855        -1.14627       -0.491086
LJ          -1.51722        0.181221          1.8717
LJ          -1.34373         1.31854        -2.48266
LJ          0.360361        0.293443         1.84419
LJ          -2.40151         1.54258        0.722986
LJ          -2.27426         2.00121       -0.271512
LJ          -1.13301         1.46254       -0.639767
LJ          -1.73205         -1.9621         2.17567
LJ           1.54819         1.11906        -1.11228
LJ          0.905811       -0.389543         1.25553
LJ         -0.150012         1.93735        -1.04036
LJ           1.11153        -1.73242        0.719772
LJ         -0.742556        0.880634        -1.64742
LJ         -0.108217         2.37937        -2.03815
LJ          -1.21578        -1.21028        -1.14975
LJ          0.209865         -2.2847         1.17072
LJ         -0.850426       -0.873078         2.29846
LJ           2.18275        -2.19389        -2.25326
LJ          -1.13344      -0.0628898        -1.00387
LJ          -1.84004        0.638807       -0.327745
LJ         0.0278791        -1.29778       -0.538126
LJ         -0.837764      -0.0595895        -2.17311
LJ          -1.73825       -0.454826         1.04017
LJ          -2.06002       -0.742877         2.28979
LJ           1.73933         1.44426         1.73777
LJ           1.82819        -1.17289         1.18478
LJ          -1.54582         1.60007        0.285707
LJ          0.860869         -2.5477        0.264919
LJ           1.01383        -1.47997          1.9473
LJ          -1.82056        -2.44332         -1.6412
LJ          0.204121        0.277211        0.705696
LJ         -0.884114        0.708466      -0.0625827
LJ           1.60264        -2.53427       -0.532916
LJ         -0.994381        -1.62115        -2.09596
LJ          0.924522          2.3121          1.8779
LJ           1.93008       -0.948874         2.46572
LJ           1.01482         1.04456         2.52306
LJ           1.34736        0.434706        0.690393
LJ          -1.87088        -2.40794        0.470701
LJ          -2.10019        -0.57942       -0.918476
LJ         0.0389463        -1.81319         2.36233
LJ          -1.39393        -1.61185       -0.265895
LJ           -2.1704        -1.02781        0.237041
LJ         0.0765684        0.106346       -0.340427
LJ           1.95844        -2.04247         1.90082
LJ        -0.0382479         1.14222        -2.30967
LJ          0.661931         1.11681         1.21694
LJ           1.84736        -1.22012       0.0745015
LJ          -1.46464        -1.52771        0.862536
LJ           2.43657        0.303188        -0.95329
LJ          0.683976         1.66927        -1.57023
LJ           2.12148         2.02451         2.51661
LJ           1.98495       -0.744194       -0.856021
LJ          -1.28594         2.42082       -0.664193
LJ        -0.0906908         1.92624         1.71014
LJ           1.38742        -1.51801        -1.35069
LJ           -1.0346         2.08502         -1.6984
LJ           1.92412         1.62085       -0.394035
LJ           -1.0598         1.55179         1.44118
LJ           2.25877        0.744724       0.0879825
LJ         -0.455309       -0.565483        0.094327
LJ          -1.37676       -0.301976     0.000305522
LJ          -2.02457         2.33839         2.49099
LJ         -0.896684         2.48459         2.51962
LJ         -0.520721        0.920784        0.925846
LJ          0.494239       -0.795373        0.352751
LJ           2.40916       -0.508297         1.53753
LJ          -2.17793         2.42339         1.47875
LJ           1.08727       0.0771429        -2.23481
LJ          -2.04268        -1.34745        -1.86099
LJ         0.0706993         1.65309        0.479944
LJ           1.51492        0.300912         1.81884
LJ           -1.9722        0.586047        -1.52322
LJ           -0.3694       -0.757471         -1.4631
LJ         -0.204685           1.042       -0.702689
LJ         -0.178474         -2.4496       -0.167831
LJ          -2.22957          1.4742        -2.05989
LJ          -2.29099        0.386856         2.49855
LJ           2.07574        0.817975         -2.0508
LJ         -0.547086        -1.77548        0.441824
LJ          -1.72919       -0.328501        -1.93397
LJ           1.48279         1.76437        0.608745
LJ         -0.625535        0.841317         2.10375
LJ          -2.33551        -1.59914         1.36163
LJ           2.29342        0.575998         1.34613
LJ          0.727061         1.99818       -0.514879
LJ          -0.64053        -2.02429        -1.09127
LJ          0.481133        0.564815        -1.58818
LJ          0.273179        -1.67617        -1.58257
LJ           1.04827       -0.101553        -0.22557
LJ          -2.05107         1.25678         1.77446
LJ          -2.51574         1.27377        -1.06813
LJ           2.34565        -2.16671        0.256337
LJ          0.261372       -0.476719         2.50674
LJ          0.957353        -2.42455        -1.73937
LJ         -0.684026       -0.189982         1.03711
LJ          -1.64307        0.662697        0.804432
LJ          0.549046       -0.437726        -1.12987
LJ           2.35692       -0.336577        -1.78623
