108
#Comment!
LJ           2.10443         1.66632       -0.230591
LJ          0.297693        0.834251        0.487695
LJ          -2.02923       -0.251638         1.59581
LJ           0.37943        -1.86176         -2.5137
LJ          0.621436        -1.89013       0.0221751
LJ           2.49123        -1.79906        -1.54131
LJ           1.55653        -1.88989        0.875696
LJ          -1.22263        0.494619         1.15397
LJ           1.42919        -1.57688        -1.59089
LJ          -2.37096         -1.3195       -0.634689
LJ           2.27911         -2.4454       -0.737771
LJ          0.797391        -2.36523         1.80106
LJ          -1.77918        0.563282         2.17421
LJ          0.441797        -1.96566         -1.4758
LJ         -0.833561        -0.11876        -0.52021
LJ         -0.734961         1.75181         -1.6391
LJ           1.32143       -0.549629         1.12872
LJ         -0.336798         1.52351        -0.70077
LJ           1.69339        -0.21148         2.05393
LJ         -0.246817        0.666507         1.53582
LJ          -2.05324         1.74901         1.88412
LJ           1.22285        0.760661         2.40586
LJ           1.52528       -0.250827       -0.902696
LJ           1.74923         2.17251        -1.49535
LJ           1.20823        0.248446        -1.76841
LJ         -0.466654         2.54879        -1.08437
LJ         -0.985877         2.16576      -0.0933728
LJ           0.93723       0.0303349         0.22045
LJ           2.28606        0.354472      -0.0510052
LJ          0.996125        0.605932         1.22386
LJ          -1.76267        0.287888        -1.79988
LJ           1.54924        -2.23174         2.55855
LJ          -1.02668        -1.74357          1.0436
LJ           -2.0878        0.270598        0.722901
LJ            2.1453         1.61502         1.19187
LJ          0.257425       -0.270241       -0.479427
LJ           -2.1529         1.25675        0.688292
LJ          -1.43045        -1.44477        -1.15355
LJ           2.26924         1.98589         2.41313
LJ          -2.02031        -1.88323          0.7127
LJ            2.1927        0.614026         1.81433
LJ         -0.366007        -1.96553      -0.0847437
LJ           1.44731         1.08148        0.297091
LJ           1.94661       -0.753548       0.0576013
LJ         -0.660931         1.36397        0.439392
LJ           1.42539        -2.29893       -0.458871
LJ           1.76475        -1.38326       -0.705158
LJ          0.741912       -0.935493        0.440319
LJ          0.684942       -0.994118         -1.9348
LJ          0.748241        -1.02139       -0.885809
LJ          -2.27112       -0.854117        0.566348
LJ         -0.898995       -0.630394         1.51925
LJ         -0.532391       0.0933933         2.44326
LJ          -2.22471       -0.331027       -0.500766
LJ         0.0853595        -1.49511         1.42698
LJ         -0.406803      -0.0375082        0.585851
LJ           2.50348         2.46949        0.299132
LJ          0.372682         1.13189        -1.66997
LJ           2.49061         1.12139        -2.16273
LJ           1.55018        -1.54692         1.92899
LJ          0.223445      -0.0510406        -1.57777
LJ          -1.30139        -2.23301        -1.87236
LJ         -0.211347        -0.80795         2.39675
LJ         -0.168327        -2.54647           1.372
LJ         -0.522646        0.670504        -1.26079
LJ          -1.63998       -0.661935         2.35533
LJ          -1.77115        -1.39778        -2.18329
LJ          -1.60818         2.19191        -1.07302
LJ          0.453631         2.51693       -0.638956
LJ          0.337872         1.76598         1.58508
LJ          -2.01296         2.34484         1.03527
LJ            1.0609         1.95672         0.90967
LJ           1.46905         1.21386        -1.91884
LJ         -0.632082        -1.85847         2.23746
LJ           1.61689        -0.86719         -2.2565
LJ          -1.47926        0.623156       -0.111277
LJ         -0.952418        -0.29266        -1.79671
LJ           1.91411        -2.54493         1.58877
LJ          0.890534          1.5612       -0.502198
LJ           0.62078        -0.11463        -2.52641
LJ          -2.24352       -0.622378        -1.59035
LJ           1.67174        0.966344       -0.848491
LJ          -1.99184         1.70206        -0.27171
LJ          -2.43774        0.575507        -1.02781
LJ          -1.69286         1.57702        -2.11496
LJ          -1.05801         1.54652         1.42674
LJ           2.12453      -0.0734673        0.894282
LJ          0.223598        0.878257          2.5044
LJ         -0.269257        -1.09484         0.53183
LJ         -0.356182        -1.39453        -1.28719
LJ          -2.54577         1.62196        -1.24745
LJ          0.898027         1.91191          2.4479
LJ         0.0808832         2.11678        0.439935
LJ          -1.71732        -1.42894         1.71824
LJ         -0.285122         2.51118        -2.23358
LJ           2.20857         -1.1845         1.26725
LJ           2.48578       0.0556504        -2.36871
LJ          -1.49901         0.98377        -1.06782
LJ          -1.79724        -2.14887       -0.314104
LJ         -0.650912         1.49503         2.43649
LJ          -2.28824         2.44725         -1.9384
LJ          -1.43249         2.42198         2.25566
LJ          0.561821          2.1597         -1.6595
LJ          -2.40024        -2.14056         2.08535
LJ          0.744038        0.556906       -0.773363
LJ          -1.40259        -1.05657      -0.0705547
LJ           0.25763       -0.242565         1.39708
LJ          -2.53981       -0.921515         2.33987
