108
#Comment!
LJ          -1.01979        -2.08534        -2.27515
LJ          -2.54351        0.715203       -0.184029
LJ          0.339138        0.290005         0.34186
LJ           2.16975         2.46212         1.90856
LJ           1.59991        -2.50183       -0.960068
LJ          -0.77009         1.96727         2.30726
LJ         -0.858494        0.257311         1.05374
LJ          -2.12965        0.263096          2.5195
LJ          -1.92327        -1.85006         -1.8572
LJ         0.0106099        -1.82614         -1.2829
LJ          -2.09961       -0.773805        0.184826
LJ          -1.40274         1.01628        -2.06036
LJ          -1.64609         2.37098       -0.295895
LJ           2.34936         1.12533         2.37169
LJ           1.08297        -1.66706        -1.73018
LJ            1.2191         1.48373       -0.421967
LJ          -0.59364         2.52911        -0.81399
LJ          0.808215       -0.684654        -1.20501
LJ           2.11617         1.94585        -2.15637
LJ         -0.590962       -0.514354        -1.12104
LJ          -0.33467        -1.08378        -2.28034
LJ          -1.87727        0.765757         1.75795
LJ          -2.01871         1.84014        -2.28071
LJ           1.63702        0.235459         1.71359
LJ          0.255821        0.393735         -1.8765
LJ           2.36533         1.62596        0.393718
LJ          0.604213        -2.47907         2.02702
LJ         -0.931572       -0.164295      -0.0919841
LJ          0.705855         1.54243         -1.7132
LJ           2.02364        -1.57699       -0.576849
LJ          0.569059       0.0747737         1.44121
LJ         -0.903865         0.89706         2.10795
LJ          -1.24522        -1.75188        -1.06571
LJ          -1.78219         0.11905       -0.455103
LJ           1.45699          2.2241        0.937518
LJ           2.39358       -0.705247         1.89072
LJ          -2.22292        -1.08555       -0.924382
LJ           2.42942        -1.70308         2.43291
LJ          -1.71336        -1.40543         2.36774
LJ         -0.179623        -1.68774         1.06614
LJ         -0.735026        -2.24222         1.81823
LJ         -0.471852       -0.572632         1.74358
LJ           -1.7516         2.23906         0.75963
LJ           0.61515         1.47849         0.81404
LJ            1.0558        -2.53769       0.0607159
LJ         -0.112515        -1.77206       -0.275821
LJ          -1.23469       -0.917655        -1.88843
LJ           1.12988        0.820579         2.47136
LJ           1.16625       0.0750686       -0.410341
LJ           1.57819         1.20805         1.38152
LJ         0.0518821        0.379567         2.26996
LJ           1.75678        -1.74084        0.430007
LJ          -1.59146         1.66357         1.86536
LJ          -1.32715         2.18753        -1.65847
LJ          -2.19177        -1.89211        0.258643
LJ           2.20047        -2.21017          -1.686
LJ          -2.19763        -2.11108       -0.839878
LJ           1.61456        0.551794        0.419605
LJ          -2.43931        -1.35468         1.09852
LJ          -1.45652       -0.371045          1.8378
LJ         -0.188947        -2.43863        0.458363
LJ           1.17803         2.48084        -2.15187
LJ           1.53943       -0.454749        0.805208
LJ            -2.523        0.849167        -1.76137
LJ          -2.55784         1.62604         1.38269
LJ          0.586345        -1.23117         2.23756
LJ         -0.960904       0.0355945        -2.28027
LJ         -0.453593         1.15378        -2.07258
LJ           2.37708         1.87983       -0.917348
LJ          0.137117       -0.458701       -0.366738
LJ           1.63033         1.27422        -1.52157
LJ            2.0132       -0.485943       -0.172693
LJ           2.45856        0.267893         1.00636
LJ         -0.803782         1.90899     -0.00629674
LJ          -1.76604         1.31469       -0.847253
LJ          0.513688          2.2154       -0.945171
LJ          0.824592       -0.319021        -2.51114
LJ          -1.32785        -0.99466         1.03305
LJ          -1.78529        0.132774        0.637806
LJ           1.64115         -1.0566         2.50908
LJ           1.89286       -0.988166        -1.44481
LJ           -1.8666       0.0498997        -1.59353
LJ          -1.05751        -1.56509       -0.115605
LJ            1.0187        -1.10771       0.0437345
LJ         -0.219498         2.22232        -1.84412
LJ          -1.91253         -2.5492         2.26549
LJ          -1.87998         1.19509        0.609878
LJ          0.900409        -2.01525         1.12632
LJ          0.947649        -1.67818       -0.717105
LJ          0.688338       -0.987091         1.23814
LJ         -0.967298         1.54825        0.972154
LJ           1.21428         1.78813         2.12625
LJ          0.218906         1.50596         2.29906
LJ         -0.135362        0.953041         1.22643
LJ          0.172119        -2.06603        -2.30129
LJ            -1.016        0.909517       0.0938277
LJ         -0.966305        0.629559       -0.982904
LJ          0.181946          1.7426       -0.112553
LJ         -0.237042       -0.864597        0.491407
LJ           1.19019        0.342117        -1.54027
LJ          -1.43375         -2.0375         1.18415
LJ          0.414144        0.845135        -0.89523
LJ        -0.0349128         2.08383         1.39597
LJ           1.86265        -1.80333         1.49236
LJ           1.93435       0.0986043        -2.20604
LJ           2.40838      -0.0423173        -1.03292
LJ         -0.693738         1.61209       -0.938255
LJ          -2.48865       -0.799795        -2.09304
