108
#Comment!
LJ           2.45202        -2.54234        -2.55233
LJ          -1.69923        -1.84764            2.53
LJ           -2.5447        -1.70399         -1.6125
LJ          -1.86526         2.52497        -1.74608
LJ         -0.850617         2.53389         2.43561
LJ         -0.152068        -1.85568         -2.5028
LJ         -0.864375        -1.52261         -1.7002
LJ          0.082547         2.34792        -1.77319
LJ          0.898961         2.51298        -2.40868
LJ           1.69809        -1.70203          -2.508
LJ           0.78412        -1.52696         -1.5505
LJ           1.92753         -2.4497        -1.57161
LJ           2.46701       -0.905433         -2.5241
LJ          -1.65913        0.144679         2.50272
LJ          -2.48665        0.151347        -1.80978
LJ          -1.81907       -0.912959        -1.55773
LJ          -1.09914       -0.938629         2.52619
LJ        -0.0410064      -0.0615828         2.54562
LJ         -0.766226        0.147733        -1.76332
LJ         0.0955196       -0.815311        -1.77491
LJ          0.961912         -1.0212        -2.55469
LJ           1.72394        0.174224         2.51441
LJ          0.733075        0.168339        -1.61882
LJ           1.56256       -0.836619        -1.77443
LJ          -2.50732        0.939735         2.49632
LJ          -1.79414         1.88775         2.48922
LJ          -2.56315         1.57841        -1.83518
LJ          -1.69112         0.86342        -1.77254
LJ         -0.661982         1.01251         2.26172
LJ          0.126592          1.6931          2.3685
LJ         -0.810522         1.59639         -1.6791
LJ        -0.0898298        0.898592        -1.72065
LJ          0.700918        0.883206        -2.48719
LJ           1.74234         1.86395        -2.54913
LJ           0.98015         1.73564        -1.54517
LJ           1.75835        0.818621        -1.66789
LJ          -2.47401        -2.56015        -0.86594
LJ           -1.5371        -1.79203       -0.620321
LJ          -2.52072         -1.7704      -0.0431839
LJ          -1.75339         2.40216      -0.0111096
LJ         -0.766739         2.53639        -0.81226
LJ       -0.00580432        -1.71345       -0.861751
LJ         -0.756645        -1.73453        0.111431
LJ          -0.13867         2.35575     -0.00303202
LJ           1.04371        -2.53119       -0.860035
LJ           1.64649        -1.70401       -0.822065
LJ          0.719017        -1.88753       0.0970668
LJ           1.69364        -2.40144      -0.0945561
LJ           2.55744        -0.90008       -0.766969
LJ          -1.90642        0.131179       -0.693604
LJ           2.55897      -0.0146205       0.0116098
LJ          -1.71734       -0.712946       -0.067198
LJ         -0.882734       -0.744986       -0.810006
LJ       -0.00379185        0.057967       -0.733325
LJ         -0.864382       0.0059394      0.00365725
LJ        -0.0701563       -0.746492      -0.0903967
LJ          0.778649        -0.80184       -0.816273
LJ           1.84268       -0.132857       -0.868307
LJ          0.864365       0.0532683       -0.150074
LJ           1.80825       -0.980177      -0.0364226
LJ          -2.52863         1.14694       -0.725929
LJ          -1.64546         1.72088       -0.987081
LJ           2.52083         1.68236        0.170038
LJ          -1.89443        0.941463       0.0210378
LJ         -0.905571        0.812954       -0.822297
LJ        -0.0168979         1.72012       -0.868146
LJ         -0.929183          1.5791       -0.208652
LJ        -0.0381227         1.02865       -0.113699
LJ          0.740919        0.926323       -0.826291
LJ           1.96523         1.78094       -0.954106
LJ          0.726122         1.93781       -0.108274
LJ           1.76046        0.851286      -0.0786559
LJ           2.44416         2.49135         1.01038
LJ          -1.53247        -1.80834        0.987083
LJ           2.49509        -1.60233         1.72718
LJ          -1.88351           2.449         1.65393
LJ         -0.824475         2.52718        0.724979
LJ         0.0862391        -1.70987        0.857727
LJ         -0.935453        -1.60305         1.76972
LJ           0.10651        -2.46962         1.73863
LJ           1.09138        -2.51393         1.01434
LJ            1.9045        -1.58553        0.836006
LJ          0.888749        -1.65239         1.66232
LJ           1.60084        -2.50893         1.86063
LJ           2.51376        -0.71018        0.840728
LJ          -1.84011       0.0627137        0.875731
LJ          -2.54239       -0.048128         1.88103
LJ          -1.82766       -0.824747          1.6587
LJ         -0.654396       -0.825832        0.752805
LJ        0.00884407      -0.0820864        0.856611
LJ         -0.764575       0.0982134         1.80807
LJ         0.0413537       -0.922343         1.62165
LJ          0.887688       -0.899946        0.898542
LJ           1.61525       0.0177791        0.600119
LJ          0.765791      -0.0722568         1.86976
LJ           1.72739       -0.877154         1.67918
LJ           2.42834        0.719135        0.772255
LJ          -1.56974         1.81965        0.817539
LJ           2.51741         1.68627         1.73005
LJ          -1.65037        0.715599         1.63006
LJ         -0.873513         0.67597        0.803035
LJ        -0.0475286          1.6992        0.810238
LJ         -0.804757         1.72831         1.50092
LJ         0.0337486         0.91254         1.54433
LJ          0.877993        0.912021         1.00288
LJ           1.77326         1.76793        0.840369
LJ          0.958982         1.75022         1.87786
LJ           1.67057          0.9209         1.70255
