108
#Comment!
LJ         -0.781664         -2.3102        -2.40053
LJ          0.159397         1.33201        -1.91618
LJ           1.29971        0.628536        -2.49077
LJ         -0.962719         2.07653         1.92223
LJ         -0.926152       -0.975476        -0.28017
LJ          -1.49742         1.19828         2.28012
LJ           0.42422        0.278515         2.24453
LJ          -2.34621       -0.680804       -0.700173
LJ           1.14031        0.657737       -0.155484
LJ            -2.162         1.05394        0.422426
LJ          0.299254        -2.40749       -0.613662
LJ          0.931823         1.08848        -1.09465
LJ         0.0497274        -1.83403        -1.93223
LJ          0.360443       -0.572215         1.54467
LJ          0.540469       0.0150813       -0.753234
LJ          -1.38789         1.23552         1.27543
LJ          -2.07451       -0.237822        -2.23845
LJ           1.55511         1.54996        0.735842
LJ         -0.193941       -0.551718         -1.8156
LJ          -2.30395         1.97252         1.08578
LJ          -2.15385        -1.15065        -1.65512
LJ          0.828691         1.14176         1.76338
LJ          -1.27618        0.171746       -0.288403
LJ          -0.35868         1.89337       0.0101413
LJ         -0.409357       -0.931916         0.82001
LJ           2.07611         2.41655       -0.142558
LJ          -1.38821         1.90909       -0.435541
LJ          -1.55751        -1.57999         2.29222
LJ          0.869308        -2.45827        0.542158
LJ          -1.11014        -1.69674        -1.64689
LJ         -0.245648        -2.09652        0.526641
LJ           1.88348        0.110738       -0.944324
LJ          -1.90818        -2.42124         1.67054
LJ          0.621789        -1.16114       -0.486763
LJ           2.06166        0.169494         2.00869
LJ         -0.491189         1.93706         1.03049
LJ           0.80475        -1.04457        -1.68238
LJ          0.454024          2.3049         1.49817
LJ          -2.48962        -1.77896       -0.170384
LJ          -2.25913        0.660381       -0.621678
LJ           1.85208       -0.363051         -2.0821
LJ          -1.78125         1.31761        -1.71696
LJ          -1.64874         2.36401        -2.34642
LJ         -0.404579        0.416135        -2.30053
LJ          -1.01647       -0.849835        -2.52498
LJ         -0.198344         1.34442         2.12796
LJ         -0.891767         1.76415        -1.89843
LJ          -1.98883        0.343591         1.75247
LJ           1.80911        -1.31733       -0.796089
LJ           1.52687         2.32534         1.61501
LJ         -0.248249      -0.0319543        0.250674
LJ           0.59949        -1.76377          1.5211
LJ          0.556288        0.108826        -1.76292
LJ           1.76341        0.980135        -1.68979
LJ           1.06971         1.87376        -0.11152
LJ          -1.67821         2.43333        -1.37556
LJ         -0.361496        -1.28209        -1.04126
LJ           2.25771        0.195333        0.110823
LJ         -0.628231      -0.0753312         1.37732
LJ         -0.493071       -0.204035       -0.734562
LJ           2.05105       -0.906794        0.256455
LJ          0.538374         1.40573        0.675769
LJ           -2.3958         1.86851         2.15314
LJ          -0.37052        -2.28168         1.61048
LJ           2.10575        -2.47062        -1.14477
LJ         -0.533036         2.53326        -1.33326
LJ           1.13911         1.82754        -2.08003
LJ         0.0172887         1.82681       -0.937165
LJ           2.08969         2.53683         2.53439
LJ          -1.31219        0.286586        -1.71693
LJ           -1.1417         0.99499       -0.906495
LJ          -1.90263         2.54438        0.176202
LJ          0.592985        -0.86619        0.461969
LJ           1.11585         2.15616        -1.07746
LJ           2.14245        -2.08711        0.804752
LJ           2.35177         1.86396        -1.82103
LJ           1.88742         1.23344       -0.675709
LJ          -1.15289          -1.418         1.10137
LJ          -2.00816        -1.00738        0.259629
LJ           2.42856       -0.369728         1.13419
LJ          -1.73739        -0.71591         1.72254
LJ          -1.05446         1.09278         0.42276
LJ            1.1714       -0.732628          2.2457
LJ            1.3838        -1.07375         1.05418
LJ           1.33991        -1.65514        0.180213
LJ          -1.32799       -0.702096        -1.29581
LJ           1.84811         1.51025         2.21586
LJ          0.989427         -1.8495        -2.52332
LJ            1.2367       -0.397652      -0.0950191
LJ          -1.70432        -1.59996       -0.621809
LJ        0.00758856         2.40945         2.45886
LJ         -0.192246        0.905732         1.26514
LJ          0.680669        0.434992        0.904791
LJ          -2.47684        0.864772        -2.48036
LJ         -0.888876        -2.04372       -0.405601
LJ           2.35358         1.05961         1.41252
LJ          -2.37776         1.75517       -0.840902
LJ          -2.50573        -1.68579         2.56412
LJ         -0.107687        0.766232       -0.358389
LJ         -0.101843        -1.21704         2.32093
LJ           2.39182       -0.856574         2.06022
LJ            1.8267         -1.4936        -1.91853
LJ         -0.236119        0.568327        -1.29243
LJ          -2.28612        -1.51401         1.29304
LJ          -1.17158        0.246205         2.24065
LJ           1.66501        -1.79207         1.82699
LJ           1.01419        -2.02721        -1.36851
LJ          -1.86934       0.0444597          0.7503
