108
#Comment!
LJ           -2.4942        -2.41417         2.54711
LJ          -1.70697        -1.47908         2.49844
LJ          -2.27426        -1.55834        -1.78718
LJ          -1.62208        -2.44393        -1.76343
LJ         -0.759686         2.29573        -2.45368
LJ         -0.119844        -1.53052         2.49421
LJ         -0.985301        -1.53647        -1.96324
LJ          0.102553        -2.52512        -1.91774
LJ           1.03852        -2.36047        -2.40371
LJ           1.69165        -1.50523         2.44116
LJ           1.19098        -1.68367        -1.71688
LJ            1.8787         2.55248         -1.6515
LJ           2.41624       -0.672779        -2.53051
LJ          -1.82172      0.00119296         2.27801
LJ          -2.52557      -0.0131429        -1.76053
LJ          -1.54804       -0.574785        -1.74787
LJ         -0.875556       -0.751365         2.52748
LJ         0.0716058       -0.103982        -2.40308
LJ         -0.847755        0.056173        -1.69189
LJ          0.180498       -0.958955        -1.69977
LJ          0.729757       -0.989512        -2.51458
LJ           1.65443       0.0415933        -2.40852
LJ          0.868221        0.148877        -1.70248
LJ           1.54224       -0.550301        -1.52004
LJ          -2.50815        0.850233        -2.40878
LJ          -1.83351         1.93692         2.38122
LJ          -2.47454         1.71358        -1.59375
LJ          -1.55626        0.711359        -2.02926
LJ         -0.528798        0.753949         2.55628
LJ        0.00637416         1.70534         2.26421
LJ          -1.30117         1.71651        -1.72848
LJ          0.047992         1.00387        -1.70577
LJ           1.06181         1.04154         -2.4976
LJ           1.72373         1.89565         2.45614
LJ           0.94255           1.947        -1.80278
LJ           1.82188        0.918684        -1.80104
LJ          -2.53224         2.53575       -0.759108
LJ          -1.41077        -1.69667       -0.937075
LJ          -2.33626        -1.63232      -0.0887146
LJ          -1.60836         2.39532        0.157505
LJ         -0.684843        -2.45478       -0.985306
LJ         0.0546138        -1.77439        -0.69703
LJ         -0.760871        -1.73829      -0.0171257
LJ        -0.0247547         2.31698        0.155234
LJ          0.829303         2.55285        -1.03023
LJ           1.87243        -1.60062       -0.906503
LJ          0.926713        -1.86314        0.243644
LJ           1.73728        -2.49656       0.0830662
LJ          -2.38591       -0.770815       -0.842966
LJ          -1.79027        0.175406       -0.916624
LJ          -2.32235       0.0753169      -0.0580483
LJ          -1.58901        -0.69282      -0.0263299
LJ         -0.751426       -0.775479       -0.690666
LJ        -0.0307379         0.05343         -1.0234
LJ         -0.640104      -0.0761116       0.0539365
LJ        0.00118106       -0.931835        0.177919
LJ           1.00607        -1.11045       -0.676701
LJ           1.78467       -0.243122       -0.683587
LJ          0.827627       0.0953117       0.0999785
LJ           1.94129        -1.04929       0.0342518
LJ            2.4733        0.755621       -0.737763
LJ          -1.87196         1.73857       -0.700102
LJ            2.5211         1.69936      -0.0261032
LJ          -1.76406        0.878921        0.164717
LJ         -0.988017        0.738708       -0.927934
LJ         0.0331177         1.72384       -0.808974
LJ         -0.676164         1.68114      -0.0599114
LJ          0.028204        0.846583       -0.153646
LJ           0.84422          1.0506       -0.974586
LJ           1.65702         1.70334        -0.82306
LJ          0.928081         1.66917        -0.15815
LJ           1.65759        0.774262       0.0616776
LJ            2.4461         2.45601         0.74557
LJ           -1.4759        -1.82506        0.802072
LJ           2.49302        -1.37987         1.60486
LJ          -1.89733        -2.33706         1.64667
LJ         -0.896558         2.47385         0.91525
LJ         0.0163523        -1.43858         1.06668
LJ         -0.882118        -1.69142         1.76154
LJ        -0.0117514        -2.31552         1.74556
LJ          0.826203         2.34079        0.921923
LJ           1.69233        -1.60519         1.00264
LJ          0.780677        -1.67405         1.73782
LJ           1.68492        -2.49886         1.51657
LJ          -2.33136       -0.781953        0.770366
LJ          -1.70247       0.0750753        0.820138
LJ           2.44002       0.0287058         1.64321
LJ          -1.64097       -0.892005         1.58292
LJ         -0.873194       -0.845834         1.00286
LJ          0.140668       -0.210217        0.842472
LJ         -0.929052       0.0167333         1.79099
LJ          0.153538       -0.785983         1.80102
LJ           1.01808       -0.871197        0.557922
LJ           1.79559       -0.267178         0.89205
LJ          0.797389        0.014583         1.69784
LJ           1.45637       -0.766552         1.73996
LJ           2.33813        0.888805         1.09306
LJ          -1.85615         1.67899        0.943773
LJ           2.44038         1.85945         1.58374
LJ          -1.75325        0.864798         1.69507
LJ         -0.899139        0.973313        0.854522
LJ          0.375621         1.34218        0.742517
LJ         -0.748865         1.48984         1.69368
LJ          0.133714        0.751429         1.71421
LJ           1.16702        0.569252        0.982556
LJ           1.56005         1.80364        0.672134
LJ           0.96634         1.69994           1.694
LJ           1.83004         1.02641         1.92589
