108
#Comment!
LJ           2.50438        -2.41673         2.55746
LJ          -1.76457        -1.67786         2.42711
LJ           2.51288        -1.72221        -1.70649
LJ          -1.81146        -2.44014        -1.68411
LJ         -0.838608         2.52893         2.50584
LJ        -0.0046412        -2.05757        -2.47458
LJ          -1.08208        -1.49096        -1.60238
LJ         0.0276066         2.28425        -1.75366
LJ           0.94037         2.47818          2.5128
LJ           1.75453        -1.81112         2.55797
LJ          0.913889        -1.77543        -1.74681
LJ           1.89508        -2.56162        -1.69733
LJ           2.46165       -0.844541        -2.56415
LJ          -1.90332      -0.0439847         -2.5609
LJ            2.4895         0.14001        -2.00367
LJ          -1.73761       -0.528844        -1.49236
LJ          -1.19251       -0.801383        -2.45279
LJ       -0.00619162       -0.170725        -2.49252
LJ         -0.711021         0.04776        -1.81532
LJ         -0.123592         -1.1362        -1.90959
LJ          0.848884        -1.15906        -2.54065
LJ           1.64773      0.00813917        -2.52112
LJ          0.810437        0.100695        -1.76762
LJ           1.68222       -0.752766        -1.69625
LJ          -2.45311         1.00604         2.47233
LJ          -1.71012          1.9189        -2.55611
LJ          -2.52096         1.70829        -1.65362
LJ          -1.54882        0.834938        -1.84215
LJ         -0.620474         1.05189         2.48808
LJ          0.166994         1.79974         2.48815
LJ         -0.917014         1.63356        -1.73699
LJ         0.0650246         1.03377        -1.81816
LJ          0.948209        0.946944        -2.53975
LJ           1.88797         1.83472         2.46238
LJ          0.915579         1.84145        -1.62253
LJ           1.68531        0.896453        -1.68328
LJ           2.33768          2.3725       -0.758087
LJ          -1.51367         -1.7925       -0.763319
LJ          -2.44706        -1.85064      -0.0669959
LJ          -1.61342         2.53518       -0.017165
LJ         -0.837438        -2.55726        -1.08805
LJ          0.132013        -1.75915       -0.909604
LJ         -0.549991        -1.80365      -0.0241973
LJ         -0.209824         2.40126       0.0571901
LJ          0.894233        -2.51419       -0.869736
LJ           1.75412        -1.71511       -0.961756
LJ          0.650291        -1.98002         0.13031
LJ           1.67621        -2.36745      -0.0365952
LJ          -2.52477       -0.939381       -0.693027
LJ          -1.90786        0.147901       -0.751123
LJ           -2.5455       0.0962623       0.0434674
LJ          -1.70159       -0.932259      -0.0343742
LJ         -0.582739       -0.882986       -0.651522
LJ         -0.109719        0.276713       -0.989558
LJ         -0.759268      -0.0569372       -0.102738
LJ           0.13955       -0.734048        0.246748
LJ           0.80361       -0.960772       -0.622515
LJ           2.03986       -0.110938       -0.880769
LJ          0.690623        0.100842      -0.0259456
LJ             1.747        -1.00401       -0.117403
LJ          -2.47163         1.04739        -0.86472
LJ          -1.55548         1.80436       -0.838363
LJ           2.38573         1.76931       0.0278681
LJ          -1.96533        0.965617          0.1067
LJ          -1.06703        0.666914       -0.945462
LJ         0.0467892         1.84821       -0.894499
LJ         -0.772804         1.56603      -0.0728614
LJ        -0.0345548        0.872058     0.000175514
LJ           0.73679        0.959298       -0.680397
LJ           1.61345         1.62367       -0.884581
LJ          0.777156         2.01362       -0.108464
LJ           1.71238        0.831706        -0.20359
LJ           2.47004         2.36291        0.854132
LJ          -1.42533        -1.88179        0.731159
LJ           2.55059        -1.62678         1.81321
LJ          -1.99097        -2.49238          1.6376
LJ         -0.682367         2.53647         1.12796
LJ          0.129592        -1.61661        0.937467
LJ         -0.888738         -1.7896         1.73506
LJ         0.0868915        -2.36781         1.73538
LJ          0.867553         2.30901        0.954343
LJ           1.98784        -1.56352        0.704782
LJ            0.9777        -1.78726         1.72889
LJ           1.69263        -2.51389         1.68155
LJ           2.48755       -0.625244        0.937428
LJ          -1.73069       0.0506577        0.802759
LJ           2.50416      -0.0409572         1.75243
LJ          -1.88152       -0.811818         1.73287
LJ         -0.720528       -0.891232         1.01261
LJ        -0.0324833      -0.0851751        0.983341
LJ         -0.839561        0.190571         1.94783
LJ          0.238874       -0.946636         1.83836
LJ           1.03756        -1.05273        0.682302
LJ           1.60302       -0.202048        0.730828
LJ          0.831013       0.0427736         1.95226
LJ           1.56418       -0.889886         1.77855
LJ           2.34811        0.701747        0.812097
LJ          -1.42557         1.99433        0.802754
LJ           2.45713         1.66649         1.58226
LJ          -1.78721        0.937571         1.61525
LJ         -0.868893        0.649896        0.872528
LJ          0.241928         1.48495        0.701137
LJ         -0.864681         1.63163         1.60486
LJ        -0.0258219        0.819482         1.54293
LJ          0.999407        0.770204        0.839767
LJ           1.58562         1.70523        0.576321
LJ          0.841775         1.60406         1.72466
LJ           1.85777        0.821128         1.80329
