108
#Comment!
LJ           2.55002         2.55298         2.55059
LJ          -1.67086         -1.8505         2.55497
LJ          -2.56104        -1.75259        -1.65608
LJ          -1.73081         2.54213        -1.70957
LJ         -0.881717         2.52606         2.48588
LJ        -0.0353062        -1.74737        -2.51433
LJ         -0.761225        -1.72353        -1.71777
LJ        -0.0327962         2.55801        -1.61254
LJ          0.872477         2.54652         2.50081
LJ           1.75216        -1.79545        -2.47462
LJ          0.859914        -1.71283        -1.67514
LJ           1.73038         2.54503        -1.70504
LJ          -2.55847       -0.802279        -2.55877
LJ          -1.63239     -0.00718075        -2.53951
LJ          -2.53211      -0.0185707        -1.68393
LJ           -1.6689       -0.841554        -1.66476
LJ         -0.858005       -0.752731         2.55909
LJ          0.104942      -0.0327661         2.54443
LJ         -0.869026        0.100839        -1.67904
LJ        -0.0604247       -0.904678        -1.67725
LJ          0.871774       -0.913152        -2.48406
LJ           1.68348        0.108077         2.52867
LJ          0.730778       0.0155076         -1.7688
LJ           1.63972       -0.827887        -1.69117
LJ          -2.52163        0.813995         2.55677
LJ          -1.70575         1.68545         2.55198
LJ           2.55253         1.56916        -1.77103
LJ          -1.68943        0.817037        -1.66117
LJ          -0.74956        0.852674         2.49997
LJ         0.0534037         1.64783         2.50247
LJ         -0.819355         1.64206        -1.79914
LJ         0.0432126         0.84149        -1.84659
LJ          0.873293        0.880367          2.5582
LJ           1.64093          1.6472         2.55153
LJ          0.965984         1.74525        -1.81135
LJ           1.59718         0.86917        -1.69166
LJ          -2.51414         2.55676       -0.792593
LJ          -1.60873        -1.69911       -0.917825
LJ           -2.5382        -1.80183      0.00423498
LJ          -1.72009         2.53526      -0.0180795
LJ         -0.765037          2.5226       -0.855175
LJ      -0.000352653        -1.68054       -0.909625
LJ          -0.83647        -1.73036       0.0384094
LJ          -0.10453         2.47753      -0.0777385
LJ          0.930823         2.52981        -0.74509
LJ           1.58251        -1.72343       -0.853311
LJ          0.821316         -1.7629        0.060553
LJ           1.70317        -2.51289      -0.0476852
LJ           2.49916       -0.900258       -0.795479
LJ          -1.73709       0.0443881       -0.974597
LJ           2.53251      0.00252802       -0.102319
LJ          -1.71595       -0.942995      0.00668856
LJ          -0.82918       -0.772366       -0.765656
LJ          0.086399       -0.110438       -0.833561
LJ         -0.919953      0.00462584       0.0430449
LJ         -0.021401       -0.776146       0.0749851
LJ          0.900573       -0.735168       -0.830775
LJ           1.71929     -0.00372627       -0.856442
LJ          0.848806       0.0627528       -0.122832
LJ           1.60775       -0.877015        -0.13927
LJ          -2.54962        0.877431       -0.827356
LJ          -1.73631         1.68387       -0.886646
LJ           2.55792         1.63805      0.00314218
LJ          -1.75003        0.963798       0.0796105
LJ         -0.761514        0.847831       -0.765831
LJ         -0.132951         1.67377       -0.914079
LJ         -0.867496         1.70426     -0.00307286
LJ        -0.0731027        0.859001        0.104477
LJ          0.874404        0.870012       -0.839227
LJ           1.78678         1.69153       -0.816609
LJ          0.830567         1.78657       -0.114538
LJ           1.71485        0.821595       0.0663655
LJ          -2.46164        -2.49661        0.854153
LJ          -1.68975        -1.76932        0.848476
LJ          -2.54298        -1.65555         1.69823
LJ            -1.815        -2.55075         1.66821
LJ         -0.818381        -2.45756        0.780232
LJ         0.0645611        -1.67775        0.838034
LJ         -0.841905          -1.677         1.77954
LJ          0.148112        -2.53885         1.75738
LJ          0.894617         2.38123        0.929169
LJ           1.74694         -1.8345        0.898274
LJ          0.913676         -1.7618         1.54803
LJ           1.75671        -2.54566         1.72445
LJ           2.49875       -0.771448        0.936478
LJ           -1.7031      -0.0123282        0.875524
LJ          -2.56301      -0.0520846         1.80508
LJ          -1.66187       -0.836312         1.85807
LJ         -0.893487       -0.852988        0.780908
LJ          0.128236       0.0124051        0.930956
LJ         -0.786916      -0.0076804         1.60839
LJ        -0.0344016       -0.882228          1.6547
LJ          0.902415       -0.869278        0.847038
LJ           1.58504      -0.0803283        0.787941
LJ          0.780985      0.00780497         1.73028
LJ           1.76535       -0.777585         1.65785
LJ          -2.50115        0.888913        0.884238
LJ          -1.69304         1.60166        0.902569
LJ           -2.5618         1.77875          1.7547
LJ          -1.66693        0.808053         1.70161
LJ         -0.829474        0.826592        0.873992
LJ          0.036709         1.68033        0.916334
LJ         -0.872588          1.7166          1.6596
LJ        -0.0620915        0.733956          1.6671
LJ          0.844802        0.747078        0.761476
LJ           1.67155         1.62276        0.873106
LJ           0.85062         1.64079         1.75205
LJ           1.80502        0.798599         1.69102
