108
#Comment!
LJ           2.45922        -2.48771         2.48215
LJ          -1.67598        -1.86691         2.47728
LJ          -2.55994        -1.67532        -1.51957
LJ          -1.88928         -2.5052        -1.83343
LJ         -0.926615         2.50462         2.44441
LJ         -0.220555        -1.79462         2.56431
LJ         -0.939179        -1.53106        -1.71295
LJ         0.0524355         2.37359        -1.71874
LJ          0.889459           2.526        -2.40014
LJ            1.7864        -1.71327         2.53504
LJ          0.794162        -1.59883        -1.57022
LJ           1.97561        -2.56378        -1.61173
LJ           2.44345       -0.827435        -2.52488
LJ          -1.77804       0.0887464         2.48536
LJ          -2.50018        0.172787        -1.77107
LJ           -1.8124         -0.6732        -1.39071
LJ          -1.21574       -0.902292         2.50728
LJ         0.0488745       -0.135085         2.50666
LJ         -0.838781        0.141288        -1.76632
LJ         0.0406824       -0.933223        -1.70917
LJ          0.915883        -1.01392        -2.55696
LJ           1.70732        0.106191         2.51227
LJ          0.810705       0.0206193        -1.49466
LJ           1.67752         -0.8978        -1.74739
LJ          -2.52203         1.02679         2.41643
LJ           -1.7301         1.87661         2.51235
LJ            -2.533         1.66989        -1.75657
LJ          -1.63189         0.93192        -1.90872
LJ         -0.715943         1.08297         2.42246
LJ         0.0259784         1.69674         2.40301
LJ         -0.746314         1.61762        -1.75264
LJ        -0.0667147        0.793499        -1.80699
LJ          0.836716        0.859812        -2.49174
LJ           1.80167         1.92622         2.50478
LJ          0.986402         1.73017         -1.5449
LJ           1.79562        0.819333        -1.79166
LJ          -2.44924         2.53736        -0.80679
LJ           -1.5205        -1.83034       -0.610222
LJ           2.50943        -1.73356      -0.0587774
LJ          -1.68972         2.42766      -0.0456298
LJ         -0.827262          2.4367       -0.926485
LJ         0.0760988        -1.65898       -0.913741
LJ         -0.795496        -1.78856        0.080795
LJ         -0.232153         2.28717       -0.026875
LJ          0.838878        -2.51448       -0.955711
LJ           1.73293        -1.67013       -0.794793
LJ          0.692257        -1.91571     0.000339468
LJ           1.55904        -2.46883       -0.157211
LJ           2.51424       -0.922077       -0.785648
LJ          -1.79908        0.160059       -0.782067
LJ           2.54943      -0.0336119      -0.0416456
LJ          -1.73221       -0.722781      -0.0362805
LJ         -0.798636       -0.749939       -0.897477
LJ        -0.0635165        0.180432       -0.833506
LJ         -0.833135      -0.0281098      -0.0662318
LJ        -0.0249381       -0.780556     -0.00983173
LJ          0.737479       -0.926378       -0.698664
LJ           1.71324       -0.113665       -0.813043
LJ          0.837226       0.0432606       -0.110972
LJ           1.66869       -0.960596      -0.0254132
LJ          -2.50643         1.01137       -0.810554
LJ          -1.57029         1.67507        -1.08616
LJ          -2.51701         1.73692        0.067808
LJ          -1.91931        0.790679       0.0753295
LJ         -0.990276        0.719543       -0.853214
LJ        -0.0469347         1.64845       -0.944686
LJ         -0.845255         1.47211      -0.0747394
LJ         0.0808304        0.999869       0.0727891
LJ          0.811483         1.05109       -0.720507
LJ           1.81774         1.69325       -0.924611
LJ          0.764859         1.91393      0.00192761
LJ           1.76523        0.832806       -0.136775
LJ           2.42534        -2.47788        0.993501
LJ          -1.51441         -1.7357         1.00222
LJ          -2.49174        -1.55817         1.81918
LJ           -1.9073         2.51958         1.65252
LJ          -0.67004        -2.52078        0.916352
LJ          0.217091        -1.68521        0.926357
LJ          -0.91586         -1.6667         1.77067
LJ         0.0868689        -2.49319         1.79693
LJ           1.18416        -2.49631        0.884013
LJ           1.77448         -1.4918        0.898658
LJ          0.951942        -1.68662         1.71481
LJ            1.5898        -2.42017         1.82153
LJ           2.50804       -0.626441        0.907557
LJ           -1.8595       0.0709678        0.783953
LJ           2.55762      -0.0239599         1.89436
LJ          -1.68953       -0.897369         1.58136
LJ         -0.676937        -0.84242        0.891209
LJ          0.077987       -0.104473        0.890879
LJ         -0.810743       0.0934851         1.95432
LJ          0.102701       -0.945236          1.6696
LJ          0.908272       -0.859943        0.913497
LJ           1.58698      -0.0571512        0.644579
LJ          0.800472      -0.0976526         1.93133
LJ            1.7068       -0.900799         1.74544
LJ           2.44801        0.760084        0.734015
LJ           -1.5516         1.89874        0.850453
LJ          -2.56217         1.63031         1.57524
LJ          -1.55527        0.884254          1.6456
LJ          -1.02857        0.697957        0.836839
LJ          0.124289         1.65815        0.822433
LJ         -0.746905         1.73305         1.46347
LJ        -0.0245839        0.870031          1.6973
LJ          0.778668        0.766424         1.00613
LJ           1.78692         1.72611        0.804721
LJ          0.986519         1.59543         1.82304
LJ           1.70785         0.88085         1.67299
