108
#Comment!
LJ          -2.53587        -2.44826         2.49633
LJ          -1.70062        -1.67713         2.41634
LJ          -2.46905        -1.69509        -1.64544
LJ          -1.69165        -2.39745         -1.7578
LJ          -0.85175         2.46882         2.48683
LJ         0.0666036        -1.95039          -2.482
LJ          -1.00697        -1.48927        -1.58105
LJ         0.0771905         2.15399        -1.67767
LJ          0.996667         2.36736        -2.44605
LJ           1.85215        -1.70308          2.5178
LJ           1.05268        -1.80374         -1.7352
LJ           1.94053         2.55947        -1.57756
LJ           2.46452       -0.935139        -2.54285
LJ          -1.76093       0.0654493         2.53642
LJ          -2.52213        0.176933        -1.85419
LJ          -1.64522       -0.461403        -1.44543
LJ          -1.17965       -0.853473        -2.40874
LJ        -0.0443769       -0.204969        -2.39023
LJ         -0.800603       0.0419117        -1.71142
LJ         -0.152663       -0.994255        -1.82387
LJ            0.9566        -1.09747         -2.4595
LJ            1.6386       0.0338181          -2.525
LJ          0.719832      -0.0106809        -1.68061
LJ           1.67098       -0.851906        -1.72039
LJ          -2.39819         1.10844         2.41847
LJ          -1.73944         1.89874         2.49687
LJ          -2.49874         1.67054        -1.63915
LJ          -1.54841        0.876283         -1.6324
LJ         -0.643932         1.10757        -2.53479
LJ          0.155241         1.80247         -2.5553
LJ          -0.86969         1.70745        -1.73913
LJ         0.0869104         1.01198        -1.74697
LJ           1.03035         0.82829        -2.42169
LJ           1.84927          1.9032         2.48892
LJ          0.970884         1.67915        -1.63741
LJ           1.84701        0.878127        -1.80996
LJ           2.51858         2.42354       -0.644876
LJ           -1.5622        -1.91637       -0.738529
LJ          -2.39659        -1.74627       -0.137464
LJ           -1.7505         2.44548       -0.062245
LJ         -0.670121        -2.49465       -0.926508
LJ          0.109247        -1.68964       -0.895367
LJ         -0.507885        -1.68624      -0.0293988
LJ         -0.220143         2.37452        0.193108
LJ          0.752238        -2.50838       -0.958243
LJ           1.75177        -1.65125       -0.922818
LJ          0.603546        -2.05348       0.0973777
LJ           1.71873         -2.3342      -0.0483234
LJ          -2.39801       -0.917018       -0.724328
LJ          -1.80957       0.0283329       -0.589104
LJ           2.47937       0.0487731       0.0504948
LJ          -1.63131       -0.876351       0.0603215
LJ         -0.582357       -0.825746       -0.779318
LJ         0.0525873        0.240173       -0.884723
LJ         -0.889286      -0.0775337      -0.0349735
LJ         0.0538773       -0.829363        0.205179
LJ          0.850768       -0.979259        -0.77737
LJ           1.87902       -0.117973        -0.84716
LJ          0.790539       0.0290992      -0.0172284
LJ           1.67153       -0.930286       -0.131969
LJ          -2.44635        0.920675       -0.924345
LJ          -1.62606         1.80337       -0.868883
LJ           2.48525         1.69754         0.13887
LJ          -1.93928        0.962711      -0.0300324
LJ         -0.949586        0.736568       -0.819036
LJ        -0.0481043         1.57839       -0.783117
LJ         -0.849651         1.46453      -0.0636954
LJ        -0.0419605        0.833739        0.103096
LJ          0.872013        0.925242       -0.665743
LJ           1.72925         1.64795       -0.845704
LJ          0.831012         2.02029       0.0171131
LJ            1.7142        0.768742        -0.13367
LJ           2.42447        -2.56208        0.874462
LJ          -1.47174        -1.67774         0.69323
LJ           2.48953        -1.52944         1.68944
LJ          -1.97122         2.49272         1.62435
LJ         -0.732598        -2.53041         1.17676
LJ          0.158922        -1.56664        0.895233
LJ         -0.869119        -1.63662         1.69218
LJ         0.0633907        -2.31923         1.68259
LJ          0.946463         2.43243        0.892863
LJ           1.96145         -1.5547        0.677182
LJ          0.947063        -1.72919         1.68142
LJ           1.67944        -2.51236         1.69714
LJ           2.51112       -0.622482        0.984888
LJ           -1.7033      -0.0697074        0.914013
LJ           2.48945       0.0641218         1.90088
LJ          -1.64892        -1.01232          1.5649
LJ         -0.692341       -0.885209        0.977795
LJ         0.0878811       0.0115955          1.0244
LJ          -0.90768        0.145311         2.07768
LJ         0.0780937       -0.976237         1.83079
LJ           1.04024       -0.988777        0.760193
LJ           1.64573       -0.131556        0.698524
LJ          0.779679      -0.0290013         1.86562
LJ           1.56299       -0.867995         1.69006
LJ           2.45429        0.741779        0.949093
LJ            -1.503          1.8614        0.806301
LJ             2.478         1.65178            1.55
LJ          -1.66249        0.946609         1.59793
LJ         -0.982488        0.580151        0.774676
LJ          0.226841         1.51271         0.84523
LJ         -0.822115          1.5769         1.57017
LJ          -0.12432        0.864743         1.53555
LJ          0.879937        0.699105        0.861448
LJ           1.73503         1.74992        0.701447
LJ          0.886263         1.58364          1.7553
LJ           1.82991        0.861421         1.76002
