108
#Comment!
LJ          -2.55717        -2.28239         2.52605
LJ          -1.66841        -1.43748         2.48349
LJ          -2.35241         -1.5413         -1.8049
LJ          -1.70744         -2.4856        -1.71923
LJ         -0.769415         2.39442        -2.42535
LJ         -0.128972         -1.4416         2.45941
LJ         -0.887895        -1.43323        -1.92425
LJ         0.0970411        -2.50104        -1.94601
LJ          0.991903        -2.38639         -2.4276
LJ           1.66931        -1.57249         2.40506
LJ            1.1273        -1.70407        -1.75837
LJ           1.89397        -2.52076        -1.66337
LJ           2.49886       -0.699956        -2.42041
LJ          -1.88044      -0.0934398         2.32667
LJ           2.53633     -0.00617549        -1.60679
LJ          -1.62466       -0.486578        -1.67064
LJ         -0.800417       -0.632682        -2.52699
LJ          0.229525       -0.040564        -2.25926
LJ         -0.743043       0.0347115        -1.73235
LJ           0.14312       -0.914158        -1.54191
LJ          0.754286        -1.01246        -2.51148
LJ           1.69144       0.0520919        -2.41638
LJ          0.869557        0.283319        -1.61895
LJ           1.50453       -0.636114        -1.59243
LJ          -2.52509         0.87681        -2.41338
LJ          -1.78823         2.02539         2.42328
LJ          -2.55691         1.73765        -1.54547
LJ          -1.61956        0.628021        -2.13842
LJ         -0.557321        0.839471         2.48794
LJ         0.0794234         1.78384         2.44615
LJ          -1.25896         1.69717        -1.62098
LJ         -0.080938         1.03529        -1.59004
LJ          0.990812        0.962504        -2.53185
LJ           1.70948         1.89273         2.54291
LJ          0.920521         1.83587        -1.78662
LJ           1.70994         1.02372        -1.82862
LJ            2.5341         2.54316       -0.733284
LJ          -1.40073        -1.67569       -0.840735
LJ          -2.24313          -1.597      -0.0611209
LJ          -1.69422         2.42632        0.215837
LJ           -0.7155        -2.52483        -1.06011
LJ          0.050516        -1.90547       -0.635604
LJ         -0.695868        -1.80583       -0.022296
LJ         -0.017311         2.31573        0.167903
LJ          0.962797        -2.48136        -1.00215
LJ           1.84267        -1.55377       -0.937804
LJ          0.786633        -1.98709        0.228979
LJ           1.73526        -2.55057       0.0990266
LJ          -2.34757       -0.751244       -0.810849
LJ          -1.91225        0.230309       -0.953939
LJ          -2.37239      -0.0343141      -0.0068531
LJ          -1.54291       -0.629012       -0.140949
LJ         -0.734636       -0.704438       -0.795111
LJ         0.0233629      -0.0771673       -0.954692
LJ         -0.716083       -0.134977     -0.00708957
LJ         0.0385429        -1.05969        0.136872
LJ          0.938499        -1.07868       -0.618407
LJ           1.87406       -0.231421       -0.639041
LJ          0.730075       0.0867605     -0.00495005
LJ           1.88173        -1.02933       0.0878499
LJ           2.38003        0.844238       -0.777706
LJ          -1.79945         1.68235       -0.671389
LJ           2.42789         1.69639      0.00267807
LJ          -1.77636        0.958294         0.11327
LJ         -0.960511        0.788433        -1.02654
LJ        0.00870002         1.77203       -0.851272
LJ         -0.722697         1.66257      -0.0933275
LJ         0.0949047        0.901865       -0.127829
LJ           0.86637         1.05679       -0.987041
LJ            1.6567         1.73823        -0.81882
LJ          0.854999         1.82015       -0.122652
LJ            1.7157         0.82076        0.109123
LJ           2.47014         2.43765        0.731973
LJ          -1.43244        -1.84266        0.835497
LJ           2.48032        -1.53197         1.65303
LJ          -1.90621        -2.40262         1.65719
LJ         -0.810687         2.46624        0.942568
LJ         -0.105077        -1.54691         1.11076
LJ         -0.916844        -1.62168         1.74359
LJ         0.0284019        -2.29682         1.76651
LJ          0.768931         2.46736        0.889264
LJ           1.63668        -1.65656         1.01573
LJ           0.81347        -1.53804          1.6809
LJ           1.72471        -2.49529         1.56732
LJ          -2.41507       -0.830377        0.801334
LJ          -1.79307        0.197652        0.783203
LJ           2.35846     0.000810657         1.67423
LJ          -1.66933       -0.842258          1.6508
LJ         -0.844974       -0.894798        0.920454
LJ          0.154713      -0.0337789        0.858252
LJ         -0.923663      -0.0576455         1.73089
LJ       -0.00406446       -0.744807         1.73817
LJ            0.9873       -0.925358        0.463889
LJ           1.75199       -0.205145        0.829067
LJ          0.943102        0.036945         1.75552
LJ           1.54899         -0.7546         1.71799
LJ           2.34151        0.899135         1.07919
LJ          -1.89514          1.6412        0.896806
LJ           2.45527         1.89074         1.58414
LJ          -1.71117        0.871648         1.64247
LJ          -0.92256        0.924418        0.845967
LJ          0.347876         1.43722        0.791022
LJ          -0.70053         1.48009          1.6606
LJ          0.082507        0.649092         1.64786
LJ             1.067        0.735305         1.04797
LJ           1.58813         1.75726        0.751483
LJ          0.920639         1.83132         1.63326
LJ           1.85644        0.996396         2.00358
