108
#Comment!
LJ          -2.44634        -2.38447         2.42319
LJ           -1.7258        -1.65743         2.52562
LJ          -2.29975        -1.50214        -1.75925
LJ          -1.56487        -2.44597        -1.84842
LJ         -0.731847          2.4561         2.55985
LJ         -0.145855        -1.54384         2.42325
LJ          -1.02094        -1.60104        -1.80964
LJ         0.0901544         2.45683        -1.87813
LJ          0.875262        -2.46419         2.56013
LJ           1.76378        -1.62488         2.41016
LJ           1.01994        -1.78618        -1.68212
LJ           1.87356         2.42298        -1.59161
LJ           2.53909       -0.685388         2.49499
LJ          -1.85077     -0.00228779         2.35659
LJ          -2.47906      -0.0941013        -1.82685
LJ          -1.64138       -0.623349        -1.65551
LJ          -1.05864       -0.722543        -2.54448
LJ         0.0210622       -0.196551        -2.33896
LJ         -0.860742       0.0164934        -1.79077
LJ         0.0386196        -1.06629        -1.73858
LJ          0.824854        -0.98443         2.54466
LJ           1.70403      -0.0268282        -2.41179
LJ          0.810285        0.146811        -1.64719
LJ           1.55227       -0.768987        -1.69869
LJ          -2.48262        0.973429        -2.47746
LJ          -1.79602         1.94475         2.29728
LJ          -2.46621         1.67216         -1.5567
LJ          -1.62897        0.762409         -1.9169
LJ          -0.51125        0.674479         2.55342
LJ          0.125601          1.6754          2.3294
LJ          -1.17195         1.60712        -1.66801
LJ        -0.0419244          1.1581        -1.69132
LJ           1.09922        0.937324         2.52289
LJ           1.79058         1.73887         2.55435
LJ           1.01594         1.81853        -1.96449
LJ           1.60463        0.849308        -1.69744
LJ          -2.52391         2.38245       -0.807385
LJ          -1.47091        -1.70289       -0.900226
LJ          -2.29623        -1.67524      -0.0353313
LJ          -1.55719         2.55992        0.165955
LJ         -0.609184          -2.465        -1.11052
LJ        -0.0077584        -1.72574       -0.776987
LJ         -0.810941        -1.80932      -0.0362871
LJ        -0.0630859          2.2863        0.145453
LJ          0.688547        -2.47684       -0.931105
LJ           1.95484        -1.69807       -0.923482
LJ          0.811351        -1.91102        0.249246
LJ           1.61353        -2.47366       0.0221425
LJ          -2.44315       -0.870798       -0.858565
LJ          -1.95445         0.11973       -0.942388
LJ          -2.44944       0.0755664       0.0779723
LJ          -1.62402       -0.729314      0.00635191
LJ         -0.806577       -0.809712       -0.842999
LJ         -0.229428      -0.0337337        -1.01069
LJ         -0.715614     0.000943524       0.0536843
LJ        0.00633454       -0.796465       0.0497408
LJ          0.935049        -1.29681        -0.79701
LJ           1.82404       -0.168343       -0.659973
LJ          0.905365        0.128552       0.0767782
LJ           1.96811        -1.02982     0.000758671
LJ           2.53592        0.888766       -0.816654
LJ          -1.74406         1.72577       -0.828844
LJ           2.41691         1.51188       0.0808256
LJ          -1.79128         1.10635        0.235103
LJ          -1.11076         0.72889       -0.981155
LJ          0.112382         1.71584       -0.864808
LJ         -0.852264         1.64924       -0.125564
LJ          0.055901         0.89248       -0.171777
LJ          0.938193        0.947809       -0.870416
LJ           1.73192         1.72511       -0.728811
LJ           0.96728         1.61817       -0.139758
LJ           1.56774        0.824691         0.04333
LJ          -2.55901         2.39306         0.65797
LJ          -1.39813        -1.80413        0.831211
LJ          -2.50124        -1.48417         1.56829
LJ          -1.92696        -2.30083         1.49693
LJ          -0.81391         2.35702        0.939637
LJ        -0.0713436        -1.49579        0.980729
LJ         -0.975593        -1.66182          1.8387
LJ         0.0914756        -2.31028         1.69418
LJ          0.817111         2.47053         1.01774
LJ           1.64451        -1.50421        0.992631
LJ          0.903274        -1.61608         1.72652
LJ           1.82405        -2.49615         1.60575
LJ          -2.46647       -0.930117        0.753641
LJ          -1.55394       0.0158274        0.773598
LJ           2.42936      -0.0104613         1.62753
LJ           -1.7037       -0.850364         1.63164
LJ         -0.859865       -0.907362         1.06215
LJ          0.208792      -0.0989941        0.889899
LJ         -0.941407      -0.0193715          1.7332
LJ          0.194888       -0.820224         1.71129
LJ          0.885351       -0.917193        0.622528
LJ           1.74687       -0.317063        0.839153
LJ          0.823059       0.0292623         1.79541
LJ           1.55949       -0.808983           1.805
LJ           2.30352        0.964262         1.00536
LJ          -1.75267         1.83631         1.09398
LJ          -2.54699         1.88797         1.66439
LJ          -1.86689        0.833072         1.55041
LJ         -0.925354        0.874693        0.583695
LJ          0.411126          1.5315        0.794568
LJ         -0.872164         1.42577          1.6689
LJ        0.00493894        0.941709         1.51292
LJ           1.19063         0.72526           1.061
LJ           1.54763         1.69777        0.735434
LJ           1.09089          1.6685           1.744
LJ           1.87508         1.03155          1.8381
