108
#Comment!
LJ           2.48734         -2.4671         2.46831
LJ          -1.67675        -1.86545         2.50179
LJ           2.55585        -1.69018        -1.54177
LJ          -1.92511        -2.49695        -1.81255
LJ         -0.934012         2.52433         2.43089
LJ         -0.212461        -1.80348         2.55919
LJ         -0.933314        -1.49962        -1.70493
LJ          0.064244         2.38533        -1.69938
LJ          0.870198         2.54678        -2.43597
LJ           1.77787        -1.72828         2.54289
LJ          0.803102        -1.60158        -1.57946
LJ           1.95337        -2.54993        -1.60509
LJ           2.44736       -0.859456        -2.54106
LJ          -1.75595        0.124627         2.48133
LJ          -2.52822        0.178891        -1.77494
LJ          -1.82089        -0.67764        -1.41448
LJ          -1.20903       -0.898166         2.50324
LJ         0.0687618       -0.125695         2.54782
LJ         -0.850489        0.128984        -1.78246
LJ         0.0572353       -0.912457        -1.73576
LJ          0.939331        -1.00007         2.56408
LJ            1.6659        0.100421         2.54074
LJ          0.780824       0.0496434        -1.49221
LJ           1.67659       -0.898786        -1.76287
LJ          -2.51651           1.017         2.43056
LJ          -1.72248         1.87173         2.49504
LJ          -2.52304         1.64067        -1.78899
LJ          -1.63682        0.944583        -1.87843
LJ         -0.710502          1.1051         2.37451
LJ          0.032311         1.67666         2.40021
LJ         -0.733945         1.58527        -1.74925
LJ        -0.0543733        0.789618        -1.81403
LJ          0.827069        0.888667        -2.46559
LJ           1.80544         1.91047         2.53722
LJ           0.96036         1.74097        -1.55432
LJ           1.79692        0.822654        -1.76439
LJ          -2.43676         2.51831        -0.81921
LJ          -1.54653        -1.83902       -0.627721
LJ            2.5453        -1.73089      -0.0360566
LJ          -1.66553         2.41634      -0.0348717
LJ          -0.82961          2.4472       -0.910001
LJ          0.058798        -1.66986       -0.940161
LJ         -0.788682        -1.79243        0.104278
LJ         -0.258612         2.29259     -0.00417368
LJ          0.871284         -2.4863       -0.962036
LJ           1.72485         -1.6707        -0.76859
LJ          0.690977        -1.90745       0.0288648
LJ           1.56748        -2.46709       -0.139462
LJ           2.52768       -0.933485       -0.775142
LJ          -1.79874        0.139954       -0.801212
LJ          -2.56458      0.00985693      -0.0272978
LJ           -1.7671       -0.713823      -0.0641392
LJ          -0.78963       -0.744453       -0.900741
LJ        -0.0446695        0.174616       -0.826779
LJ         -0.859937      -0.0258878      -0.0615932
LJ        -0.0578659       -0.777266      -0.0309576
LJ          0.736138       -0.946558        -0.72211
LJ           1.72501       -0.114778       -0.815368
LJ          0.817262       0.0357517       -0.129134
LJ           1.68788       -0.967561     -0.00797218
LJ          -2.50864        0.998476       -0.821129
LJ          -1.59126         1.67835        -1.08819
LJ          -2.52505         1.73413       0.0546825
LJ          -1.92083        0.825186       0.0803897
LJ         -0.993137        0.735986       -0.839609
LJ        -0.0183472         1.66823       -0.933792
LJ         -0.858867         1.47553      -0.0422669
LJ         0.0601629         1.02599        0.055875
LJ          0.760466         1.01062       -0.715129
LJ           1.80639         1.69516       -0.925616
LJ          0.750061         1.88933      0.00657998
LJ           1.78189        0.816719       -0.145216
LJ            2.4171         -2.4933         0.99374
LJ          -1.52349        -1.74303         1.01228
LJ          -2.50907        -1.57671         1.83385
LJ          -1.89441         2.50245         1.64975
LJ          -0.66885        -2.55183        0.901272
LJ          0.224669        -1.67325        0.929387
LJ         -0.929839        -1.65259         1.78703
LJ          0.103349         -2.4892          1.7855
LJ           1.20359        -2.51108         0.93988
LJ           1.80557        -1.52283        0.899945
LJ          0.921969        -1.66007         1.69534
LJ           1.61122        -2.41281         1.81497
LJ           2.52589       -0.630214        0.910843
LJ           -1.8623       0.0517642        0.799917
LJ           -2.5625      -0.0355676         1.89606
LJ          -1.71584       -0.902509         1.59042
LJ         -0.656498       -0.840563         0.87333
LJ         0.0721382      -0.0924257        0.859144
LJ          -0.80097       0.0769993         1.96003
LJ          0.125574       -0.936479           1.656
LJ           0.90354       -0.867859        0.934903
LJ           1.59183      -0.0530568        0.635703
LJ          0.807386       -0.100228         1.91091
LJ           1.71981       -0.915427         1.73666
LJ           2.41951        0.774759        0.730882
LJ          -1.56136         1.89164        0.845919
LJ           2.53375         1.64085         1.55154
LJ          -1.55068        0.885602         1.60869
LJ          -1.00282        0.674381        0.812688
LJ          0.079307          1.6533        0.822981
LJ         -0.766627         1.74694         1.45424
LJ         0.0100207        0.861455         1.70276
LJ          0.768653        0.784959         1.01406
LJ           1.77891         1.73774        0.798782
LJ           0.98224         1.59485         1.83134
LJ           1.71231        0.877786         1.67871
