108
#Comment!
LJ          -2.44727         -2.2771         2.38659
LJ          -1.68931        -1.56181         2.39525
LJ          -2.23371        -1.55772        -1.61879
LJ          -1.57238        -2.41478          -1.794
LJ         -0.785995         2.46223         2.52127
LJ         -0.126907        -1.75255         2.55247
LJ          -1.07581        -1.52562        -1.81483
LJ           0.16017         2.36944        -1.88989
LJ           0.95864        -2.53542          2.4973
LJ           1.70966        -1.58373         2.41704
LJ           1.00103        -1.82583        -1.70305
LJ           1.96809          2.4061        -1.83022
LJ          -2.49207       -0.765186         2.52496
LJ          -1.75941      -0.0487905         2.40814
LJ           -2.5007         0.01728        -1.78298
LJ          -1.68157       -0.652036        -1.63771
LJ          -1.10768       -0.860258        -2.49725
LJ        0.00612623       -0.176157        -2.33809
LJ          -1.00461       0.0742358        -1.87433
LJ         0.0466222        -1.11441        -1.69306
LJ           0.87785       -0.873063         2.55662
LJ           1.70301    -0.000810886        -2.43407
LJ          0.877658         0.15604        -1.78251
LJ           1.61476       -0.642203        -1.70041
LJ          -2.46613        0.996988        -2.47184
LJ          -1.70054         2.01097         2.34655
LJ          -2.51652         1.59606        -1.57133
LJ          -1.70444        0.711834        -1.89053
LJ         -0.438402        0.780298         2.42809
LJ          0.173543         1.59251         2.32375
LJ          -1.22852         1.65071         -1.7525
LJ       -0.00206056         1.11763        -1.84847
LJ           1.05117        0.948744         2.46663
LJ           1.88402         1.71342        -2.55309
LJ          0.945723           1.765        -1.92299
LJ           1.58307        0.870232        -1.66987
LJ            2.5575         2.41367        -0.83007
LJ          -1.42984        -1.70835       -0.852803
LJ          -2.24302        -1.75084     -0.00934111
LJ          -1.65754          2.5631        0.135384
LJ         -0.543632        -2.50413        -1.11994
LJ         0.0219019        -1.69573       -0.820258
LJ         -0.778814        -1.93989       0.0152375
LJ        -0.0478259         2.24577         0.07738
LJ          0.771241        -2.54927       -0.918896
LJ           1.94659        -1.72012        -0.90821
LJ          0.795788        -1.82409        0.373982
LJ           1.74799        -2.49456       0.0196806
LJ          -2.36207       -0.858032       -0.822555
LJ          -1.93384       0.0112525       -0.875243
LJ          -2.45552     -0.00179119       0.0806467
LJ          -1.69305       -0.703734       0.0672628
LJ         -0.672172       -0.839751       -0.821201
LJ         -0.201315      -0.0826092        -1.06596
LJ         -0.685845      0.00111032       -0.040615
LJ         0.0472202       -0.817265        0.108917
LJ           1.04609        -1.26958       -0.889548
LJ           1.84697       -0.169087       -0.636267
LJ          0.985219        0.104692       0.0915422
LJ           1.91832       -0.981085       0.0126909
LJ           2.44151        0.855877       -0.832804
LJ          -1.61765          1.7246       -0.830079
LJ           2.31791         1.59572       0.0759647
LJ          -1.82469         1.02579        0.340545
LJ          -1.12356         0.72437       -0.937529
LJ           0.15864         1.70173         -0.8722
LJ         -0.846712         1.60732       -0.242506
LJ        -0.0323167        0.822036       -0.237997
LJ           1.01234        0.778106       -0.840809
LJ           1.68572         1.64996       -0.760996
LJ          0.900649         1.70078       -0.182242
LJ           1.62079        0.796309      -0.0303303
LJ           2.55389         2.35507        0.667182
LJ          -1.36043        -1.79728        0.844907
LJ          -2.56246         -1.5069         1.61964
LJ          -1.96756        -2.30748          1.5313
LJ         -0.793565         2.45369        0.920637
LJ         -0.122768        -1.53453        0.937126
LJ         -0.864965        -1.73531         1.94591
LJ        0.00572741        -2.35919         1.74844
LJ          0.809571         2.45428        0.981863
LJ           1.63665        -1.54772        0.844849
LJ          0.856105        -1.64607         1.77835
LJ           1.79047         -2.4666         1.60007
LJ          -2.49187       -0.893675        0.739697
LJ          -1.48901       -0.054499        0.776422
LJ           2.52582      -0.0784712         1.66589
LJ          -1.71824       -0.759699         1.64653
LJ         -0.912643        -0.88644         1.12799
LJ          0.177422       -0.134546        0.975845
LJ         -0.942085       0.0278141          1.7902
LJ           0.20453       -0.812088         1.74648
LJ          0.846667       -0.864224        0.637017
LJ           1.73623       -0.282266         0.72694
LJ          0.691134       0.0258855         1.83548
LJ           1.59171       -0.807411         1.69236
LJ           2.25086         0.90565        0.951039
LJ          -1.76074         1.79098        0.927936
LJ           2.50181         1.82906         1.70466
LJ          -1.92665        0.853351         1.44145
LJ          -0.86807        0.879879        0.630304
LJ          0.402538         1.55435        0.769702
LJ         -0.916334         1.37531         1.64869
LJ         0.0725786        0.928951         1.49075
LJ           1.14056        0.647907         1.02839
LJ           1.51594         1.63756        0.605124
LJ           1.10677         1.75811         1.74518
LJ            1.7912         1.03944         1.86703
