108
#Comment!
LJ          -2.18854          2.4103       -0.191801
LJ          0.814806        0.852192        0.298678
LJ          -1.33674        -0.52648         1.44222
LJ           1.14219       -0.448879         1.87524
LJ          0.920313        -1.91897       0.0349871
LJ          -2.34187       -0.659908       -0.480112
LJ           1.74754        -1.79376         1.23902
LJ            -1.429       0.0901074         0.25981
LJ           2.31561        -1.85179        -1.63284
LJ           2.49208        -1.73214        -0.61036
LJ           2.20922         2.38737        -1.11656
LJ          0.871704         -2.1614         2.16316
LJ          -2.42114        0.824804        -2.11181
LJ         0.0557141         2.12142        -2.20857
LJ         -0.276599       -0.857052       -0.494916
LJ         -0.381909         1.61296        -1.29614
LJ           2.02555        -0.90881        0.552484
LJ          0.475771         1.26508       -0.770373
LJ           2.36265         1.17646         1.88947
LJ         -0.703756        0.368461         1.63585
LJ          -1.95371         1.67626         2.33911
LJ           1.07173        0.725495         2.01158
LJ           1.58561       -0.350961       -0.996792
LJ           1.47038         2.55219        -1.83279
LJ           1.08916       -0.234713          -2.162
LJ         -0.668239         2.27035       -0.372284
LJ         -0.587405         1.84159         1.09332
LJ           1.63695       0.0547366        0.301002
LJ          -2.52385        0.313868       -0.125952
LJ            1.7497        0.730973         1.04458
LJ         -0.647864        0.655473         -1.5448
LJ          0.561112        -2.13541        -1.94388
LJ          -1.08903        -1.94074        0.726684
LJ          -2.01022         1.06425        0.467719
LJ           1.38222         1.62903         1.60488
LJ         0.0648912        -0.81058        -1.67947
LJ           2.27155         2.14331         1.03026
LJ           2.36876       -0.848704        -1.50531
LJ          -2.49875        -1.78593        -2.53444
LJ          -2.13825        -2.26442        0.788659
LJ           -1.8568        0.385873         1.69775
LJ         -0.206435        -2.29987         1.34192
LJ           2.13535         1.45049       0.0164081
LJ          -2.06169        -1.13837         0.48869
LJ         -0.501948        0.617558        0.645477
LJ           1.43044        -2.23921       -0.833204
LJ           1.68489        -1.23902       -0.259491
LJ          0.824338        -1.19476       -0.884769
LJ           1.45347        -1.14327        -1.80392
LJ        -0.0398515        -2.04722       -0.717108
LJ           -1.0453       -0.965359        0.315823
LJ        -0.0355954       -0.278432        0.451979
LJ          -1.33289        0.797554         2.45318
LJ          -1.70117       -0.970834        -1.23839
LJ          0.616608        -1.18476         1.21505
LJ          0.884325       -0.832548        0.327787
LJ           1.89152        -2.32192        0.161035
LJ          -0.31939         1.01729         2.31938
LJ           2.10215         2.03782         2.34917
LJ           1.96664        0.191559         1.92539
LJ         -0.867858       -0.572873         -1.6199
LJ         -0.659359        -1.88131        -1.92814
LJ         -0.250639       -0.565971         1.49156
LJ          0.769353        -2.30998         1.05304
LJ         -0.291035        0.264768       -0.636041
LJ         -0.971795        -0.31593         2.40286
LJ          -1.45527        -1.18804        -2.22892
LJ          -1.51998         2.06188       -0.852783
LJ           0.62773         2.24371         -1.3363
LJ          0.277085         1.02814         1.42031
LJ          -1.18702        -2.45753         1.52496
LJ           1.23422         1.86144        0.633041
LJ           1.89876         1.52692        -1.88438
LJ         -0.767015        -1.40557         1.85694
LJ           2.18094       0.0184365        -2.07914
LJ          -1.31668      -0.0401659       -0.734953
LJ          -1.01367         -1.6402        -1.02934
LJ          -2.31663        -2.56377         1.76863
LJ           1.23636         1.89498       -0.544032
LJ          0.115162       -0.133919         2.39111
LJ          -1.55747        0.118245        -1.87267
LJ           1.44414        0.874937       -0.889876
LJ         -0.879996         1.15752       -0.506785
LJ          -1.82521         1.08394       -0.662968
LJ          -2.21744         1.94527        -1.86675
LJ          -1.42449         1.28682         1.30135
LJ          -2.52169       0.0868588        0.934419
LJ          0.349712         2.08599          1.9183
LJ        -0.0572909          -1.622        0.411408
LJ          0.549047        -1.12832        -2.55745
LJ           2.36164         1.29584        -1.00419
LJ           0.99417         1.68952        -2.36041
LJ          0.320684         2.35158        0.113953
LJ          -1.95981        -1.42178         1.65902
LJ         -0.132516        -2.08502         2.32621
LJ           2.28126       -0.784483         1.62423
LJ          -2.26583        0.169849        -1.08645
LJ          -1.40674         1.31183        -1.60912
LJ          -1.36565         2.14863        0.493321
LJ         -0.814472         1.93062          2.5387
LJ          -1.58722        -2.23971        -1.69312
LJ          -1.45202         -2.1108         2.42243
LJ          0.325392        0.404286        -1.77046
LJ           1.72066        -1.22909         2.44271
LJ          0.636966       -0.176253       -0.459252
LJ          -1.66129        -1.83737      -0.0859255
LJ           0.80653        0.112305         1.08226
LJ          -2.06763       -0.347033         2.38305
