108
#Comment!
LJ           2.55959        -2.43255        -2.55716
LJ          -1.72628        -1.67738         2.48421
LJ           2.50066        -1.70065        -1.71349
LJ          -1.71966        -2.37422        -1.75173
LJ         -0.823838         2.53455         2.53723
LJ         0.0384604        -2.01918        -2.51864
LJ          -1.08666        -1.43671        -1.58432
LJ         0.0581358         2.25852        -1.67338
LJ          0.962693         2.32616        -2.48706
LJ           1.80406         -1.7653         2.53808
LJ           1.01307        -1.73129        -1.66759
LJ           1.92055         2.47016        -1.56921
LJ           2.40771       -0.804787         2.52118
LJ          -1.82502        0.125876         2.51799
LJ           2.54632        0.162226        -1.89147
LJ          -1.63148       -0.544353         -1.5757
LJ          -1.11771       -0.867006        -2.43954
LJ        0.00277616        -0.21195        -2.47572
LJ         -0.835483      -0.0583907        -1.66141
LJ          -0.10466        -1.03065         -1.8749
LJ           1.02961        -1.05865        -2.45887
LJ           1.69316       0.0267825        -2.48266
LJ          0.791431       0.0266205         -1.7687
LJ           1.63251       -0.708928          -1.745
LJ          -2.43154         1.08731         2.48415
LJ          -1.77289         1.87919        -2.55885
LJ          -2.48311         1.62014        -1.63152
LJ          -1.50801        0.887141        -1.80507
LJ         -0.659344         1.08328         2.56072
LJ          0.103394         1.77491         2.47886
LJ         -0.799476         1.72998        -1.67005
LJ         0.0364446         1.07413        -1.73509
LJ           1.02614        0.857674        -2.52965
LJ           1.82149         1.83384         2.50232
LJ          0.906511         1.75305        -1.64248
LJ            1.7645        0.894191        -1.83977
LJ           2.45395         2.38206       -0.668069
LJ          -1.48088        -1.92391       -0.756793
LJ          -2.47979        -1.79458       -0.112044
LJ          -1.80071          2.4156      -0.0551945
LJ         -0.644805        -2.47415        -1.02693
LJ          0.121426        -1.67415       -0.886804
LJ         -0.447304        -1.72452      -0.0286421
LJ         -0.278188         2.40933        0.125209
LJ          0.822264        -2.53706       -0.988627
LJ           1.75618        -1.69048       -0.968863
LJ          0.614024        -2.11038       0.0129383
LJ           1.75576        -2.34835       -0.052437
LJ          -2.41303        -0.91041       -0.651785
LJ          -1.83043       0.0782382       -0.663413
LJ            2.4841       0.0746867      0.00240038
LJ          -1.52232       -0.952724      -0.0166287
LJ         -0.605245       -0.880486       -0.761102
LJ        -0.0645873         0.26262       -0.976023
LJ         -0.925821         -0.0971       -0.122085
LJ         0.0104017       -0.773375        0.242791
LJ          0.880068        -1.06386        -0.74068
LJ            1.9427       -0.178973       -0.888463
LJ          0.749434    -8.43839e-05      -0.0595033
LJ           1.64054       -0.911076       -0.124685
LJ          -2.40131        0.896695        -0.96004
LJ          -1.57803          1.7159       -0.814269
LJ           2.44095         1.69505        0.116335
LJ          -1.94728         1.00323      0.00932828
LJ          -1.08195        0.682919       -0.860352
LJ         0.0276362         1.67503       -0.794029
LJ         -0.781959         1.54933       -0.152674
LJ         -0.038383        0.882785        0.048327
LJ          0.758424        0.994677       -0.619613
LJ           1.55642         1.63515       -0.990002
LJ          0.876958         2.04853      -0.0366704
LJ           1.71848        0.813327       -0.244503
LJ           2.45127         2.49938        0.855602
LJ          -1.41194        -1.74926        0.640521
LJ           2.47754        -1.57075         1.82045
LJ          -2.02341         2.52711          1.6977
LJ         -0.711237        -2.46483         1.10752
LJ          0.120192         -1.6688         0.92888
LJ         -0.898107        -1.70913         1.68757
LJ         0.0759587        -2.34212         1.77273
LJ          0.904875         2.45189        0.892275
LJ           1.93719        -1.50082        0.695371
LJ          0.971192        -1.86616         1.66732
LJ            1.7039         2.51944         1.73247
LJ           2.52424       -0.637288         1.02076
LJ          -1.68737      -0.0941945         0.89294
LJ           2.52576      0.00323448         1.88215
LJ          -1.68167       -0.928291         1.59977
LJ         -0.709148       -0.826087        0.945759
LJ          0.059498      -0.0115538         0.99755
LJ         -0.871108        0.199266         1.98228
LJ          0.132602       -0.873307         1.88151
LJ           1.03382       -0.987292        0.687599
LJ           1.70395       -0.169442        0.752813
LJ          0.799421      -0.0196829         1.92789
LJ           1.68121       -0.859472         1.67812
LJ           2.50395         0.85429        0.917327
LJ          -1.47662         1.87439         0.78126
LJ           2.40316         1.70777         1.57666
LJ          -1.71132        0.982446         1.54578
LJ         -0.875794        0.663333        0.847993
LJ          0.252895         1.45479        0.854334
LJ         -0.888684         1.58088         1.56353
LJ        0.00268461        0.878084         1.64067
LJ           1.01105        0.698957        0.815358
LJ           1.63976         1.69325        0.646447
LJ          0.900131         1.54115         1.83018
LJ           1.74048        0.829335         1.78755
