108
#Comment!
LJ           1.21289        0.937419         0.43314
LJ          -1.23684         1.23309       -0.531363
LJ         -0.680328        0.563358         1.19412
LJ          0.422604        -2.43235       -0.129106
LJ         -0.656757         2.51176         1.34734
LJ           2.50334         1.73938        -2.24893
LJ           -1.0254         -1.4771        0.895971
LJ         -0.161195        0.100584         2.40713
LJ          0.191631         2.04612        0.704078
LJ          0.612198        -1.00991         1.39642
LJ           1.98922         1.81427        -1.14543
LJ          -2.07443        -1.99715         1.35531
LJ          -1.39717       -0.671892         1.89252
LJ           2.02896       -0.635823       -0.549672
LJ          -1.93082        -1.04239        -0.76979
LJ          -0.88839         2.47436        -2.33615
LJ         -0.464684       -0.904079         2.16368
LJ           1.21032        0.250101       -0.849845
LJ           1.84869       -0.651322         2.33647
LJ           -1.6039          1.3655         1.16994
LJ          -1.24747        0.568026         2.29286
LJ          -2.22818       0.0448575       -0.965303
LJ           2.01517        0.376839       -0.117443
LJ           2.46819        -2.30822         -1.8091
LJ          0.824169        0.522193         -2.4229
LJ        -0.0925757        -2.50278        -1.25905
LJ          0.325538        0.440064        -1.43561
LJ          0.170798       -0.683434        0.246227
LJ           1.92037         1.49146        -0.17223
LJ          0.751296        -0.59742         2.39287
LJ         -0.828786        -1.56113        -2.04328
LJ          -1.40348         1.70776         2.36547
LJ           1.00157        -1.23155       -0.260134
LJ          -2.32836       -0.255037        0.164516
LJ         -0.557229         1.46302         1.68603
LJ          -1.00114         -2.5581        0.394496
LJ          -2.50229        0.111256         2.28306
LJ           -1.0516         1.54895        -1.46209
LJ           1.19691         1.10793        -1.67186
LJ         -0.512698       -0.625985         1.04859
LJ          -2.53317       -0.133274        -1.86917
LJ         -0.468258         2.06162       -0.430777
LJ          0.320944        0.998617        0.855637
LJ          -0.20332         -1.6721        0.312881
LJ          0.417143     0.000682356         1.39576
LJ          -2.29305        -2.03947       -0.826061
LJ           2.34308        -1.16467        -1.58259
LJ          -1.32348        0.101484       -0.213824
LJ         -0.722266        -2.06503       -0.531357
LJ           1.04675       -0.884852        -1.30374
LJ           1.72005        0.131545         1.60553
LJ           1.18285       -0.172998        0.635481
LJ          -1.75672        0.114438        0.974367
LJ          0.518861         0.30422       0.0670782
LJ          -2.24332         1.21528       -0.934277
LJ          -2.46659         2.13129       -0.252809
LJ           1.41379          -2.429        -2.10388
LJ         -0.117035        -0.48367       -0.813358
LJ           1.76279        0.681471         -2.4777
LJ           1.40247       -0.110518        -1.82818
LJ          0.112485        -1.53617        -1.11669
LJ           2.16604         1.51505        0.942815
LJ           1.45483        -1.32562        -2.19545
LJ          -1.91628         2.31388        0.627443
LJ          0.297349       -0.568394        -1.83782
LJ          -2.00311        -1.28296         2.26242
LJ          -1.86176        -2.29477        -2.55808
LJ          -1.74509         2.28059        -1.71173
LJ          0.443153        -2.19801         1.01925
LJ           2.28335        -2.51059        0.635262
LJ            2.3421        -1.80137        -2.54192
LJ        -0.0969268         -1.8303         1.95382
LJ           0.39077         1.86519        -2.03482
LJ           -1.1784        -1.79553         1.90516
LJ           1.70016        -1.72802       -0.857826
LJ         -0.754188        0.155102        -1.65264
LJ          -1.52295         2.34084       -0.670901
LJ          0.895983         -1.7607         2.21853
LJ           1.49687         -2.1905         1.40776
LJ           0.27765        0.981043          1.9513
LJ           2.16736       -0.532248        0.972776
LJ           2.16985        0.659558        -1.38454
LJ          -1.38633        -0.47225        -2.17731
LJ          -1.95341        0.884618        0.113915
LJ            1.8528         1.98133         1.85729
LJ            1.1323         2.05824        0.992586
LJ           1.22345         1.24907         1.65242
LJ          -2.03314         2.16721          1.7217
LJ          -2.56485        0.689319         1.34913
LJ         -0.908196       -0.914148     -0.00641007
LJ         -0.291488         1.02397        -0.21994
LJ          0.323965         2.20787          1.7798
LJ          -1.78369         -2.0136      0.00062137
LJ           1.25662        -1.55281        0.648887
LJ          0.175244         1.41375        -1.05386
LJ         -0.892464         1.61935        0.463749
LJ         -0.989358       -0.916748        -1.11991
LJ          -1.93645        0.909335        -1.93403
LJ           2.12727         -1.3908         1.59968
LJ         -0.468558         1.02282        -2.34157
LJ          -1.97871       -0.829004        0.964789
LJ          -2.21215         1.27094          2.0632
LJ          0.772857         1.69186       -0.141385
LJ          0.418401        -1.49377        -2.06551
LJ         -0.494742        0.199591        0.333674
LJ          -1.86275        -1.54649        -1.84376
LJ           2.26301        -1.41033        0.468964
LJ          0.888706          2.4093        -1.11312
