108
#Comment!
LJ           1.04193         -1.6191         1.07946
LJ           1.47163       -0.556394         1.42379
LJ         -0.872622         1.52698        -2.17853
LJ         -0.677048       -0.921813        -1.38671
LJ         -0.132282        0.342102         1.45478
LJ           1.36974         2.30777       0.0499513
LJ          0.603086        0.200174        -1.38132
LJ           1.70292       -0.138922        0.428165
LJ           1.01878        0.465746          2.3291
LJ           -2.1556          1.3906       -0.251687
LJ           1.49105        -1.49304       -0.228906
LJ          0.526945        -0.51405         1.70403
LJ           -1.2156        -2.17415      -0.0188024
LJ         -0.179051         1.44768         2.04878
LJ             2.439       -0.231465         1.17914
LJ           -1.1365        -1.23104        0.649314
LJ         -0.985479        -1.62963         1.66052
LJ           2.04006         1.35469       0.0285592
LJ          0.735229        -2.40413         2.31435
LJ           2.23993       -0.674241       -0.710466
LJ          0.821781         2.51627        -1.77712
LJ         -0.212648         2.10895        -1.54345
LJ         -0.527181        0.316459        -1.50978
LJ          -2.26191        0.937749         1.74622
LJ          0.330603       -0.861406        -1.11314
LJ          -1.62091         2.26524         1.43433
LJ           2.00837        -1.24886        0.781524
LJ        -0.0777413       -0.269024         2.46788
LJ          0.023984         1.44931         1.06454
LJ             -1.01       -0.305934         -2.3058
LJ           1.79311        -2.29497         -1.4589
LJ           -1.1974         -1.8975        -1.99978
LJ           2.48624        -1.56877        -1.29318
LJ         -0.954224         2.00337       -0.670094
LJ          -2.21274        -1.70664      -0.0514632
LJ         -0.962304         1.69937        0.604754
LJ           1.22365         1.53282        0.658024
LJ          -1.78259       -0.322747         1.71916
LJ           1.32934        -0.81704        -1.26611
LJ        -0.0663395       -0.245517       -0.252349
LJ          0.877838          -1.773        -0.88035
LJ          -2.41509       -0.611119        0.260808
LJ         -0.980462        0.103942       -0.551685
LJ          -1.77431         2.47684         2.39538
LJ           1.96673        -2.21288        0.680911
LJ          -2.26276         1.96037        -1.07915
LJ           -1.4967         1.04933         -1.1269
LJ           1.14043        0.440396         1.30469
LJ          0.387619        -2.54002         1.13837
LJ          0.321394        -1.62088         1.95954
LJ          -1.95274         1.38272        0.821334
LJ          -1.59334         1.48359         2.15322
LJ           1.81875            1.31         2.06716
LJ         -0.167908         2.06351         0.12011
LJ           2.08685        0.714451        0.829253
LJ          -1.86863        0.173715        -2.09084
LJ         -0.666197          2.4488         1.79458
LJ         -0.262554        -2.00851        -1.32218
LJ          0.747516       -0.554343        0.612385
LJ           1.60047        0.493271        -1.88442
LJ          -2.03747        -1.92676        0.921029
LJ         -0.366075        -1.46695        -2.33217
LJ          -1.94485         2.24555        0.241956
LJ           1.96625       -0.064255         2.27724
LJ           2.54482        0.419839      -0.0974152
LJ           1.64636        0.523893       -0.638741
LJ          -2.01234        0.163436       -0.899339
LJ          0.901901       -0.325245        -2.21357
LJ         -0.718974        -2.42168        0.771323
LJ          -1.83987       -0.894813        -1.80542
LJ           1.79328        -2.29552        -2.54485
LJ          -1.04092        0.940979      -0.0286361
LJ          0.831625         1.45614        -1.42098
LJ           2.33835         1.72896         1.10087
LJ           1.90021         1.79969        -2.12035
LJ         -0.521436       -0.619643         1.47814
LJ          0.728502        -1.26937        -2.14292
LJ          -2.54842        0.963823        -1.40819
LJ         -0.445985         -2.4288        -2.40523
LJ         -0.771956       -0.101419        0.577117
LJ          -1.63072        -1.09414         -0.6418
LJ        -0.0799489        0.772311       0.0970109
LJ           2.20507         -1.8827         1.67119
LJ          -0.95361        0.781872         1.79562
LJ           2.40965      -0.0730192        -1.66381
LJ           1.41463         2.23542         1.62505
LJ           2.07408       -0.969076        -2.10354
LJ           0.21554        0.865585         -2.0856
LJ         -0.301918        -1.61286        -0.27518
LJ          0.654098        -2.06515        0.185783
LJ          -2.21102        -1.70803        -2.47231
LJ         0.0284482        -1.52427        0.923037
LJ          -2.31854         1.24844        -2.39446
LJ          -2.55263       -0.951678         2.05974
LJ          -1.75638        -2.21738       -0.829405
LJ           1.03538        0.588619        0.238895
LJ           1.65047         1.89534       -0.810622
LJ          -1.37895         2.26413        -1.86831
LJ           1.39697        -1.44509         2.07624
LJ          -1.79619        0.296102        0.698238
LJ          0.920816         1.40104       -0.283405
LJ          0.492918         2.33912       -0.697148
LJ           2.25197        -2.36778       -0.431067
LJ           1.00038       -0.272848       -0.496495
LJ          0.820949          1.5549         2.42855
LJ           2.46665          2.2435         2.12356
LJ          -2.49533          2.4697        -1.90775
LJ         -0.234265         1.26988       -0.891774
