108
#Comment!
LJ          -2.54074        -2.43852         2.48422
LJ          -1.68368        -1.69868         2.40077
LJ           -2.4836        -1.68052        -1.64873
LJ          -1.68393        -2.39948        -1.76756
LJ          -0.87573         2.42954         2.47116
LJ         0.0486728        -1.99748        -2.48477
LJ          -1.01299        -1.49773         -1.5945
LJ         0.0712716         2.20456        -1.66591
LJ           1.01677         2.36924        -2.48367
LJ           1.83136        -1.71439         2.55106
LJ           1.05401        -1.82573           -1.67
LJ           1.94628         2.55358         -1.5557
LJ           2.41837       -0.905022         2.53574
LJ          -1.77508       0.0454227         2.53403
LJ          -2.51676        0.165385        -1.85375
LJ          -1.68854       -0.482706        -1.46446
LJ          -1.16373        -0.86983        -2.41779
LJ        -0.0307464       -0.188653        -2.36682
LJ         -0.800372       0.0386334         -1.6861
LJ         -0.125645       -0.997202        -1.83063
LJ          0.948083        -1.12489        -2.45885
LJ           1.68235        0.044963        -2.56079
LJ          0.718606     -0.00106211        -1.69805
LJ           1.68828       -0.833291        -1.74504
LJ          -2.37021         1.10259         2.43458
LJ          -1.75643         1.85692         2.51251
LJ          -2.49494         1.70387        -1.65077
LJ          -1.53989        0.851049        -1.64124
LJ          -0.65144         1.09779        -2.50647
LJ          0.131066         1.80876        -2.56298
LJ         -0.835227         1.71238        -1.72813
LJ         0.0425907         1.02087        -1.70596
LJ           1.00509        0.836799        -2.41619
LJ           1.84105          1.8831         2.52982
LJ          0.958902         1.72116        -1.63585
LJ           1.81803        0.873986        -1.81353
LJ           2.53782         2.37022       -0.661591
LJ           -1.5582        -1.89138        -0.71694
LJ           -2.3948         -1.7851       -0.125476
LJ          -1.72249         2.41363       -0.105778
LJ         -0.671555        -2.50608       -0.948122
LJ          0.113682        -1.72879       -0.899288
LJ         -0.482748        -1.69678       -0.030836
LJ         -0.248844          2.3746        0.199587
LJ          0.766911        -2.51612       -0.946554
LJ           1.77643        -1.63602       -0.941931
LJ          0.578634         -2.0258       0.0881454
LJ           1.71353        -2.30436      -0.0401704
LJ          -2.38241        -0.89903        -0.71413
LJ          -1.81591       0.0377518       -0.607312
LJ           2.47355       0.0286015       0.0451826
LJ          -1.65889       -0.881305       0.0674154
LJ         -0.586676       -0.813977       -0.763274
LJ         0.0217966        0.229174       -0.861432
LJ         -0.900095      -0.0882692      -0.0285002
LJ           0.09011       -0.835772        0.238874
LJ           0.87456       -0.978709       -0.766501
LJ           1.88488       -0.148168       -0.822395
LJ          0.808567        0.067705     -0.00168051
LJ           1.64783       -0.914212       -0.120181
LJ          -2.41972        0.902961       -0.948928
LJ          -1.61283         1.77946       -0.870123
LJ           2.50633         1.64995        0.157255
LJ          -1.95628        0.965738      -0.0422832
LJ         -0.961654        0.738892       -0.809134
LJ        -0.0296374         1.62552       -0.792973
LJ         -0.807963         1.46851      -0.0617098
LJ        -0.0495731         0.83734       0.0873155
LJ          0.845103        0.931579       -0.627396
LJ           1.68217         1.65368       -0.881656
LJ          0.831603         2.02723     -0.00304279
LJ           1.70951        0.791289       -0.153553
LJ           2.42216          2.5502        0.847336
LJ          -1.49283        -1.69489         0.68325
LJ           2.48076        -1.51189         1.71916
LJ          -1.99047         2.49801         1.59982
LJ         -0.765703        -2.51131         1.18741
LJ          0.140043        -1.57072        0.907844
LJ         -0.870532         -1.6506         1.72549
LJ          0.116858        -2.33322         1.68784
LJ          0.949711          2.4452          0.8615
LJ           1.97165        -1.53762        0.705462
LJ          0.983797        -1.74301         1.67432
LJ           1.68398        -2.52503         1.65749
LJ           2.51471       -0.647758        0.997592
LJ          -1.67861      -0.0917304        0.908515
LJ           2.48687       0.0602667          1.8897
LJ          -1.68348       -0.986515         1.57851
LJ         -0.695069       -0.921339        0.973654
LJ         0.0585703     -0.00451395         1.04551
LJ         -0.857337        0.155273         2.07602
LJ         0.0517503       -0.926764         1.81125
LJ           1.04048        -0.99879        0.762687
LJ           1.65254       -0.133888        0.706019
LJ          0.732383      -0.0394295         1.84266
LJ           1.59159       -0.847322         1.70828
LJ           2.48362         0.73162        0.973788
LJ          -1.48035         1.85414        0.763611
LJ           2.46256         1.65132         1.55312
LJ          -1.64213        0.974308         1.59113
LJ         -0.988925         0.61379        0.808548
LJ           0.23201         1.53084        0.805515
LJ         -0.820093         1.62202         1.61692
LJ        -0.0815369        0.834851         1.54375
LJ          0.882426        0.666349         0.86147
LJ           1.71644         1.75021         0.72016
LJ          0.888939         1.57761         1.81145
LJ           1.82503        0.840164         1.76464
