108
#Comment!
LJ           2.54067         -2.5402         2.53994
LJ          -1.74785        -1.71008         2.49011
LJ          -2.52156        -1.67458         -1.8205
LJ          -1.79914         2.52105        -1.58936
LJ          -0.87766         2.50042        -2.43772
LJ         0.0141432        -1.99516        -2.46886
LJ          -1.17347         -1.4615        -1.72157
LJ        -0.0453963         2.28518        -1.84911
LJ          0.781507         2.55287         2.45875
LJ           1.75927         -1.7174        -2.53467
LJ          0.806204         -1.9554        -1.78772
LJ           1.87983         2.49505        -1.68203
LJ            2.5448       -0.919953         2.54764
LJ          -1.79572       0.0796969         2.52599
LJ           2.49959        0.162135        -1.97064
LJ          -1.73994       -0.556987        -1.65638
LJ           -1.1296       -0.758574        -2.41442
LJ        -0.0630306        -0.28276        -2.41244
LJ         -0.809074        0.042633        -1.84071
LJ         -0.199349        -1.20025        -1.86491
LJ          0.882478        -1.19412        -2.49134
LJ            1.7483      0.00580887         2.54258
LJ          0.864437       0.0541191         -1.8093
LJ           1.65737       -0.574309        -1.77578
LJ           -2.5354        0.909578         2.49701
LJ          -1.68384         1.92545         2.47867
LJ           -2.3714         1.63959        -1.63751
LJ          -1.61541        0.795968        -1.84196
LJ         -0.629176        0.950005         2.46098
LJ         0.0898733         1.68692         2.41527
LJ          -1.09818         1.63097        -1.77003
LJ         0.0509611         1.10137        -1.77251
LJ          0.936297        0.801601         2.46202
LJ           1.77174         1.89272         2.43916
LJ          0.922152         1.95631         -1.7157
LJ           1.57954        0.939629        -1.63759
LJ           2.52579         2.43017       -0.786527
LJ          -1.42822        -1.68047       -0.755717
LJ          -2.42614        -1.88965       -0.122324
LJ          -1.64495         2.46889      -0.0824334
LJ         -0.797285         2.55906         -1.0765
LJ         0.0890357        -1.70995       -0.797631
LJ           -0.6638        -1.90567     -0.00151525
LJ          -0.15871         2.32132       0.0442771
LJ          0.817849        -2.45478       -0.881815
LJ           1.85516        -1.76071        -1.01443
LJ          0.800781        -2.02691        0.207125
LJ           1.68162        -2.42059      -0.0849055
LJ          -2.44041       -0.953739       -0.745252
LJ          -1.89924        0.129056       -0.806119
LJ          -2.46822        0.103593     -0.00443423
LJ          -1.76889       -0.903962       0.0968564
LJ         -0.541142       -0.835319       -0.682782
LJ         -0.112336        0.327483       -0.928384
LJ          -0.66539     -0.00381314       0.0827141
LJ        -0.0250406       -0.823384        0.290387
LJ          0.786658        -0.92071        -0.66309
LJ           1.94622       -0.123423       -0.692666
LJ           0.64152      -0.0139875      -0.0461723
LJ           1.75701        -1.19451       -0.169574
LJ           2.53634        0.954967       -0.818019
LJ          -1.60657         1.81642       -0.804127
LJ           2.45681          1.6621      -0.0251217
LJ          -1.91466         1.09893        0.232163
LJ          -1.09467         0.78606       -0.872291
LJ          0.152767         1.78734       -0.836782
LJ         -0.748049         1.53235      -0.0590183
LJ           0.10218        0.883978      -0.0517818
LJ          0.791977        0.956189       -0.754035
LJ           1.68409         1.72465       -0.889755
LJ          0.761863         2.04307       -0.072614
LJ           1.75735        0.851325       -0.114199
LJ           2.41201         2.36448        0.762687
LJ          -1.38454         -1.8177        0.653741
LJ           2.46277        -1.56432         1.74269
LJ          -2.04811         -2.3171          1.4785
LJ         -0.639626         2.39236         1.11303
LJ         0.0717995        -1.63219        0.924962
LJ         -0.989967        -1.83747          1.8075
LJ         0.0559621        -2.33113         1.75873
LJ          0.835622         2.40743        0.932472
LJ            1.9806        -1.65974        0.764429
LJ           1.00782        -1.74784         1.78725
LJ           1.65056         2.49705         1.64945
LJ           2.46298       -0.691673        0.989714
LJ          -1.73461        0.119387        0.783074
LJ           2.49399      -0.0162037         1.74004
LJ          -1.87968       -0.750296         1.78611
LJ         -0.702419       -0.953153         1.01592
LJ      -0.000877232       -0.135043         1.07264
LJ         -0.902336        0.127094         1.91518
LJ          0.215439         -1.0029         1.83352
LJ           1.07481        -1.01586         0.68759
LJ           1.56408      -0.0873261        0.711432
LJ          0.828418     -0.00118793         1.88364
LJ            1.6368       -0.768266         1.90907
LJ           2.31615        0.851755        0.819324
LJ          -1.55823         1.85264         0.84133
LJ             2.462         1.53344         1.58607
LJ          -1.80899         1.00645         1.58884
LJ         -0.921989        0.725878        0.888466
LJ          0.174481         1.42424        0.814503
LJ         -0.782217         1.48952         1.55186
LJ         0.0669387        0.755979         1.59606
LJ           1.07326         0.74188        0.914145
LJ           1.58229         1.71766        0.532174
LJ          0.819698         1.54585         1.61212
LJ           1.69748        0.861697         1.76788
