108
#Comment!
LJ           2.48845        -2.53584        -2.55026
LJ          -1.71534        -1.88739         2.55745
LJ          -2.48369        -1.68122        -1.74005
LJ          -1.82284        -2.56004        -1.71263
LJ         -0.905769         2.38885         2.48182
LJ         -0.197965         -1.8161        -2.51508
LJ         -0.857801        -1.64573        -1.59331
LJ         0.0338219        -2.55596        -1.71791
LJ          0.884109         2.51592         2.52918
LJ           1.65059        -1.81368        -2.51704
LJ          0.879507        -1.55145         -1.6407
LJ           1.91763        -2.45376         -1.7085
LJ           2.40676       -0.868526        -2.55897
LJ          -1.56571        0.081455        -2.56475
LJ           2.54295       0.0828151        -1.81677
LJ          -1.78367       -0.916971         -1.7117
LJ           -1.1175        -0.89982         2.56293
LJ         0.0136184       -0.122685         2.50855
LJ         -0.902052       0.0899127        -1.69711
LJ         0.0307909       -0.867667        -1.72276
LJ          0.894345       -0.991883        -2.52219
LJ           1.81174        0.119363        -2.54512
LJ          0.746671        0.192926        -1.69452
LJ           1.65516       -0.846741        -1.69599
LJ          -2.55917        0.836243         2.56199
LJ          -1.74852         1.73754        -2.56106
LJ          -2.53616         1.57533        -1.77591
LJ          -1.78421        0.941652        -1.64269
LJ         -0.736811         0.96242         2.28218
LJ          0.209173         1.75505         2.45902
LJ         -0.878492         1.63504        -1.61096
LJ        -0.0559821        0.857341         -1.8949
LJ          0.798316        0.923372        -2.36378
LJ           1.78219         1.74156        -2.45739
LJ           1.02377         1.86073        -1.61792
LJ           1.72963        0.886992        -1.70579
LJ          -2.48905        -2.43497       -0.841813
LJ          -1.48542         -1.6863       -0.731317
LJ           2.50843        -1.76675      -0.0118746
LJ          -1.60816        -2.55575       0.0158404
LJ         -0.737365         2.54831       -0.860736
LJ        -0.0531755        -1.73682       -0.892824
LJ         -0.869639        -1.73506        0.130582
LJ        -0.0891328         2.44458      -0.0328933
LJ          0.822984         2.55064       -0.887241
LJ           1.57818        -1.80094       -0.781737
LJ          0.731804        -1.77703        0.174709
LJ           1.60214        -2.51289      -0.0770216
LJ          -2.50825       -0.903462        -0.83549
LJ          -1.97296        0.215079       -0.789629
LJ           2.43229      0.00498789      -0.0760203
LJ          -1.72372       -0.904283      -0.0518462
LJ         -0.875759       -0.741406       -0.843186
LJ        -0.0060614      0.00612489       -0.841963
LJ         -0.887712       -0.011128      -0.0177274
LJ        -0.0355453       -0.700281       0.0106339
LJ          0.898665       -0.854282       -0.736282
LJ           1.67096       -0.176461       -0.833282
LJ          0.926103      -0.0787301       -0.101615
LJ           1.70405        -1.01408      -0.0712876
LJ          -2.47188         1.06006       -0.861789
LJ          -1.73307         1.75916       -0.985596
LJ          -2.51443         1.77964       0.0831126
LJ          -1.70075        0.946428        0.136454
LJ         -0.883506        0.784044       -0.713208
LJ         -0.126271         1.73356       -0.997742
LJ         -0.895474          1.7546       -0.168237
LJ         -0.113029         0.94787      -0.0051241
LJ          0.679436        0.885885        -0.83579
LJ           1.73357         1.85864       -0.908396
LJ          0.676264         1.77356       -0.123648
LJ           1.70381        0.775556       0.0566338
LJ           2.51575         2.55887        0.974501
LJ          -1.61357         -1.7612        0.928736
LJ           2.33324        -1.70426         1.73368
LJ          -1.88541         2.50456         1.63429
LJ         -0.823944         2.45639        0.754768
LJ         0.0445202        -1.71281        0.869037
LJ         -0.886051        -1.71967         1.72046
LJ          0.092481        -2.47919         1.87139
LJ           1.04177          2.4787         1.00599
LJ           1.66912        -1.79418        0.856258
LJ          0.919617         -1.5939         1.65957
LJ           1.68127        -2.54573         1.76541
LJ            2.4293       -0.578357        0.912922
LJ          -1.76513      -0.0124355        0.812225
LJ          -2.49181      -0.0322142         1.99343
LJ          -1.76627       -0.863612         1.75045
LJ         -0.683679       -0.891533        0.812508
LJ         0.0891491      -0.0433871        0.816016
LJ         -0.660756       0.0607848         1.70894
LJ        -0.0479455       -0.887247         1.61266
LJ          0.724371       -0.969667        0.745562
LJ           1.68386      -0.0387229        0.780722
LJ          0.892526       -0.137747         1.74844
LJ           1.71897       -0.862707         1.71659
LJ            2.4603        0.923963        0.825044
LJ          -1.79461         1.73759         0.80613
LJ          -2.53963         1.72069         1.76376
LJ          -1.72002        0.768295         1.70475
LJ         -0.893725        0.646792        0.845564
LJ        -0.0279848         1.59435        0.930191
LJ         -0.834212         1.72308         1.64717
LJ         0.0116202        0.798545         1.52813
LJ          0.887246        0.766405        0.819023
LJ           1.77031         1.77119        0.781452
LJ          0.799085          1.5853         1.67165
LJ           1.66755         1.02834         1.59378
