108
#Comment!
LJ          -2.51009        -2.30356         2.54478
LJ          -1.69243        -1.45345         2.52803
LJ          -2.37225        -1.49838        -1.76421
LJ          -1.74029        -2.48777        -1.74828
LJ         -0.823877         2.36212        -2.41368
LJ         -0.167207        -1.46944         2.40615
LJ         -0.892534        -1.39682        -1.92574
LJ         0.0704529        -2.46994        -1.95293
LJ           1.00925        -2.45279        -2.48464
LJ           1.65905         -1.5394           2.447
LJ           1.06673        -1.74961        -1.76952
LJ           1.97742         -2.5645        -1.63757
LJ           2.54166       -0.749189         -2.4697
LJ          -1.87352      -0.0409326         2.28593
LJ           2.55819       0.0507267        -1.60521
LJ          -1.59364       -0.518287        -1.60728
LJ         -0.789695        -0.62788         2.55689
LJ          0.202457      -0.0335882          -2.337
LJ         -0.724694       0.0885865        -1.76365
LJ          0.113263       -0.893381         -1.5278
LJ          0.716791       -0.971234        -2.48714
LJ           1.69028       0.0749222        -2.42148
LJ          0.839345        0.261439        -1.59909
LJ            1.5027       -0.652973        -1.57945
LJ          -2.55859        0.895315         -2.3777
LJ           -1.8164         1.96153         2.41759
LJ          -2.52943         1.72828        -1.58885
LJ          -1.60691        0.596082        -2.15588
LJ         -0.537745        0.833917         2.48781
LJ         0.0519906         1.79375         2.45033
LJ          -1.27958         1.68344        -1.63089
LJ          -0.11411        0.987968        -1.59737
LJ          0.970132        0.981392        -2.52919
LJ           1.70867          1.9845        -2.52989
LJ          0.954551         1.83708        -1.88585
LJ           1.70473         1.08593        -1.80677
LJ           2.54833        -2.55336       -0.719911
LJ          -1.40403        -1.62156       -0.762016
LJ          -2.25796        -1.59661     -0.00311638
LJ           -1.6815         2.46027        0.255081
LJ          -0.75989        -2.51764        -1.05704
LJ          0.103006        -1.87126       -0.688807
LJ         -0.704975        -1.83199      0.00321635
LJ         0.0467294         2.38366        0.158786
LJ          0.944321        -2.42666       -0.923497
LJ           1.82144        -1.59901       -0.940875
LJ          0.772092        -1.96443        0.222783
LJ           1.74261         -2.5191       0.0336293
LJ          -2.30576       -0.778045       -0.808746
LJ          -1.90928        0.210359       -0.958128
LJ          -2.38056      -0.0420296      -0.0343112
LJ           -1.5729       -0.635284      -0.0992789
LJ         -0.745657        -0.72246       -0.862718
LJ         0.0360496      -0.0829505       -0.918619
LJ         -0.675244       -0.111973      0.00543836
LJ         0.0138759        -1.05011       0.0919136
LJ           1.03693        -1.10191       -0.614387
LJ           1.89166        -0.23976        -0.62861
LJ          0.761371       0.0522731       0.0147038
LJ           1.91925         -1.0161        0.126435
LJ           2.36744        0.837139       -0.723124
LJ          -1.78828          1.6779       -0.738505
LJ           2.44953         1.65353      -0.0519325
LJ          -1.73902        0.953349        0.136077
LJ         -0.958163        0.791058        -1.01031
LJ         0.0723539         1.77571        -0.87005
LJ         -0.749496         1.67515       -0.110675
LJ          0.108944        0.920074       -0.179323
LJ          0.819894         1.03775       -0.980855
LJ           1.64987         1.73429       -0.802985
LJ          0.821313         1.82027       -0.173833
LJ           1.69914        0.808964       0.0725533
LJ            2.4432         2.44393        0.714608
LJ          -1.40757        -1.82877        0.847653
LJ           2.46902        -1.51539         1.63274
LJ          -1.91192        -2.39574         1.68221
LJ         -0.818107         2.45111        0.945966
LJ        -0.0851792        -1.50715         1.11265
LJ         -0.910983        -1.62521         1.77452
LJ        0.00632402        -2.31398         1.78522
LJ          0.720383          2.4476        0.896395
LJ           1.62846        -1.64014        0.963405
LJ          0.732293        -1.52291         1.68273
LJ            1.6914        -2.56249         1.51243
LJ          -2.40199       -0.808403        0.846868
LJ          -1.78465        0.194641        0.815332
LJ            2.3179        0.039436         1.71363
LJ          -1.65686       -0.824346         1.66664
LJ         -0.908509       -0.895374        0.915594
LJ          0.138755      -0.0390185        0.867176
LJ         -0.959618      -0.0542862         1.66802
LJ         0.0255919       -0.720479         1.80221
LJ          0.991587       -0.872201        0.448708
LJ           1.72805       -0.186734          0.8338
LJ           0.90513       -0.041253         1.76788
LJ           1.55419       -0.799023         1.73347
LJ           2.31398        0.939275         1.05049
LJ           -1.8753         1.59436        0.973017
LJ           2.45213         1.90652         1.61867
LJ          -1.70382         0.83291         1.57822
LJ         -0.931863        0.889637        0.850957
LJ          0.292821         1.45759        0.748756
LJ         -0.689593         1.45406         1.65243
LJ         0.0721611        0.637056         1.65892
LJ           1.08208        0.698266         1.06342
LJ           1.57907         1.75179        0.753567
LJ          0.877432         1.81083         1.61802
LJ           1.82839        0.981708         1.93417
