108
#Comment!
LJ          -2.55284        -2.50904         2.45906
LJ          -1.73472        -1.65091         2.49141
LJ          -2.40715        -1.57419        -1.81349
LJ          -1.71021         2.54559        -1.58838
LJ         -0.821331         2.55357        -2.47338
LJ        -0.0414846         -1.9561        -2.48268
LJ           -1.1458        -1.49842        -1.80903
LJ        -0.0769469         2.21901        -1.82185
LJ          0.821389        -2.56343         2.39513
LJ           1.77486        -1.70984        -2.53591
LJ          0.679945        -1.86807        -1.74868
LJ           1.97239          2.4618        -1.70819
LJ           2.45199       -0.825826         2.54188
LJ          -1.74852       0.0330568        -2.55615
LJ           2.45946        0.129585        -1.86333
LJ          -1.70172        -0.58096        -1.57499
LJ          -1.07875        -0.76922        -2.47629
LJ         -0.130259       -0.214462        -2.50706
LJ         -0.847922       0.0455509        -1.85835
LJ        -0.0949141        -1.15064        -1.90046
LJ          0.900687        -1.12326        -2.53979
LJ           1.67395      -0.0614408         2.48376
LJ          0.949161       0.0559935        -1.83877
LJ           1.69891       -0.658535        -1.76989
LJ           2.53188          0.8986          2.5476
LJ          -1.71698         1.89832         2.49085
LJ            -2.347         1.63013        -1.62743
LJ          -1.61881         0.75156        -1.85695
LJ         -0.589776        0.943271         2.49778
LJ          0.133185         1.76434         2.32911
LJ          -1.03683         1.71353        -1.72647
LJ          0.133198         1.13673        -1.80431
LJ          0.832477        0.914285          2.4649
LJ           1.81195         1.82956         2.40952
LJ          0.956269         1.96661        -1.90337
LJ           1.58498         1.01459        -1.67461
LJ           2.44835          2.4579       -0.694975
LJ          -1.40248        -1.73977       -0.801333
LJ          -2.35094        -1.90154       -0.144574
LJ          -1.75824         2.40038      -0.0833589
LJ         -0.801455        -2.53882        -1.08159
LJ          0.162425        -1.67675       -0.836761
LJ           -0.6547        -1.94631        -0.18727
LJ         -0.140594         2.29852      0.00676011
LJ          0.784656         -2.4959       -0.959389
LJ           1.88464        -1.80498        -1.04812
LJ          0.717342        -1.91846        0.228006
LJ           1.69247        -2.49363      -0.0673678
LJ          -2.51495       -0.869707       -0.816474
LJ          -1.95284        0.104466       -0.814208
LJ          -2.50108        0.121683      -0.0134739
LJ          -1.80105       -0.850888        0.119685
LJ          -0.62826       -0.820746       -0.663413
LJ        -0.0909154        0.231795         -1.0028
LJ         -0.666339       0.0922326       0.0244105
LJ        -0.0392671       -0.757071        0.198837
LJ           0.90113       -0.925776       -0.668541
LJ           1.86968      -0.0495482       -0.631954
LJ          0.672717       0.0724959       0.0647772
LJ           1.81102        -1.26357       -0.153264
LJ          -2.55486            1.02       -0.760676
LJ           -1.5643         1.74709       -0.798162
LJ           2.51051         1.65685      -0.0690756
LJ          -1.86128         1.12625        0.307172
LJ          -1.07847        0.778676       -0.821618
LJ          0.110607          1.6701       -0.973986
LJ         -0.776442         1.54616       -0.092434
LJ          0.124342        0.939925       -0.189265
LJ          0.954584         0.96817       -0.784184
LJ           1.68902         1.75558       -0.843876
LJ           0.75641         1.92075       -0.031828
LJ           1.63792        0.827291       -0.108345
LJ           2.43939         2.30903         0.73136
LJ          -1.39367        -1.75343        0.704166
LJ           2.51548        -1.57753         1.78867
LJ          -2.08716         -2.4052          1.3608
LJ         -0.786913         2.47234         1.07631
LJ          0.104474        -1.48997        0.966775
LJ         -0.963499        -1.83601         1.82029
LJ         0.0831833        -2.35888         1.69939
LJ          0.831953         2.29172         1.02367
LJ           1.95424        -1.59234         0.86471
LJ           1.00308        -1.83545         1.72611
LJ           1.72689        -2.47431         1.60052
LJ           2.49009       -0.655271        0.859092
LJ          -1.69692       0.0607391        0.788411
LJ           2.47548       0.0848928         1.69868
LJ          -1.66875       -0.729034         1.81397
LJ          -0.77051        -1.06617        0.996727
LJ         0.0429724      -0.0726039         1.10153
LJ         -0.912447        0.141895         1.99521
LJ          0.130607       -0.939583         1.85508
LJ           1.08666        -1.06551        0.763877
LJ           1.59251      -0.0888278        0.609942
LJ          0.795082      -0.0471872         2.00429
LJ           1.56914        -0.78764         1.78985
LJ           2.27425        0.868787        0.774189
LJ           -1.6282         1.86734        0.934999
LJ           2.43224         1.54344         1.50481
LJ          -1.82658        0.999065         1.57805
LJ         -0.843314        0.698143        0.852634
LJ          0.195415         1.47499        0.778957
LJ         -0.874694         1.47592         1.58563
LJ          0.183116        0.861138         1.62447
LJ           1.10924        0.753948         1.00328
LJ           1.54995         1.64638        0.612177
LJ           0.87921         1.55819         1.64768
LJ           1.67579        0.903369         1.85102
