108
#Comment!
LJ            2.5572         2.52377        -2.55732
LJ          -1.71547        -1.83677        -2.55232
LJ           2.51509        -1.79259        -1.76671
LJ          -1.76192         2.51276        -1.69839
LJ          -0.91624         2.46678         2.47341
LJ        -0.0326873        -1.74121        -2.52029
LJ         -0.731986        -1.66139        -1.67003
LJ        -0.0111747        -2.50968        -1.57183
LJ          0.936705         2.55716         2.47278
LJ           1.70621        -1.85692        -2.48919
LJ          0.876707        -1.66767        -1.63869
LJ           1.77098        -2.54525        -1.71362
LJ           2.50629       -0.858813         2.53784
LJ          -1.61693       0.0464701         2.52452
LJ          -2.55672       0.0360752        -1.71245
LJ          -1.61163       -0.862325        -1.68836
LJ         -0.889782       -0.831442         2.54864
LJ         0.0929088      -0.0505181        -2.51687
LJ         -0.859868        0.148989        -1.62694
LJ        -0.0566765       -0.924873         -1.7212
LJ          0.795716       -0.973092        -2.53291
LJ           1.74465       0.0875865          2.5375
LJ          0.737795       0.0487453        -1.69631
LJ           1.61925       -0.873446        -1.59268
LJ           2.51661        0.790098         2.55369
LJ          -1.77808         1.71175         2.55731
LJ          -2.50511          1.5551        -1.76407
LJ          -1.71747         0.82872        -1.68545
LJ         -0.758128        0.939851         2.41575
LJ         0.0866195         1.66244         2.47001
LJ         -0.808737          1.6504        -1.70606
LJ       -0.00192427        0.913002         -1.8368
LJ          0.863665        0.940262         2.56181
LJ           1.71401          1.7106         2.54034
LJ          0.998151         1.73919        -1.76822
LJ           1.63181        0.760568        -1.66973
LJ          -2.50714          2.5649       -0.854933
LJ          -1.59921        -1.69707       -0.831287
LJ          -2.51624        -1.82433    -0.000861331
LJ          -1.66535         2.54834      -0.0382303
LJ         -0.768809         2.51063       -0.769787
LJ        -0.0167558        -1.58417       -0.844652
LJ         -0.886627        -1.70587       0.0154254
LJ         -0.146704         2.48486       -0.108893
LJ          0.905406         2.52749       -0.783584
LJ           1.61679        -1.74591       -0.815319
LJ          0.783022        -1.86634       0.0816565
LJ           1.67387        -2.49405       0.0091096
LJ           2.54232       -0.877996       -0.763425
LJ           -1.8453       0.0751395       -0.960664
LJ           2.50582       0.0208252       -0.083811
LJ            -1.715       -0.944978       0.0170207
LJ         -0.783277       -0.796088       -0.816009
LJ         0.0396796       -0.207708       -0.873217
LJ         -0.916519      -0.0543143       0.0669588
LJ         0.0191744       -0.728965        0.126429
LJ          0.942501       -0.785916       -0.903458
LJ           1.73916     -0.00686622       -0.869236
LJ          0.859064      -0.0101156      -0.0856276
LJ           1.64277       -0.899994      -0.0983715
LJ          -2.53552        0.950176       -0.816314
LJ           -1.7391         1.69483       -0.936881
LJ           2.51799         1.65633       0.0267853
LJ           -1.7053        0.950667        0.128595
LJ         -0.764052        0.860483       -0.705496
LJ         -0.151187         1.68038       -0.954322
LJ         -0.958823         1.74789      -0.0597219
LJ       -0.00768169        0.838711        0.210905
LJ          0.802458        0.952003       -0.842049
LJ            1.8043         1.77499       -0.780016
LJ          0.753873         1.75678       -0.110413
LJ           1.69298        0.816804       0.0477939
LJ          -2.48206        -2.49376        0.812196
LJ          -1.63617        -1.76859        0.930443
LJ           2.50885        -1.68509         1.71365
LJ          -1.77569          2.5607         1.66119
LJ         -0.929775          2.5577        0.788189
LJ          0.056053        -1.72554        0.903839
LJ         -0.837872        -1.73884         1.81151
LJ           0.09805        -2.52779         1.76152
LJ          0.890334         2.41661        0.864738
LJ           1.74359        -1.88962        0.885698
LJ          0.989594        -1.80047         1.49134
LJ           1.76881         2.56443         1.70965
LJ           2.52966       -0.824037        0.861582
LJ          -1.73682      -0.0319142        0.864213
LJ          -2.52399      -0.0831218         1.80908
LJ          -1.74731       -0.848054         1.84739
LJ         -0.877421       -0.828653        0.780989
LJ          0.136832      -0.0631347         0.90225
LJ         -0.788087       -0.019091         1.66924
LJ         0.0074479       -0.924321         1.66998
LJ          0.820839       -0.931833        0.815796
LJ           1.61939       -0.130441        0.833876
LJ           0.81824       0.0244341         1.73334
LJ           1.83893       -0.765582         1.68703
LJ           2.54317        0.872516        0.827795
LJ           -1.6724         1.61004        0.844241
LJ          -2.51538         1.65842         1.78914
LJ           -1.6098        0.831142         1.77628
LJ         -0.806971        0.803926         0.86438
LJ         0.0251758         1.60365        0.969767
LJ          -0.80988         1.72634         1.67606
LJ        -0.0342676        0.747229         1.62058
LJ          0.821293        0.751983        0.706044
LJ           1.61505         1.59533         0.82824
LJ          0.864081         1.56502         1.74631
LJ           1.70512        0.900619         1.66107
