108
#Comment!
LJ          -2.44223         2.40569         1.99887
LJ          -2.24347        -1.80182       -0.445022
LJ         0.0212605        -1.91623         1.03934
LJ         -0.267171        -1.98978       -0.184051
LJ          -1.76685        0.419554         1.70179
LJ           1.20583        0.388205        0.371481
LJ           1.57536        0.184494         1.33642
LJ          0.764324        0.865363         2.14612
LJ         -0.201101         1.28387         1.44875
LJ          -1.78574         2.28878        -1.51302
LJ          -2.24776        -1.75087         1.69944
LJ           1.60065         2.13889        -2.56083
LJ          0.309961         1.95401        -2.55209
LJ          0.995345          1.1839         1.16007
LJ           1.78366        0.563552        -1.71523
LJ          0.765741        -1.81568        0.214569
LJ           1.86407        -2.04253         2.32464
LJ          0.314975        0.375003        -2.11349
LJ          0.987536           2.006         1.74196
LJ          -1.95301         1.19396        -0.89384
LJ          -2.11513       -0.837645        0.395924
LJ           0.19123         2.54764       -0.931553
LJ           2.14266        -2.11796        -1.01101
LJ          -1.47854       -0.867769        -1.69193
LJ           1.16888        -2.34088         1.26552
LJ         -0.399411        -1.56798         1.86752
LJ           1.74684        -1.31698         -1.4909
LJ           1.90329       -0.976871         1.95984
LJ          -1.51384          1.8661     -0.00527117
LJ          0.442574      0.00250586         1.69578
LJ          -2.16812       -0.521524         1.36865
LJ           1.57117       -0.485383       -0.926111
LJ           2.42318       0.0498226        0.334174
LJ            1.7804         1.11582           2.514
LJ          0.675676        -1.13254         1.72353
LJ          -1.28539        -2.12528          1.4655
LJ         -0.820393         2.15986          0.7684
LJ           1.19945        -1.26479        -2.54023
LJ        -0.0267812       -0.700545        0.989862
LJ          -1.22078        0.958131       -0.254223
LJ         -0.702317         1.63335        -1.02878
LJ          -1.20175        -2.29577       -0.663579
LJ           -1.8547         1.71543        -2.39067
LJ           0.20081       -0.997066        -2.40255
LJ         0.0675629        -2.33534        -2.02718
LJ           -2.4148       -0.799434        -1.34566
LJ           1.88772       -0.411909        -2.03032
LJ            1.0388       -0.663195        0.807504
LJ           1.58738        -1.59607        0.749741
LJ         -0.453436         -2.5447         1.82999
LJ          -1.22981         1.86572         1.61225
LJ          -1.68655        0.188334        0.608087
LJ          -1.00968        -1.48067        0.289318
LJ           2.38384        0.108182         2.13758
LJ          -2.22919        0.124476       -0.535759
LJ         -0.719314        -1.64826        -2.17126
LJ           1.53726         2.05554        -1.46432
LJ          -1.86996        -2.18327        0.548048
LJ          0.844141        0.402111        -1.23055
LJ         -0.899162         2.26235        -2.30858
LJ           1.19648         2.17086       -0.311382
LJ          0.134348         2.16297         1.07991
LJ           2.44132         2.42836        -2.05636
LJ          -1.56141         -2.0795         2.47782
LJ          0.782038       -0.920412        -1.60445
LJ          -2.40635        0.327201        -1.97724
LJ         -0.474564         1.20919        0.336325
LJ         -0.755637        0.403443         1.24573
LJ           2.11845         1.70986       -0.596761
LJ          -1.39894       -0.732858       -0.337936
LJ           1.97673         0.55466       -0.626895
LJ           2.35819         1.45599        -1.79034
LJ          -2.39064         1.99116        0.703618
LJ         -0.629238      -0.0730382         2.21111
LJ          -1.54611        0.205785        -1.27075
LJ          0.972955         1.29676         -1.9973
LJ           1.07497        -2.13758        -1.86925
LJ            1.0232        -1.96102       -0.765911
LJ           2.20328       -0.994829       -0.269646
LJ           -2.3677         1.33668         1.91329
LJ           1.02599      -0.0876006        -2.56163
LJ           1.24758         1.20704       -0.469407
LJ         -0.909973        -1.34588        -1.02001
LJ         -0.766051          1.0176        -2.39446
LJ          -2.21633         2.35437       -0.509049
LJ           1.86998         1.44727        0.398403
LJ             2.512        0.718221         1.14397
LJ          -1.51655       0.0533583        -2.31023
LJ           0.48806         1.59996        0.175556
LJ          -2.35153       -0.801086         2.52203
LJ           0.53987        -2.25627          2.1106
LJ          -1.33078         1.16716        0.906821
LJ           1.93926         1.62841         1.46595
LJ           2.01989       -0.685551        0.938135
LJ          0.300771        0.411607        0.689719
LJ          -2.24214        -1.63726        -1.91503
LJ         -0.510237       -0.260914        -1.80293
LJ         0.0308676        -1.61514        -1.11295
LJ         -0.624372          0.1163        0.234855
LJ          0.206364       -0.368797       -0.913704
LJ          0.310636          1.5365       -0.878191
LJ           1.93762         -2.2124       0.0165846
LJ          -1.20205       -0.889537         2.11887
LJ           0.25546        0.615568       -0.331557
LJ          -1.06317       -0.715707          1.1792
LJ          -2.23534         1.12204       0.0869892
LJ          0.394778       -0.752908      0.00142864
LJ         -0.541153        0.341017       -0.919076
