108
#Comment!
LJ          -1.50012         2.32446         1.94667
LJ          -2.50903        -1.04824       0.0432951
LJ         -0.716713        -1.39402          1.0005
LJ         -0.882086         -2.5004        0.255077
LJ         -0.571037         2.47924        -2.30785
LJ           1.83158       -0.574581        0.525186
LJ           1.13096        0.664638         1.49299
LJ          0.780802      -0.0219051         2.06173
LJ          0.520422         1.50668         1.22008
LJ         -0.603847        -2.05603       -0.647317
LJ          -1.73568       -0.776795         1.03273
LJ          -1.64437         1.33387         1.76855
LJ           0.10086         2.02036         2.01517
LJ           1.73004         1.81084         1.06755
LJ           1.85944        0.681795        0.850575
LJ          -2.39885         1.56001       -0.888873
LJ          -2.13596        -1.93875         1.74226
LJ           1.23296        0.351442        -1.01777
LJ          0.311103        -1.54768        0.993916
LJ          -2.07529         2.20609       -0.133009
LJ           2.44554        -1.25153         1.22429
LJ          0.109528         1.75131        -2.02945
LJ          -1.69662         2.50843         -1.0493
LJ          -1.13076        -1.77139         2.22499
LJ           1.31911        -2.52875         2.18652
LJ          0.205438       -0.851204          2.0794
LJ           1.10762        -2.00073        -1.89741
LJ          -1.27918      0.00110083         -1.6893
LJ          -1.31345         1.77373        0.709843
LJ          0.414771       -0.425261        0.956332
LJ         -0.918354        0.376315         2.55358
LJ          -2.42999      -0.0247497        0.218017
LJ           1.89194        -1.07584        -1.72269
LJ           1.09824         1.55779         2.12114
LJ           1.41624        -1.85376         1.03265
LJ          -1.77328        -2.41669        0.922523
LJ          0.618971         2.48954         1.19167
LJ          0.998621        -1.55623         2.22216
LJ           1.85833         -1.5611       -0.761997
LJ         -0.564244        0.678927        0.172445
LJ         -0.882474          1.2369       -0.572506
LJ         -0.214112         2.12136       -0.778232
LJ          -0.87844        -1.84318        -1.81191
LJ         0.0292293         -1.5954        -2.25625
LJ           2.10511        -2.10203        -2.04037
LJ         -0.549439        0.670743        -1.60936
LJ           1.83733       -0.344847          2.3704
LJ           2.37826        -2.17409        0.481879
LJ           -1.7879       -0.584506        -2.28977
LJ         0.0740891        -2.03225         1.93639
LJ          -1.84384        -1.39878         -1.7468
LJ           2.29601       -0.183774         1.33716
LJ         -0.657494        -1.18693      -0.0661465
LJ           2.24727         2.17044         2.40157
LJ          -1.01839         1.95805        -1.48615
LJ          0.289635        -2.47941        -1.40941
LJ           1.80101         1.21916        -1.46988
LJ          -1.62666        -1.70681        0.116635
LJ           1.51495        0.338267      0.00279922
LJ          0.543249        0.739696        -1.77745
LJ           1.26238          2.0969        -2.05558
LJ           1.17248         -1.2017       0.0704807
LJ           -1.9179        -2.45517         -2.1312
LJ         -0.691272         2.33734         1.33239
LJ          0.834924       -0.898089        -1.92074
LJ         -0.881935          1.3894        -2.34897
LJ           0.93135          1.8547       0.0290442
LJ          -2.04639        0.699246        0.901859
LJ           2.28945        0.561121        -0.60587
LJ          -1.66946       -0.538808       -0.179877
LJ          -2.01315       -0.195743        -1.11595
LJ          -2.36448         1.68574        -1.95364
LJ           2.46448         1.55587        0.454691
LJ         0.0701733        0.532158         1.37816
LJ         -0.904651         0.17416        -0.70987
LJ          -2.53632        0.105622        -2.25077
LJ           2.07508         2.25847        -1.15079
LJ          0.628718        -1.43275       -0.742171
LJ           2.21599       -0.553737        -0.78334
LJ         -0.203367         1.86253        0.570032
LJ           1.82271        0.718267         2.48422
LJ          -1.73667         0.89454         -1.4375
LJ         -0.746301       -0.845101        -2.33634
LJ          0.242484        0.881048       -0.734959
LJ          -2.27308        -1.72738       -0.955047
LJ           1.88758          1.7322       -0.268744
LJ          -1.94058         0.13179         1.96183
LJ         -0.017624         0.76113         2.34277
LJ          0.427988        -2.15039       0.0676508
LJ           2.54929        -1.12821        -2.48387
LJ           1.28427       -0.890519         1.44257
LJ         -0.974217        0.548965         1.36719
LJ          -2.35917         2.12883         1.46769
LJ           2.47089         1.02514         1.65035
LJ          0.628299        0.521288        0.481974
LJ          -1.15865       -0.882426        -1.20906
LJ         0.0733467       -0.251706        -2.26734
LJ         -0.179693        -1.28361        -1.28261
LJ        -0.0538461       -0.326114       -0.122746
LJ           -1.9905        0.939363        -2.48025
LJ           1.43769       0.0545946        -1.95253
LJ           1.38081        -2.45525       -0.402766
LJ         -0.887812       -0.595165         1.80284
LJ          0.838669         1.67699        -1.18997
LJ         -0.843223       -0.305903        0.574423
LJ          -1.90966         1.03347       -0.224477
LJ           1.17752       -0.759825        -1.06457
LJ         0.0136718      -0.0640355        -1.11086
