108
#Comment!
LJ           2.49534        -2.41543          2.4919
LJ          -1.67799        -1.86393         2.45504
LJ          -2.52284        -1.65771        -1.56164
LJ          -1.86904        -2.46588        -1.82316
LJ          -1.02896         2.47063         2.44506
LJ         -0.171357        -1.80755         2.56143
LJ         -0.945143        -1.50928         -1.6987
LJ          0.091098         2.41625        -1.72248
LJ          0.903588         2.47151        -2.41771
LJ           1.80682        -1.71005         2.47428
LJ          0.829714        -1.64643        -1.60504
LJ           1.99179        -2.51945        -1.61014
LJ           2.46438       -0.838119        -2.54058
LJ          -1.82951       0.0935707          2.5259
LJ          -2.51411        0.107282         -1.8078
LJ          -1.68005       -0.643701        -1.42245
LJ          -1.19267       -0.888967         2.50938
LJ        -0.0424264       -0.200926         2.51642
LJ         -0.804231        0.141322        -1.80832
LJ         0.0504461       -0.893067        -1.72358
LJ          0.997607       -0.984337        -2.53889
LJ           1.70075        0.080824         2.51555
LJ          0.800797        -0.01968        -1.50693
LJ           1.75864       -0.881104        -1.76686
LJ           2.55558         1.03234          2.4409
LJ          -1.75749         1.84404         2.49915
LJ          -2.53086         1.66063        -1.75559
LJ          -1.57244        0.943052        -1.89336
LJ         -0.734345         1.06655         2.42381
LJ          0.027293         1.68218          2.3824
LJ         -0.755607         1.56715        -1.80288
LJ        -0.0459168        0.822464        -1.74646
LJ          0.841124        0.873971        -2.43144
LJ           1.80865         1.89921         2.44593
LJ          0.970126         1.75461        -1.54999
LJ           1.79685        0.849501        -1.77152
LJ          -2.44679         2.52618       -0.759372
LJ          -1.59686        -1.85024       -0.569685
LJ           2.50167         -1.7249      -0.0722106
LJ          -1.62816         2.43641       0.0551003
LJ         -0.816823         2.42699       -0.987696
LJ         0.0512513        -1.70848       -0.921675
LJ         -0.804016        -1.82598       0.0645234
LJ         -0.256886         2.27282       0.0432206
LJ           0.88374        -2.50011       -0.940937
LJ           1.74159        -1.62338       -0.836216
LJ          0.708543        -1.94212       0.0264156
LJ           1.60031        -2.43177       -0.172882
LJ           2.49491       -0.856268       -0.741214
LJ          -1.87598        0.140887       -0.724548
LJ           2.55161     -0.00803344      -0.0421052
LJ           -1.7247       -0.728741      -0.0420951
LJ         -0.812695       -0.752646       -0.831455
LJ        -0.0707655        0.160974       -0.911496
LJ         -0.799249      -0.0271923       -0.053621
LJ         0.0275339       -0.723602       0.0206993
LJ          0.758668       -0.888911       -0.726973
LJ           1.67156      -0.0972388       -0.814238
LJ          0.870919     -0.00564738       -0.150892
LJ           1.64445       -0.915547      -0.0749144
LJ          -2.55189         1.03065       -0.846029
LJ          -1.58931         1.70642        -1.10155
LJ          -2.52926         1.73615       0.0877609
LJ          -1.84852        0.775696       0.0586315
LJ          -1.00703        0.742554       -0.858042
LJ        -0.0686057         1.55318       -0.950714
LJ         -0.876933          1.4991      -0.0570528
LJ         0.0805524         1.03506        0.100981
LJ          0.879962         1.09807       -0.766578
LJ           1.82835         1.66844       -0.962688
LJ          0.815222         1.98189      -0.0230941
LJ           1.75523        0.867831       -0.120054
LJ            2.3967         -2.4833        0.966269
LJ          -1.49773        -1.68971        0.876119
LJ          -2.51711        -1.50507         1.76492
LJ          -1.96476         2.48601         1.66651
LJ         -0.632864        -2.53507        0.955672
LJ          0.250539        -1.77781        0.947254
LJ         -0.879728        -1.63335         1.72713
LJ           0.03753        -2.49813         1.79697
LJ           1.12786        -2.54311         0.90192
LJ             1.785        -1.45487        0.892146
LJ          0.930564        -1.72264         1.72021
LJ           1.58393        -2.44268         1.85626
LJ           2.51384       -0.576987        0.946657
LJ          -1.84174       0.0821268        0.843492
LJ           2.52292       0.0282503         1.84607
LJ          -1.64643       -0.867446         1.62979
LJ         -0.677413       -0.859864        0.972352
LJ         0.0937527       -0.137717        0.937556
LJ         -0.865747        0.134988         1.98388
LJ          0.150826       -0.896791         1.65033
LJ          0.958295       -0.823833        0.908001
LJ           1.67492      -0.0492081        0.580215
LJ          0.772837       -0.117773         1.86141
LJ            1.7536       -0.821402         1.74679
LJ           2.42813        0.784431        0.696909
LJ          -1.54372         1.88295        0.859363
LJ          -2.51894         1.57867         1.49742
LJ          -1.52851        0.855903         1.67993
LJ         -0.995444        0.716884        0.771964
LJ          0.127506         1.63146        0.865617
LJ         -0.746454         1.73725         1.42088
LJ        -0.0392522        0.871819         1.67779
LJ          0.811984        0.738685        0.981948
LJ           1.79762         1.74616        0.825854
LJ          0.999245         1.63495         1.84633
LJ           1.74837         0.84986          1.6471
