108
#Comment!
LJ           2.51324         2.51702         2.51111
LJ          -1.71501         -1.8437         2.53952
LJ          -2.45355        -1.81106        -1.70305
LJ          -1.82342          2.5531        -1.70467
LJ         -0.860115          2.4493         2.47484
LJ         -0.234556        -1.78778        -2.50686
LJ         -0.812083        -1.63091        -1.52417
LJ        -0.0448054        -2.51155         -1.6153
LJ          0.919078         2.50593         2.48325
LJ           1.62797        -1.75226         2.55553
LJ          0.870212        -1.57173        -1.60904
LJ            1.8783        -2.53307        -1.67864
LJ           2.44515       -0.869331         2.51808
LJ          -1.52725       0.0273443          2.5214
LJ           2.54635       0.0430838        -1.75358
LJ          -1.72156       -0.904148        -1.70856
LJ          -1.04715       -0.959906        -2.54873
LJ         0.0745851        -0.12905          2.5182
LJ         -0.904407        0.165824        -1.70967
LJ         0.0722671        -0.88195        -1.71369
LJ          0.837698       -0.953808        -2.53129
LJ           1.79808        0.107774        -2.52605
LJ           0.75991        0.117937        -1.69946
LJ           1.68474       -0.884708        -1.67573
LJ           2.49662        0.818134         2.50946
LJ          -1.76104         1.67116         2.54764
LJ           -2.5228         1.55195         -1.8069
LJ          -1.78332        0.869622        -1.67751
LJ         -0.808172         1.01774         2.31507
LJ          0.126265         1.63627         2.39271
LJ         -0.787083         1.74757        -1.64948
LJ        -0.0585996        0.873193        -1.85793
LJ          0.874761        0.933756        -2.38443
LJ           1.80499         1.77671        -2.54123
LJ           1.01668         1.81131        -1.73271
LJ           1.70706        0.847099        -1.70805
LJ           2.55757        -2.45817       -0.898885
LJ          -1.56035        -1.73745       -0.780464
LJ           2.52369        -1.77647      0.00731423
LJ          -1.67051         2.50007       0.0473126
LJ         -0.779325         -2.5647       -0.892289
LJ         0.0205847        -1.65518        -0.85914
LJ         -0.862082        -1.71574         0.10147
LJ         -0.104788         2.43188        0.032629
LJ            0.8823         2.55383       -0.781593
LJ            1.6364        -1.81665       -0.731294
LJ          0.785203        -1.89022        0.133586
LJ           1.68737         -2.5214      -0.0991485
LJ           -2.4975       -0.878648       -0.791281
LJ          -1.92307        0.089946       -0.836538
LJ           2.44085      -0.0040441      -0.0739042
LJ          -1.69443        -0.86302      -0.0350264
LJ         -0.918976       -0.733874       -0.802846
LJ        -0.0767178      -0.0704936       -0.881155
LJ         -0.894426      -0.0647901      -0.0139295
LJ        -0.0804701       -0.703294       0.0528344
LJ          0.892652       -0.868085       -0.820338
LJ           1.68246       -0.158024        -0.83301
LJ          0.942386      -0.0340095       -0.142067
LJ            1.6899        -1.00365       -0.196989
LJ          -2.46781        0.959284       -0.839224
LJ          -1.80761         1.75103       -0.974966
LJ          -2.52986         1.75418       0.0992073
LJ          -1.68713        0.896346        0.146339
LJ          -0.81547        0.804714       -0.672497
LJ          -0.14541         1.72584       -0.927944
LJ          -0.94328         1.75056       -0.116797
LJ        -0.0613907        0.926289       0.0894763
LJ          0.714095        0.919713       -0.852092
LJ           1.63752         1.89326        -0.89179
LJ          0.667573          1.7371       -0.139335
LJ           1.72291        0.724679       0.0561548
LJ           2.52809           2.513        0.979865
LJ           -1.6186        -1.74035         1.03164
LJ             2.314        -1.70482         1.75583
LJ          -1.88131        -2.51123          1.6594
LJ          -0.85959         2.38517        0.854752
LJ         0.0729162         -1.8047        0.957661
LJ         -0.867621        -1.67012         1.77921
LJ         0.0775527        -2.53248          1.8376
LJ            1.0587         2.44503        0.892053
LJ           1.71216         -1.8032        0.811104
LJ            0.9811        -1.65026         1.65867
LJ           1.72363        -2.48058         1.76714
LJ           2.39203       -0.670649        0.925493
LJ          -1.73757      -0.0283875        0.753542
LJ           -2.5067      -0.0352275         1.91217
LJ          -1.76891       -0.904302         1.77987
LJ         -0.790439       -0.890009        0.797779
LJ         0.0528217      -0.0255826        0.836774
LJ         -0.707492      -0.0114715         1.68807
LJ        -0.0375809       -0.904321         1.62852
LJ          0.825294       -0.901804        0.809095
LJ           1.60364      -0.0268161        0.801261
LJ          0.814337       -0.117348         1.69216
LJ           1.71648       -0.857604         1.74109
LJ           2.53418        0.907559         0.76389
LJ          -1.75694         1.70209        0.860909
LJ           2.54279         1.77714         1.77068
LJ          -1.64751        0.789847           1.783
LJ         -0.868183        0.658923        0.782391
LJ         -0.078994         1.59173        0.930179
LJ         -0.828382         1.77251         1.73166
LJ         0.0226303        0.793717         1.49676
LJ          0.896152        0.731464        0.783746
LJ           1.74964         1.62076        0.756827
LJ          0.832174         1.61399         1.65711
LJ           1.68303         1.00988         1.69552
