108
#Comment!
LJ          -2.52759        -2.43787         2.55433
LJ          -1.70113         -1.6328         2.47954
LJ           2.55279        -1.68501        -1.79893
LJ          -1.72735        -2.39589        -1.70699
LJ         -0.746464         2.50891         2.48945
LJ         0.0270909        -2.05998        -2.39746
LJ          -1.08632        -1.43884        -1.58227
LJ          0.017623         2.27762        -1.70355
LJ          0.999214         2.42981        -2.53053
LJ           1.69413        -1.82788         2.52025
LJ           1.03099        -1.83676        -1.72465
LJ           1.89577         2.53273        -1.58357
LJ           2.48444       -0.777294         2.53598
LJ          -1.88637        0.029796         2.51539
LJ            2.4827         0.17378        -1.99129
LJ          -1.79127       -0.505281         -1.5503
LJ          -1.10087       -0.826798        -2.41912
LJ        0.00606572       -0.206965        -2.41133
LJ         -0.720033      -0.0176514        -1.71999
LJ         -0.153381        -1.08434        -1.90868
LJ          0.951813        -1.14709        -2.48398
LJ           1.63697       0.0322872        -2.51764
LJ          0.812622       0.0415715        -1.76922
LJ           1.61643       -0.704746        -1.76516
LJ          -2.44811         1.02166          2.4763
LJ          -1.75544         1.97238         2.55907
LJ          -2.45476         1.69304        -1.66421
LJ          -1.50921        0.789466         -1.8334
LJ         -0.643207         1.08657         2.48921
LJ          0.128301         1.82649         2.44862
LJ         -0.821292         1.62577        -1.71859
LJ         0.0511024         1.04367        -1.77883
LJ          0.959871        0.922431         2.55581
LJ           1.95493         1.82306         2.45486
LJ          0.926668         1.83231        -1.67402
LJ           1.70935        0.878103         -1.7271
LJ           2.44053         2.37497       -0.771898
LJ          -1.48037        -1.82776       -0.744354
LJ            -2.503        -1.85526      -0.0621886
LJ          -1.64736         2.52988        -0.08704
LJ          -0.75707        -2.51809        -1.10562
LJ          0.117532        -1.70493       -0.889539
LJ         -0.423245        -1.79858    -0.000227754
LJ         -0.211691         2.39066       0.0351285
LJ           0.81748        -2.53309       -0.979513
LJ           1.73039        -1.75211       -0.981569
LJ          0.633386        -2.03358        0.136364
LJ           1.67509        -2.37448      -0.0409955
LJ          -2.50559       -0.857702       -0.705642
LJ          -1.91704       0.0589147       -0.709437
LJ           2.51584       0.0688501       0.0669225
LJ          -1.60434       -0.952429       0.0602174
LJ          -0.51921        -0.87663       -0.716908
LJ        -0.0462635        0.201981        -1.03916
LJ         -0.950466       -0.137155       -0.148368
LJ         0.0116152       -0.738342         0.29834
LJ          0.849015       -0.973508         -0.6824
LJ           2.03208      -0.0248248       -0.922355
LJ          0.738054        0.063957      -0.0145043
LJ           1.59011       -0.911809       -0.116757
LJ          -2.40616        0.957501       -0.927563
LJ          -1.53207         1.76785       -0.772583
LJ           2.42443         1.78285       0.0578896
LJ          -1.93377        0.972277       0.0547447
LJ          -1.09989        0.715555        -0.93802
LJ         0.0835406         1.84107        -0.80276
LJ          -0.83498         1.47614       -0.124268
LJ        -0.0775316        0.826466        0.079864
LJ          0.749077         1.01719        -0.70873
LJ           1.63836         1.61637       -0.921773
LJ          0.874591         1.95767      -0.0684198
LJ           1.67526        0.911341       -0.218777
LJ           2.50178         2.45057        0.905162
LJ          -1.39527        -1.74765        0.661826
LJ           2.48095        -1.57044         1.79338
LJ          -2.06505        -2.47209         1.69095
LJ          -0.65649        -2.53092         1.07367
LJ          0.150034        -1.63523        0.974306
LJ         -0.901219        -1.71631         1.68946
LJ           0.11082        -2.34288         1.70203
LJ          0.947079         2.37127        0.945521
LJ            1.8941        -1.51401        0.708308
LJ            1.0152        -1.78512          1.7077
LJ           1.70624         2.51706         1.72921
LJ           2.55938       -0.649187        0.983567
LJ          -1.67796      -0.0451142        0.824797
LJ          -2.54227       0.0322701         1.82293
LJ          -1.82531       -0.868798         1.60231
LJ         -0.771666       -0.847763         1.03869
LJ         0.0174552      -0.0156679        0.915697
LJ         -0.840119        0.159668         1.98627
LJ          0.240027       -0.938944         1.89063
LJ           1.00705        -1.05028        0.732053
LJ           1.63311        -0.10833        0.733363
LJ          0.881338       0.0253444         1.85249
LJ           1.61154       -0.799399         1.77809
LJ           2.42727          0.9139        0.891671
LJ          -1.50091         1.93977        0.821756
LJ           2.44596         1.64217         1.61449
LJ          -1.75318        0.902297         1.51052
LJ         -0.888878        0.626286        0.879686
LJ          0.240606         1.45531        0.795094
LJ         -0.881824         1.58145         1.53228
LJ         -0.043976        0.854681         1.63933
LJ           1.02437        0.738286        0.849515
LJ           1.58946         1.69829        0.549423
LJ          0.862685         1.53722         1.71601
LJ           1.85464        0.822997         1.78319
