108
#Comment!
LJ           2.39152         -2.5153         2.54511
LJ          -1.60212        -1.84445         2.45219
LJ          -2.49269        -1.75932        -1.73112
LJ           -1.8638         2.52961        -1.68361
LJ         -0.869333          2.5382         2.47198
LJ          -0.15037        -1.93253          -2.491
LJ         -0.845672        -1.55486        -1.61463
LJ         0.0341006           2.411        -1.73609
LJ           0.90385         2.47604        -2.38364
LJ            1.6711         -1.7534        -2.49441
LJ          0.811255        -1.49294        -1.54905
LJ           1.89628        -2.50758        -1.64277
LJ           2.48459       -0.924965        -2.54817
LJ          -1.67011      0.00757957        -2.55154
LJ          -2.44057        0.212089        -1.77419
LJ          -1.79749       -0.892977        -1.61153
LJ          -1.10061       -0.918037         2.55383
LJ        -0.0586705      -0.0396302         2.53148
LJ         -0.762245        0.129695        -1.74718
LJ         0.0483231         -0.7766        -1.79998
LJ          0.978712       -0.953245         -2.5486
LJ           1.77915        0.142082         2.56384
LJ          0.673056        0.148604        -1.68476
LJ           1.61016       -0.873144        -1.70905
LJ          -2.51561        0.846569         2.51747
LJ          -1.80141         1.87044         2.44227
LJ          -2.52645         1.60052        -1.79421
LJ          -1.70365        0.865232        -1.73404
LJ         -0.624796         1.02179         2.27885
LJ          0.187194         1.67849         2.41854
LJ          -0.79554         1.61932        -1.74487
LJ         -0.133904         0.91522        -1.72091
LJ          0.741794        0.809339        -2.41624
LJ           1.72833         1.75732         -2.5105
LJ          0.897421         1.70549        -1.54603
LJ           1.72427         0.82728        -1.67321
LJ          -2.48816         2.56265       -0.783016
LJ          -1.54183        -1.81801        -0.68197
LJ           2.50079         -1.7901      -0.0274941
LJ          -1.74917          2.4364      -0.0391527
LJ         -0.802176         2.49096       -0.806818
LJ        -0.0434447        -1.71922         -0.8639
LJ          -0.76681        -1.79422       0.0885614
LJ         -0.176981         2.41477       0.0494393
LJ          0.916554          2.4924       -0.902284
LJ           1.63363        -1.75093       -0.854054
LJ          0.799659        -1.83778        0.175655
LJ           1.65952         -2.4504      -0.0994328
LJ          -2.48895       -0.991035       -0.756436
LJ          -1.89003        0.128667       -0.774197
LJ           2.52644       0.0228137      -0.0428494
LJ          -1.73707       -0.712081       -0.104141
LJ         -0.817565       -0.726631       -0.803322
LJ        -0.0279613        0.107471       -0.730985
LJ         -0.863698      -0.0331443       0.0392292
LJ         -0.117175       -0.712456       -0.107004
LJ          0.854521       -0.774143       -0.860065
LJ           1.81909       -0.131929       -0.862496
LJ          0.936334       0.0179133      -0.0769686
LJ           1.75291       -0.959171      -0.0860898
LJ          -2.54001         1.06438        -0.69425
LJ          -1.65887         1.71115       -0.968824
LJ           2.48254         1.75551        0.195558
LJ          -1.87475        0.944121       0.0650358
LJ         -0.818509        0.780564       -0.869478
LJ       -0.00513467         1.67925       -0.843214
LJ         -0.889813          1.6322       -0.119397
LJ        -0.0628754          1.0203      -0.0778185
LJ          0.742129        0.955831        -0.83055
LJ           1.87889         1.83478       -0.920389
LJ          0.752655         1.91357      -0.0496822
LJ           1.71022        0.869611       -0.055326
LJ           2.44576         2.53384        0.994281
LJ          -1.57579        -1.84522        0.918333
LJ           2.51582        -1.65711         1.69078
LJ          -1.80602         2.53255         1.64849
LJ         -0.806174         2.50231        0.801577
LJ        0.00123866        -1.70386        0.804459
LJ         -0.869962         -1.7031         1.73637
LJ          0.148845        -2.47015          1.7443
LJ           1.08761        -2.51432         0.94825
LJ           1.93294        -1.67653        0.775561
LJ          0.878355        -1.61741          1.6041
LJ           1.64154        -2.55742         1.80815
LJ           2.45224       -0.684886         0.88207
LJ          -1.94478      -0.0150296        0.900958
LJ          -2.51124      -0.0179829         1.89638
LJ          -1.79892       -0.812692         1.68879
LJ         -0.691327       -0.812202        0.743532
LJ         0.0619572       -0.087949        0.807897
LJ         -0.731347         0.14749         1.77654
LJ         0.0125625       -0.971174         1.66355
LJ          0.849328       -0.933733        0.826342
LJ           1.59326     -2.6614e-05        0.721503
LJ          0.779295       -0.127209         1.84067
LJ           1.74016       -0.855583         1.68505
LJ           2.40591        0.762555        0.759184
LJ          -1.68918         1.76064        0.795659
LJ           2.49613         1.71409         1.74279
LJ           -1.7442        0.746302         1.58687
LJ         -0.881045        0.715971        0.799674
LJ         0.0822824         1.73277        0.868315
LJ         -0.836016         1.69452         1.53392
LJ         0.0458755        0.868629         1.51225
LJ          0.884177        0.895034         1.07213
LJ           1.67309         1.80107        0.840506
LJ          0.998771         1.71144         1.81337
LJ           1.72372        0.992497         1.74086
