108
#Comment!
LJ           2.52229         2.55169        -2.56206
LJ          -1.69062        -1.84751         2.56104
LJ          -2.54441        -1.73972         -1.6622
LJ          -1.74621         2.55271        -1.71838
LJ         -0.913458          2.5417         2.51045
LJ        -0.0617229        -1.71989        -2.52569
LJ         -0.770876        -1.74956        -1.69224
LJ        -0.0486803         2.55361        -1.61047
LJ          0.825309          2.5063         2.48481
LJ           1.73387        -1.79357        -2.49274
LJ          0.829246        -1.71093        -1.70798
LJ           1.70981         -2.5509        -1.71613
LJ          -2.54661       -0.816602        -2.52352
LJ           -1.6673      -0.0164871        -2.50485
LJ          -2.55722      -0.0604818        -1.66969
LJ          -1.67928       -0.819212        -1.65996
LJ         -0.845096       -0.727522         -2.5638
LJ         0.0554774      -0.0385423        -2.55764
LJ         -0.872149       0.0829512        -1.65398
LJ        -0.0709901       -0.917897        -1.74009
LJ          0.846849       -0.961566        -2.50646
LJ             1.671        0.151569         2.53583
LJ          0.736037       0.0174272        -1.74763
LJ           1.67569       -0.857933        -1.69564
LJ           -2.5616        0.848818        -2.51724
LJ          -1.68982         1.69584        -2.55909
LJ          -2.55772         1.59033        -1.77359
LJ           -1.7126        0.842417        -1.65413
LJ          -0.76024        0.855498         2.45765
LJ          0.019082         1.65948         2.46735
LJ          -0.82726         1.64798         -1.7978
LJ         0.0140174        0.851812        -1.86734
LJ          0.884866        0.924711          2.5146
LJ           1.66339         1.66397         2.54932
LJ          0.942297         1.73014        -1.80191
LJ            1.6768        0.890237        -1.72382
LJ            -2.527         2.56211       -0.801531
LJ          -1.58639        -1.72991       -0.899932
LJ          -2.53631        -1.76933      0.00156555
LJ          -1.75377        -2.53598      -0.0372929
LJ         -0.778688         2.52477       -0.856368
LJ        -0.0139726        -1.66789       -0.891197
LJ         -0.822687        -1.72692      0.00147456
LJ         -0.087486         2.49647      -0.0788621
LJ          0.949943         2.55215       -0.756719
LJ           1.62437        -1.72195       -0.851638
LJ          0.802034        -1.77139       0.0281717
LJ           1.70353        -2.50782      -0.0302061
LJ           2.50257       -0.850544       -0.826955
LJ          -1.76708       0.0145547        -1.00369
LJ           2.56307     -0.00479806       -0.129559
LJ          -1.71267       -0.877418      0.00419672
LJ          -0.83207       -0.772344        -0.78566
LJ         0.0885432      -0.0901002       -0.842898
LJ         -0.941677       -0.035474       0.0482207
LJ        0.00710142       -0.786159       0.0393679
LJ          0.890656       -0.739635        -0.84772
LJ           1.70449       0.0102456       -0.871697
LJ          0.860893       0.0358461      -0.0702499
LJ           1.64267       -0.886219       -0.132848
LJ          -2.55712        0.889919       -0.848185
LJ          -1.73223         1.70849       -0.863715
LJ           2.52224          1.6293      -0.0130741
LJ          -1.73951        0.951624       0.0349053
LJ         -0.785062        0.820168       -0.742251
LJ         -0.130742          1.6967       -0.871521
LJ          -0.85221         1.68445       0.0215894
LJ        -0.0321672        0.851543       0.0953089
LJ          0.867038        0.878815       -0.805172
LJ           1.75444         1.72005       -0.838703
LJ          0.832103         1.79367      -0.0921332
LJ            1.7233        0.846576       0.0693181
LJ           -2.4973         -2.4967         0.86192
LJ           -1.7017        -1.72016        0.803896
LJ          -2.55632        -1.69544         1.71716
LJ          -1.77434        -2.56126         1.69888
LJ          -0.79572        -2.47687         0.78145
LJ         0.0683483        -1.70221        0.850233
LJ         -0.844609        -1.71706         1.75162
LJ         0.0887548        -2.55781           1.772
LJ          0.937577         2.37847        0.884497
LJ           1.71097        -1.82179        0.880365
LJ           0.88798        -1.78136         1.54515
LJ           1.82114         -2.5505         1.76313
LJ           2.51062       -0.782748        0.872849
LJ          -1.71538       0.0238111        0.914031
LJ           2.55134       0.0134974         1.71121
LJ          -1.66592       -0.810382         1.80545
LJ         -0.890877       -0.871273        0.783148
LJ          0.113535      -0.0111745        0.917504
LJ         -0.802111      -0.0466576         1.62455
LJ        -0.0382119        -0.81085          1.6672
LJ          0.887221        -0.89423         0.82457
LJ            1.5975      -0.0557955        0.823387
LJ           0.77672      -0.0309079         1.70007
LJ           1.79237       -0.754842         1.65509
LJ           -2.5023        0.845065        0.863614
LJ          -1.66144         1.67252        0.915756
LJ           2.56313         1.71523         1.76002
LJ           -1.6739        0.845455         1.70695
LJ         -0.821435        0.826036        0.837414
LJ        -0.0122429         1.65074        0.894678
LJ         -0.863442         1.72232         1.67906
LJ        -0.0789834        0.750645         1.66627
LJ          0.836783        0.721454        0.787156
LJ           1.67333         1.61877        0.887125
LJ          0.865214         1.63613         1.75344
LJ           1.78738        0.797156         1.67933
