108
#Comment!
LJ          -0.98608        -1.58736         2.14756
LJ         -0.302019        0.226526         1.76779
LJ           1.87155         1.51144        -2.12322
LJ           1.77105         2.45407         2.53832
LJ          0.056989         1.04481       -0.031989
LJ           -2.1668        0.823328        -2.27418
LJ         -0.459931       -0.604554         2.45981
LJ           1.93128       -0.876372       -0.877079
LJ           1.95477        0.492728        0.879635
LJ          0.985378         2.45141        0.188332
LJ         -0.578028        -2.15308       0.0799369
LJ           1.17655       -0.339393         -1.7239
LJ          -1.04206         2.09815        -2.42416
LJ          -1.50776        -0.59597        0.719767
LJ           0.44173        -2.34123       -0.970288
LJ          -2.10088         1.92217        0.764648
LJ          -1.53677       -0.342716        -2.24566
LJ          0.896762        0.805505         1.46362
LJ          0.186569       -0.989033        -1.44271
LJ          0.273208        -2.55985         1.15786
LJ           -1.9438        -1.35445        -2.46928
LJ          0.223934        0.378854        0.758038
LJ           2.35312        0.237256       -0.620428
LJ        -0.0361073          2.0628        0.332833
LJ          -1.49507       -0.611857         1.94409
LJ            1.2909        -1.56009         1.18879
LJ           1.91259         1.69738        0.525788
LJ          -1.63045        -2.53698         2.09653
LJ           1.37787         2.52016         1.27965
LJ          -1.65021         -1.8961       -0.701795
LJ           -1.6021         2.51872        0.167349
LJ          -1.77083      -0.0832473       -0.391559
LJ           1.76653         1.51878         1.86688
LJ          0.596835        -1.00237          2.4948
LJ           1.22605        0.350446         2.47364
LJ          -2.49693         1.41854       -0.197207
LJ        -0.0542638        -1.88743        -1.99746
LJ          0.556444         1.77087         1.86854
LJ          -2.54023       -0.637941        0.130562
LJ         -0.647058        0.826655        -0.91649
LJ          0.217564        0.294382        -1.83382
LJ           2.38511         1.13723        -1.22045
LJ           2.10877         2.42805        -1.57356
LJ         -0.785942        0.416093        -2.30087
LJ          -2.40908      -0.0387108         1.41601
LJ         -0.509173         1.27459         2.16498
LJ          -1.68509        -2.40366        -1.88045
LJ          -1.96341         1.67793         2.39147
LJ           2.45615      -0.0107858        -1.78038
LJ        -0.0497815        -1.38558         1.72399
LJ          0.219512        -1.22461        0.827225
LJ         -0.793941         2.24604         1.04511
LJ          0.962583        -0.69826       -0.631909
LJ            1.1437        0.474049       -0.298796
LJ          0.493385         1.87685       -0.542862
LJ           2.50102         2.47221      -0.0559556
LJ         -0.586682         -1.9558       -0.946388
LJ            1.6927       -0.306875          1.5791
LJ          -1.79312         -1.5155         1.48746
LJ         -0.774725       -0.486304        -1.54639
LJ           2.00992        -1.82628         1.96848
LJ       -0.00241178         1.30931          1.1441
LJ           1.09055          2.0749        -1.41097
LJ          -1.02358        0.310234         1.10459
LJ          -1.92589        -1.67318        0.458133
LJ          -1.79818         2.07195        -0.69557
LJ          0.690477         1.14639        -2.35499
LJ         -0.956487        -1.55306        -1.79442
LJ           1.41556        -1.69935        -2.26683
LJ           -1.6375         1.59774        -1.56803
LJ         -0.916682         1.24454        0.504858
LJ           2.08109         -1.5405      0.00241702
LJ          0.877708        -1.50228       0.0179853
LJ          0.747458         1.19111        -1.30545
LJ           2.19171       -0.979862         1.03727
LJ           1.55765        0.627322        -1.67113
LJ           1.62906          1.4447        -0.51996
LJ           -2.4519         -2.3203         1.10872
LJ          -2.10376        0.918328        0.589584
LJ           1.58054       -0.774244         2.46332
LJ          -1.56816        0.515875         1.94959
LJ          -2.37431         1.09684         1.54868
LJ          0.265469        0.289074       -0.683384
LJ         0.0490641       -0.491581        0.158593
LJ           1.24813        -1.54795        -1.21868
LJ         -0.796498         2.24658        -1.45774
LJ          0.521631         2.24568        -2.26656
LJ          0.742127        -2.24601         2.03381
LJ       -0.00317697        -1.29746       -0.436902
LJ          -1.97735       -0.814025        -1.42574
LJ         -0.801029        -1.78779         1.20924
LJ         -0.662999        0.176462       -0.185699
LJ          0.496624       -0.545687         1.47873
LJ           -1.7339        0.490351         -1.3001
LJ          -0.52281         1.80451       -0.575756
LJ           1.36111       -0.490839        0.505729
LJ           1.44404        -2.32708       -0.627481
LJ           2.27939        -1.15034        -2.00833
LJ          0.927214         1.16878        0.491429
LJ         -0.595292       -0.691197         1.11261
LJ          -2.41381       -0.518564         2.42803
LJ         -0.342522           2.552         2.19783
LJ          -1.11602        -1.19026       -0.243763
LJ           2.53628         2.11554         1.73096
LJ          -1.33776         1.44976         1.56381
LJ          -2.54395        -1.77354        -1.14684
LJ         -0.311016         1.47435        -1.88714
LJ           2.11492        0.547712         2.04125
