108
#Comment!
LJ        -0.0842842         2.35942         1.50323
LJ         -0.887921         -1.3654        -1.19313
LJ          0.800816        -1.76361         1.31956
LJ           1.36382         2.17767        -1.34435
LJ          0.370421        -2.49705          2.5112
LJ           2.24938        0.197586      -0.0873961
LJ           1.31646        0.841098       -0.606329
LJ           1.65496        -1.87185        -1.61882
LJ           2.43513         -2.1633         1.61339
LJ          0.828197         2.10618        0.528366
LJ           2.33371        0.470016         1.91822
LJ          -1.87205          2.0723         2.49043
LJ          0.379851         1.27623       -0.406304
LJ          -2.18382         2.10851         1.20932
LJ          -1.88871         2.01189       -0.471146
LJ          -1.25691       -0.110434        -1.65704
LJ         -0.548825        -1.68218         2.14227
LJ          -1.65591         1.15086        -1.04452
LJ          0.578123       -0.673882         1.50614
LJ          0.291128         2.28226        -1.51463
LJ           1.78727       -0.224124        0.938607
LJ          -1.46744         1.16719        -2.16226
LJ           1.40454         1.93537        -2.36402
LJ          -1.93385       -0.929325        -1.18419
LJ           1.43008        -2.10464         2.28023
LJ         -0.366086        -1.08735        -2.07253
LJ           2.52162          -1.601       -0.640285
LJ         -0.467255       -0.455283       -0.828307
LJ          -1.81662        0.269884       -0.595921
LJ         -0.917136         -1.1547       -0.040416
LJ         -0.473219        0.581321        -2.47777
LJ          -1.31529        0.486252        0.945776
LJ          -1.68264       -0.247501         1.61696
LJ           2.40621         2.10101         0.20605
LJ           2.19502        -1.04813        0.372328
LJ         -0.139921        -2.47293        0.521677
LJ           1.81043        -1.97269        0.185177
LJ           1.67406        -1.12661          1.5084
LJ         -0.812706         2.45609         -1.3758
LJ          0.514839       -0.182172        0.585096
LJ         -0.161146        0.571839        0.652069
LJ           2.02813        -2.48393       -0.860957
LJ         -0.757289        -0.18814         2.12563
LJ           2.22684         1.91459         2.02042
LJ          -2.43849        -1.77292        -1.68514
LJ           1.41318         1.17802         2.15381
LJ           1.40476         1.61247      -0.0560804
LJ          -1.58401        -2.26151         1.83565
LJ           2.29014       -0.533507       -0.711938
LJ          0.723844        -1.30406         2.40754
LJ          -1.43719        -1.99562      -0.0642135
LJ          -1.88452       -0.962698        0.160359
LJ          0.646042        -1.26354        -1.76481
LJ          -2.30872       -0.750261        -2.18202
LJ          0.579094         1.00884        -1.50551
LJ           1.03249         2.12055         1.77235
LJ           1.22771        -1.03345        0.511636
LJ          -1.71975        -1.42787         1.22935
LJ          -2.49189         1.19415       -0.426995
LJ           2.05615         1.27059        -1.23454
LJ          -2.14173        -1.56399         2.19311
LJ           1.07677        -2.25049       -0.727173
LJ         -0.809737          2.2219       -0.194685
LJ          0.400934         1.18882         1.56282
LJ           1.53973        -1.26882       -0.554176
LJ         -0.273762         1.59401         2.43646
LJ          -2.29009        -2.05566        0.622918
LJ          -1.13428         1.71399         1.60678
LJ          -1.50347         1.44954        0.416586
LJ         0.0496172        -1.08196        0.180421
LJ         -0.914373        0.979831       -0.327441
LJ          -1.44064        -2.01634        -2.29829
LJ         -0.680536         2.55266        -2.53226
LJ         -0.446669         1.64106        0.590207
LJ          0.676927        -1.88526        0.244018
LJ          -2.23071       -0.107438        0.756971
LJ          -2.50096       -0.752444         1.57768
LJ          0.668297        0.605002         2.40006
LJ          -1.23534        -1.00957        -2.45529
LJ         -0.152664        0.509315       -0.896065
LJ           1.08558        0.289587         1.51401
LJ          -2.42398         0.44578         -1.3525
LJ          0.490628        -1.15759       -0.732692
LJ          0.463697       -0.280331        -1.58147
LJ          0.121582         2.26585       -0.413479
LJ           2.46987         1.27844        -2.21996
LJ           1.69145         1.15567         1.06317
LJ           1.51671        0.551056         -1.8121
LJ          -0.67953        -1.79317         1.16099
LJ          -2.00301        0.137713         2.54622
LJ           1.82505         2.32107        0.982484
LJ         0.0257832        0.138502         1.55218
LJ         -0.895515      -0.0056919       0.0650419
LJ           1.20595        0.628697        0.387312
LJ         -0.441444         1.35704        -1.59482
LJ         -0.404978        -1.95726       -0.458594
LJ           1.40294       -0.636066        -1.83924
LJ         -0.124696        -1.93574        -1.67071
LJ           1.38111       -0.255595        -0.86012
LJ          -1.83548         1.02731         2.05456
LJ          -1.87679        -2.34345        -1.03339
LJ          -1.40236        -2.47402        0.789456
LJ          0.350552       -0.342729         2.43565
LJ           2.25416        -2.52856         -2.4048
LJ         -0.950224       -0.693503        0.897661
LJ          -2.37663         0.88959        0.477012
LJ           2.02682        -1.34496         2.56244
LJ           1.45756       -0.281422         2.28824
