108
#Comment!
LJ           2.53497        -2.53533         2.53741
LJ          -1.78452        -1.69261         2.49481
LJ          -2.51902         -1.7321        -1.61321
LJ          -1.75195        -2.42553        -1.78002
LJ         -0.946024         2.44519         2.50728
LJ        -0.0151241        -1.98124        -2.51007
LJ         -0.898566        -1.59802        -1.59824
LJ          0.108226         2.28719        -1.69894
LJ           1.02699         2.42622        -2.35193
LJ           1.80861        -1.73274         2.52265
LJ           0.94071        -1.73082        -1.67937
LJ           2.03582        -2.53467        -1.49004
LJ             2.459       -0.801221        -2.51361
LJ          -1.76775     -0.00256779        -2.54467
LJ          -2.53539        0.192801        -1.76397
LJ          -1.61616       -0.546593        -1.37104
LJ          -1.20117       -0.861893        -2.45128
LJ         -0.160341       -0.240861        -2.46966
LJ          -0.80302        0.153443        -1.83232
LJ        -0.0909526       -0.975208        -1.75998
LJ           1.03396        -1.10963        -2.48297
LJ           1.62257        0.130789         2.52766
LJ          0.770366      -0.0912436         -1.5291
LJ            1.7192       -0.810714        -1.67043
LJ          -2.48669         1.06931         2.30618
LJ          -1.75057         1.80163         2.54716
LJ          -2.49425         1.70035        -1.74984
LJ          -1.65344        0.952618        -1.85738
LJ         -0.713831         1.07391        -2.49094
LJ         0.0931827         1.85286         2.54528
LJ         -0.759289         1.72531        -1.75157
LJ         0.0446286        0.839405        -1.88232
LJ          0.881843        0.813298        -2.43689
LJ           1.77667         1.85296         2.41636
LJ          0.961816         1.60405        -1.57099
LJ           1.79785        0.804368        -1.78338
LJ          -2.53523         2.45423       -0.729647
LJ          -1.47485        -1.84672        -0.70411
LJ          -2.55116        -1.73696       -0.189278
LJ          -1.68118         2.47416       -0.066943
LJ         -0.660813          2.5576       -0.930817
LJ         0.0258958        -1.71184       -0.943363
LJ         -0.622483        -1.77666        0.131697
LJ         -0.183732         2.30525        0.105059
LJ          0.818435        -2.47909       -0.948368
LJ           1.80784        -1.68375       -0.834766
LJ          0.732546        -1.95721        0.119022
LJ           1.63769        -2.39164      -0.0710801
LJ          -2.53111       -0.925601       -0.776237
LJ          -1.92103        0.101361       -0.704215
LJ           2.38461     -0.00417888      -0.0598767
LJ          -1.60815       -0.912602      0.00225396
LJ         -0.662575       -0.819677       -0.835915
LJ         0.0159368        0.184719       -0.940541
LJ         -0.769906      -0.0737066      -0.0440304
LJ         0.0657415       -0.784205        0.177593
LJ          0.766477       -0.835811       -0.798446
LJ           1.81996       -0.163358       -0.858219
LJ          0.740116       0.0514282       -0.123484
LJ           1.71804       -0.926461      -0.0653034
LJ           -2.3979        0.966718       -0.932336
LJ          -1.66717         1.69412        -1.03021
LJ           2.53211         1.58867       0.0819728
LJ          -1.93647        0.837432       0.0982333
LJ         -0.992692        0.733871        -0.88175
LJ        -0.0524752         1.55137       -0.849861
LJ         -0.833246         1.51995       -0.108757
LJ         0.0518537        0.995826       0.0607803
LJ          0.800537         1.09823       -0.712945
LJ           1.74458          1.7108       -0.902772
LJ          0.868353          2.0151     -0.00994619
LJ           1.83183        0.832023       -0.122065
LJ           2.49776        -2.49167        0.824845
LJ          -1.48648        -1.71258        0.743614
LJ           2.54274        -1.48394         1.70574
LJ          -1.91981         2.46929         1.59179
LJ         -0.757678        -2.48952          1.0509
LJ          0.104028        -1.73618        0.940638
LJ         -0.922227        -1.66631         1.74758
LJ          0.141793        -2.40575         1.74124
LJ           1.03067         2.53428        0.979307
LJ           1.83618        -1.55598        0.764697
LJ          0.903038        -1.68045         1.64899
LJ           1.60835        -2.51745          1.7731
LJ           2.51775       -0.613973         1.06459
LJ          -1.84683       -0.025357        0.766779
LJ             2.497       0.0667259         1.90915
LJ          -1.65384        -0.90226         1.47993
LJ         -0.758496       -0.895382        0.960798
LJ         0.0925136      -0.0749699         1.01076
LJ         -0.834005        0.122774         2.11114
LJ          0.113932       -0.953015          1.6671
LJ          0.924586       -0.837282         0.79903
LJ            1.6214      -0.0577408        0.572157
LJ          0.687167       -0.103222         1.90253
LJ           1.67687         -0.8334          1.6646
LJ           2.44159        0.604342        0.801088
LJ          -1.45505          1.9062        0.764097
LJ            -2.507         1.60339         1.50832
LJ          -1.58905        0.921328         1.62244
LJ         -0.879062        0.743637        0.685535
LJ          0.194249         1.60204        0.907439
LJ         -0.748378         1.69525         1.53213
LJ         0.0056534        0.944937         1.58917
LJ          0.844074        0.630753        0.914256
LJ           1.73715         1.65089         0.72969
LJ          0.887093         1.61274         1.73252
LJ           1.67078        0.761434         1.68239
