108
#Comment!
LJ           1.68059       -0.137033        -1.81216
LJ          -1.69566       -0.919996        -1.36184
LJ         -0.122197         2.47781          2.0376
LJ          -1.39693        -1.97542        -2.37582
LJ          -1.54311        0.818646        -1.92625
LJ          -2.23054       -0.271914        -2.11694
LJ           2.44497        -1.47937        -1.57213
LJ           1.93538        0.622409        0.375256
LJ          0.921988         1.16529        -2.08532
LJ           1.88857         -2.3393       0.0709344
LJ          -2.06162         2.04379       -0.251147
LJ         -0.660728        -1.34752         1.97821
LJ           1.65438        -1.57706       -0.620119
LJ         -0.327209        0.724028         1.58404
LJ           1.01779          2.1487         0.30367
LJ           2.41891         1.82275        -1.68852
LJ           1.28219        -1.60216        -1.62116
LJ           0.38693       -0.924399       0.0338515
LJ         -0.894867          1.2663        -1.06826
LJ          -1.47012         1.87741        0.670104
LJ          -1.40864        0.905511         1.01381
LJ         -0.522968          1.8323          1.0872
LJ            1.1297       -0.710403       -0.954105
LJ          0.657564        -2.34623        -1.33313
LJ           1.96282       -0.826538         2.52133
LJ          0.518287        -2.20987        0.986692
LJ          -2.33628        -2.52554        0.685263
LJ          0.375914        -1.74926         2.02733
LJ           1.83953         -2.4592         1.25223
LJ           2.14349         1.76109       0.0508374
LJ          -2.19321        0.123425         1.05651
LJ          -2.48296         0.73837        -2.00961
LJ           1.98511         2.00387         2.24795
LJ          -1.55052         2.11361        -1.26239
LJ          0.136648        -1.49049        -1.35173
LJ          0.521669          1.8739         1.20904
LJ          -1.88533         1.82714        -2.38505
LJ         -0.377884         2.30097        -1.29514
LJ           1.71909       -0.309828        0.980492
LJ           1.83546         1.19264        -1.30381
LJ          -2.01458        0.171296        -1.23538
LJ         -0.087648         1.02116        -1.66298
LJ          0.822815         1.05162       0.0208468
LJ          -1.56304        0.189914         2.08799
LJ           2.07787        0.653728         1.48555
LJ          -1.03631      -0.0726007        -1.30916
LJ           1.69005        -1.85806         2.53874
LJ           1.39912         2.30731        -1.88306
LJ          0.536809        0.126399       -0.428654
LJ         -0.876518        -1.02512         0.73906
LJ         -0.904769        -1.44585        -1.58117
LJ         -0.576072         1.35554         2.41889
LJ           1.44941        -1.31085        0.651753
LJ         -0.044067       -0.169517        0.635807
LJ           1.53528        0.429702       -0.580009
LJ           1.07866         2.54478         2.00233
LJ           1.72359         1.53897         1.03748
LJ          -1.42339       -0.937202       -0.328511
LJ         -0.511478       -0.423142       -0.279805
LJ           1.32645        -0.12507         1.95667
LJ          0.607488        0.185642        -1.92914
LJ          -1.37074         1.69967         1.75719
LJ        -0.0402472       -0.111377        -1.25728
LJ         -0.875411         2.16467        -2.14187
LJ          -2.37766         1.32669         1.21376
LJ          -1.28267        0.445322       -0.531361
LJ         -0.603902         0.31947        -2.45188
LJ           2.52967       -0.793213       -0.731839
LJ          0.333004         1.96817        -1.98382
LJ           0.37186         1.56797         2.19154
LJ         -0.961291         1.14446       0.0784241
LJ          -1.81805       -0.867463        0.979455
LJ          -2.44432        -1.85265       -0.454808
LJ         -0.253118        0.696003       -0.579559
LJ           2.44853        -1.62392         1.24472
LJ         -0.165406       -0.661674        -2.21658
LJ          0.226379        -1.24193         1.18187
LJ          -2.16326        -2.48562         1.95288
LJ           2.52012       -0.123765         2.03492
LJ          0.305162        -1.97281       -0.301462
LJ          -2.18926        -1.30771         2.49785
LJ          -2.40238       -0.062603       0.0486862
LJ          -2.38176        -2.35859        -1.85465
LJ        -0.0485767         1.04612        0.589797
LJ          -1.02394         2.16813       -0.321265
LJ         -0.147859        -2.18447        -2.07325
LJ         -0.201332         2.28629        0.259687
LJ        -0.0225309       -0.187896         2.04437
LJ           2.39267       -0.990677        0.383009
LJ          0.895093         1.99423       -0.725028
LJ          -1.61798        -1.61448         1.56551
LJ          -1.35628      -0.0643873        0.452249
LJ          -1.06869        -2.44109         1.36776
LJ           1.51789       -0.437036      -0.0581509
LJ           1.98972         2.52994       -0.948755
LJ           1.32077         1.16556         2.15099
LJ         -0.120258         1.68893       -0.509153
LJ          0.835208       -0.686912        -2.42208
LJ         -0.993675       -0.430025         1.52293
LJ          -1.25341       -0.828805        -2.29129
LJ          0.763125        0.541365         1.12879
LJ           -1.2121        -2.15995        0.362379
LJ          -2.14433        0.915725        0.114326
LJ           -1.5512        -2.03372       -0.782089
LJ          -2.29814         1.12696         2.20088
LJ         -0.674938        -1.62408       -0.575189
LJ          -2.06153         1.16868        -1.01036
LJ           1.36949         -1.2526         1.68074
