108
#Comment!
LJ           2.56115         2.53706        -2.55319
LJ          -1.69527        -1.77393         2.52582
LJ           2.53466        -1.80641        -1.73927
LJ          -1.79508         2.53127        -1.71012
LJ         -0.940706         2.42232         2.50714
LJ        -0.0917585        -1.75437        -2.51683
LJ         -0.775338        -1.62961        -1.65943
LJ        -0.0615013        -2.50391        -1.57665
LJ          0.909136        -2.54815         2.48888
LJ           1.69564        -1.81243         -2.4954
LJ          0.899572        -1.60515        -1.60369
LJ           1.79024        -2.52725        -1.70158
LJ           2.38302       -0.825325         2.48926
LJ          -1.58742       0.0216818         2.45239
LJ           2.48829     -0.00940527        -1.72364
LJ           -1.6407        -0.91487        -1.66204
LJ         -0.910361       -0.836564         2.56291
LJ          0.133309      -0.0597358         2.56185
LJ         -0.872151        0.157548        -1.61456
LJ        -0.0305811       -0.944967        -1.69258
LJ          0.793507       -0.990613        -2.53475
LJ           1.78193       0.0963446         2.53591
LJ          0.757647       0.0518821        -1.71267
LJ           1.65151        -0.88697        -1.60255
LJ           2.56102        0.849183         2.50633
LJ          -1.75858         1.74201        -2.54209
LJ           -2.4742         1.57322        -1.75584
LJ          -1.79788        0.822363        -1.73994
LJ          -0.82966        0.923247         2.36607
LJ         0.0453544         1.63182         2.43927
LJ         -0.796269         1.74663        -1.69171
LJ         0.0222117        0.863433        -1.81208
LJ          0.825033         0.93004        -2.49847
LJ           1.73615          1.7727        -2.56045
LJ           1.02077         1.75946        -1.76309
LJ            1.6447        0.796035        -1.60175
LJ          -2.50692        -2.54361       -0.871307
LJ          -1.61786        -1.73416       -0.813399
LJ          -2.55126        -1.77801      -0.0520877
LJ          -1.66021         2.54488      -0.0214267
LJ         -0.801303         2.50103       -0.843704
LJ         -0.039838        -1.59718       -0.884555
LJ         -0.857476        -1.69786      -0.0570465
LJ        -0.0961996         2.43751      -0.0970789
LJ          0.906191         2.50502       -0.808994
LJ           1.64872         -1.7198       -0.771603
LJ          0.746208        -1.85217       0.0697855
LJ           1.66723         -2.5184      -0.0217362
LJ          -2.55035       -0.893257       -0.751698
LJ          -1.84376        0.130129       -0.979025
LJ          -2.55659     -0.00442216      -0.0529323
LJ          -1.76996       -0.906159      -0.0538476
LJ         -0.805566       -0.773101       -0.781773
LJ         0.0138223        -0.20132       -0.930757
LJ         -0.940247       -0.163605       0.0205518
LJ       -0.00733485       -0.723005       0.0963264
LJ          0.954167       -0.789091       -0.881458
LJ           1.68636      -0.0105644       -0.899212
LJ          0.871119       0.0267647      -0.0599479
LJ           1.68071       -0.919771       -0.153338
LJ           2.54476        0.915972       -0.867698
LJ          -1.73214         1.68257       -0.903589
LJ           2.52107         1.69618       0.0237818
LJ          -1.68358        0.922789         0.11193
LJ         -0.823264        0.777344       -0.644391
LJ         -0.151644         1.74569        -0.99161
LJ         -0.978614         1.69826       -0.055731
LJ          -0.02347        0.901927        0.164162
LJ          0.803779        0.967534       -0.862791
LJ           1.78436         1.74768       -0.773301
LJ          0.702428         1.72124      -0.0994038
LJ           1.66518        0.760194       0.0580301
LJ          -2.54208        -2.50549        0.869495
LJ           -1.6292        -1.77794        0.970767
LJ           2.46749        -1.57541         1.71755
LJ          -1.79548         2.54689         1.68798
LJ         -0.883246         2.52017        0.779275
LJ         0.0688219        -1.77444        0.930552
LJ          -0.87196         -1.7272         1.82788
LJ         0.0744654        -2.50407         1.69273
LJ          0.987039         2.42526         0.87333
LJ           1.70692        -1.86591        0.839868
LJ          0.919346         -1.7554         1.56788
LJ            1.7616         2.55509         1.72822
LJ           2.50679       -0.806302         0.90259
LJ          -1.73166       0.0299399        0.894756
LJ          -2.49791      -0.0384168         1.85142
LJ          -1.74635       -0.926129          1.8349
LJ         -0.853718       -0.821303        0.755745
LJ          0.140878     -0.00617988        0.835583
LJ         -0.733786       0.0575642         1.70479
LJ        0.00567502       -0.917214         1.65403
LJ          0.811669       -0.854798        0.868231
LJ            1.6678       -0.157578        0.869464
LJ           0.82741     -0.00679498         1.71642
LJ           1.80707       -0.824522         1.64658
LJ           2.51824        0.823532        0.788279
LJ          -1.68967         1.64783        0.824877
LJ           2.53638         1.67218         1.79742
LJ          -1.59609        0.834813         1.76258
LJ         -0.873249         0.79565        0.813055
LJ         0.0217247         1.56792        0.877709
LJ         -0.788233         1.75737         1.66366
LJ       0.000185634        0.725243         1.58722
LJ           0.90298        0.765343        0.692886
LJ           1.60679         1.61334         0.78739
LJ          0.872353         1.57422         1.67981
LJ           1.71051        0.978446         1.66877
