108
#Comment!
LJ          -2.50875        -2.40816         2.54792
LJ          -1.75576        -1.48669         2.52454
LJ          -2.23021        -1.53756        -1.74526
LJ          -1.64059        -2.38697        -1.84351
LJ         -0.803668         2.27778        -2.44445
LJ          -0.10035         -1.5722         2.44384
LJ         -0.941793        -1.51489          -1.957
LJ         0.0453065         2.55007        -1.88853
LJ            1.0128        -2.33138        -2.40717
LJ           1.67763        -1.55857          2.4251
LJ           1.20095        -1.67525        -1.64888
LJ           1.90203           2.476        -1.58159
LJ           2.37935        -0.65442         -2.5434
LJ          -1.79907      -0.0619301         2.31282
LJ           -2.5005      -0.0922519         -1.7552
LJ           -1.4777       -0.668728        -1.76008
LJ          -0.91406       -0.741035         -2.5518
LJ         0.0835814        -0.17042        -2.46551
LJ         -0.837052        0.110519        -1.73489
LJ          0.161065       -0.965597        -1.69523
LJ          0.757738       -0.951161        -2.48884
LJ           1.63626       0.0159294        -2.40475
LJ           0.80707        0.180875        -1.70677
LJ           1.59253       -0.626889        -1.56997
LJ          -2.52348        0.846573        -2.42172
LJ          -1.87504          1.9583         2.41406
LJ          -2.50613         1.71598        -1.60401
LJ          -1.57025          0.7576        -2.03398
LJ         -0.522491        0.684882         2.52695
LJ         0.0356909         1.76268         2.32233
LJ          -1.30112         1.72987        -1.74415
LJ         0.0693477         1.00253        -1.69964
LJ           1.04939         1.04373        -2.50763
LJ           1.70212         1.86746          2.4972
LJ          0.959264         1.91036        -1.86617
LJ           1.82353        0.892437         -1.7516
LJ          -2.50944         2.53894       -0.723971
LJ          -1.43757         -1.6702        -0.91957
LJ          -2.30176        -1.64535         -0.1418
LJ          -1.60818         2.33816        0.109746
LJ         -0.670949        -2.45146        -1.02346
LJ         0.0953805        -1.78619       -0.684934
LJ          -0.69677        -1.78459       0.0213023
LJ       -0.00579456           2.336         0.11943
LJ          0.762677         2.47279       -0.922266
LJ           1.96512        -1.61094       -0.926864
LJ          0.824622        -1.86693        0.238435
LJ           1.74691        -2.44254       0.0714039
LJ          -2.37054       -0.814753       -0.881148
LJ          -1.82814        0.144113       -0.956277
LJ            -2.426       0.0294298     -0.00517306
LJ          -1.58082       -0.684248      -0.0339442
LJ         -0.762199       -0.764571       -0.723912
LJ        -0.0469216        0.113406        -1.03193
LJ         -0.672143      -0.0516427        0.142935
LJ         -0.064198       -0.864401        0.193957
LJ           1.00082        -1.07305       -0.770879
LJ           1.80382       -0.266656        -0.61994
LJ          0.810213       0.0963762        0.157219
LJ           1.95655        -1.06032      -0.0196362
LJ            2.4615        0.775838       -0.786301
LJ          -1.82022          1.7043       -0.682832
LJ           2.50137         1.71261      -0.0536975
LJ          -1.78367        0.924538        0.099716
LJ          -1.04364        0.812614        -1.00147
LJ         0.0109695         1.67658       -0.821129
LJ         -0.767512         1.69331       -0.149875
LJ         0.0577294        0.853999       -0.141574
LJ          0.880962        0.966989       -0.924117
LJ           1.62647         1.70838       -0.824475
LJ          0.943939          1.7004       -0.101249
LJ           1.62978        0.791866       0.0797738
LJ           2.49943         2.42514        0.685442
LJ          -1.46981        -1.83378        0.789037
LJ           2.54547        -1.40172         1.57019
LJ          -1.95366        -2.35122         1.64566
LJ         -0.866897          2.4079        0.975853
LJ       -0.00205236        -1.47454         1.12137
LJ         -0.986816        -1.73988         1.77077
LJ         0.0140569        -2.29594         1.75689
LJ          0.744678         2.39152        0.876495
LJ            1.6823        -1.55509         1.06786
LJ          0.776087         -1.6656         1.75617
LJ           1.70705        -2.55876         1.46062
LJ          -2.37475       -0.750029         0.71458
LJ           -1.6503       0.0967073        0.804175
LJ           2.42555       0.0361741         1.62647
LJ          -1.74207       -0.906123         1.60472
LJ         -0.819555       -0.844546         1.00066
LJ          0.135024        -0.20611        0.844721
LJ         -0.934194      0.00334198         1.83408
LJ           0.18218       -0.718521         1.75985
LJ          0.986686       -0.889043        0.578632
LJ           1.70508        -0.33664        0.796232
LJ          0.826505       0.0213366         1.71413
LJ           1.47562          -0.778         1.75983
LJ           2.42216        0.954617         1.07933
LJ          -1.86781         1.62546        0.994321
LJ           2.43653         1.87034         1.53226
LJ          -1.73874        0.870533         1.69947
LJ         -0.854716        0.941309        0.782974
LJ          0.379927         1.38169        0.713413
LJ          -0.68074         1.45958         1.73434
LJ          0.102888        0.775835         1.68805
LJ           1.18528        0.583279         1.02152
LJ           1.56022          1.8178        0.675983
LJ          0.965406         1.70804         1.69889
LJ           1.86726         1.05071         1.89198
