108
#Comment!
LJ          -2.34041         2.36894       -0.281266
LJ          0.865983        0.888588        0.381347
LJ          -1.42191       -0.435044         1.42247
LJ           0.99077       -0.337394         1.94112
LJ          0.919272        -1.81522        0.058301
LJ          -2.40537        -0.73401       -0.445756
LJ           1.92234        -1.79784         1.06893
LJ          -1.29627       0.0593574        0.365448
LJ           2.33106        -1.81976        -1.65584
LJ           2.54233        -1.90915       -0.697309
LJ           2.34105         2.36002        -1.14723
LJ           1.18066        -2.39573         2.25502
LJ          -2.37272        0.881009        -2.12001
LJ        -0.0106753         2.06709        -2.10837
LJ         -0.192996       -0.627966       -0.497862
LJ         -0.422359         1.58012        -1.28705
LJ           1.97435       -0.892985        0.730832
LJ          0.414979         1.13665       -0.590405
LJ           2.31732          1.1044         1.89468
LJ          -0.69582        0.464736         1.60551
LJ          -1.96986         1.69658          2.0656
LJ           0.93818        0.656574         2.04457
LJ           1.63502       -0.329004        -1.03103
LJ           1.60258         2.55725        -1.89096
LJ           1.07707       -0.217591        -1.97848
LJ         -0.600053         2.21231       -0.289214
LJ         -0.460014         1.78872        0.854447
LJ           1.56799       -0.103945        0.320876
LJ          -2.32536        0.235675      -0.0410077
LJ           1.71307        0.742294         1.01456
LJ         -0.690153        0.568939        -1.64841
LJ          0.573878        -2.19108        -2.02195
LJ          -1.09156        -1.89951        0.758067
LJ          -1.90855          1.0461        0.400763
LJ           1.45984         1.55399         1.71398
LJ          0.189195       -0.940732        -1.62173
LJ            2.2275         2.01976          1.0154
LJ           2.52251       -0.792159        -1.50345
LJ          -2.54704        -1.88499         2.47105
LJ          -2.07196        -2.17523        0.847796
LJ          -1.88392        0.445878         1.59168
LJ         -0.268183        -2.32838         1.21893
LJ           2.02504         1.53144       -0.137047
LJ           -2.2044        -1.20559        0.509009
LJ         -0.520011        0.766365        0.530902
LJ           1.17805         -2.2477       -0.863634
LJ           1.79204        -1.13395       -0.471083
LJ          0.756599        -1.13398       -0.882092
LJ           1.41616        -1.21822        -1.65207
LJ           0.01492        -2.18974       -0.727126
LJ          -1.00912        -1.00774        0.258245
LJ        -0.0995878        -0.22864        0.465239
LJ          -1.28469        0.846762        -2.51123
LJ          -1.72794       -0.983309        -1.18476
LJ          0.587417        -1.09931         1.31443
LJ          0.810944       -0.842297        0.280955
LJ           1.86728         -2.3603        0.142728
LJ         -0.201273         1.18327         2.45626
LJ           2.02862         2.14751         2.42659
LJ            2.0115        0.161817         1.84669
LJ         -0.801515       -0.585999        -1.54008
LJ         -0.481251        -1.85553        -1.97987
LJ         -0.353434       -0.506806         1.53707
LJ          0.816704        -2.40354         1.20239
LJ         -0.311011        0.302365       -0.649673
LJ           -1.0623       -0.216823         2.56282
LJ          -1.41647        -1.21088        -2.23744
LJ          -1.57255         2.05657       -0.905109
LJ          0.536861         2.15829        -1.19072
LJ          0.200638         1.24059         1.48267
LJ          -1.31506         2.51733         1.61384
LJ           1.08861         1.79266         0.69039
LJ            1.8671         1.37229        -2.00685
LJ         -0.767713        -1.39345         1.83823
LJ           2.04572      -0.0614432        -2.02476
LJ           -1.3305      -0.0360164       -0.780041
LJ         -0.856411        -1.61965         -1.0075
LJ          -2.39665        -2.49428         1.77091
LJ           1.22506         1.89982       -0.476503
LJ          0.150305      -0.0500434         2.39474
LJ          -1.72368        0.177847        -1.83095
LJ            1.4578          0.8527       -0.681846
LJ         -0.908372         1.09091       -0.368562
LJ          -1.93343         1.02567       -0.619013
LJ          -2.12886         2.08839        -1.83468
LJ          -1.43369         1.35187         1.31209
LJ           2.56432      -0.0799952        0.887627
LJ          0.381239         2.07504         1.92014
LJ        -0.0998296        -1.56691        0.410846
LJ           0.54401        -1.17072        -2.54397
LJ           2.39642          1.3931        -1.13604
LJ          0.928341         1.67441        -2.44161
LJ          0.354968         2.18887        0.174251
LJ          -1.98567        -1.43197         1.61224
LJ        -0.0884415        -2.15038         2.27038
LJ           2.31312       -0.782295         1.72205
LJ          -2.47299        0.179965         -1.1541
LJ          -1.42295         1.35845        -1.58499
LJ          -1.39294         2.22758         0.39676
LJ         -0.919643         2.00419         2.34485
LJ          -1.66495        -2.16269        -1.69765
LJ          -1.58823        -2.09353         2.38703
LJ          0.380765        0.464278        -1.73052
LJ           1.70756        -1.34522           2.307
LJ          0.772558      -0.0538549       -0.375233
LJ          -1.71823         -1.8569       -0.248093
LJ          0.790352        0.204406         1.08617
LJ          -2.23721       -0.384373         2.41712
