108
#Comment!
LJ            2.4549        -2.48469         2.48546
LJ          -1.68641         -1.8552         2.47429
LJ          -2.55877        -1.66286        -1.51682
LJ           -1.8883        -2.53792        -1.83095
LJ         -0.946372          2.4682         2.46119
LJ         -0.211527        -1.81795         2.55731
LJ         -0.901266        -1.53875        -1.73529
LJ         0.0475075           2.389        -1.73785
LJ          0.877653         2.52266        -2.38297
LJ           1.78521        -1.72781          2.5289
LJ          0.796029        -1.61286        -1.59363
LJ            1.9735        -2.55385        -1.59752
LJ           2.43074       -0.819763        -2.51154
LJ            -1.789       0.0866469         2.51646
LJ          -2.49949        0.174575        -1.74335
LJ          -1.80618       -0.656101        -1.38368
LJ          -1.21821       -0.899055         2.49807
LJ         0.0235318       -0.139908         2.50233
LJ         -0.811118        0.127472        -1.76901
LJ         0.0529249       -0.920722        -1.71654
LJ          0.913147        -1.02334         2.56386
LJ           1.72384        0.110558          2.5353
LJ          0.812603       0.0235788        -1.47867
LJ           1.69815       -0.892269        -1.74087
LJ          -2.51655          1.0588         2.43183
LJ          -1.70968         1.88492         2.49802
LJ          -2.50486         1.69711        -1.73248
LJ          -1.61086        0.947849         -1.9037
LJ         -0.714576         1.08274         2.41723
LJ         0.0230072         1.69907         2.39675
LJ         -0.759907         1.61968        -1.75205
LJ        -0.0822511        0.785341         -1.8172
LJ          0.813198        0.860983        -2.47723
LJ           1.82443         1.95407         2.47835
LJ           1.00043         1.76015        -1.54444
LJ           1.79001        0.825876          -1.805
LJ          -2.44802         2.50843       -0.800595
LJ          -1.53471        -1.83015         -0.6043
LJ           2.52215        -1.72988      -0.0502509
LJ          -1.68484         2.43493      -0.0401107
LJ         -0.812643         2.45463       -0.948785
LJ         0.0714591        -1.66039       -0.909556
LJ          -0.82822        -1.79162       0.0854368
LJ         -0.240657         2.27863      0.00579134
LJ          0.842091        -2.52237       -0.964445
LJ           1.76134        -1.62427       -0.801499
LJ          0.710722         -1.8841      -0.0155807
LJ            1.5593        -2.47665       -0.193875
LJ           2.51603       -0.912577       -0.783008
LJ          -1.79767        0.161924       -0.776761
LJ           2.54397       -0.027677      -0.0514303
LJ          -1.72632       -0.737803      -0.0462533
LJ         -0.807852       -0.751374       -0.870587
LJ        -0.0542871        0.170206       -0.853607
LJ          -0.82386      -0.0146725      -0.0646486
LJ       0.000997346       -0.754568      0.00903071
LJ          0.734509       -0.942832       -0.710821
LJ           1.70528       -0.114201       -0.819025
LJ          0.825423       0.0127081        -0.10116
LJ           1.67783       -0.923407      -0.0163511
LJ          -2.50378         1.00479       -0.813936
LJ          -1.56643         1.68651        -1.08532
LJ          -2.48477         1.71217       0.0341667
LJ          -1.91072        0.761988       0.0967471
LJ         -0.988233        0.717472        -0.85198
LJ        -0.0457299         1.62317       -0.930186
LJ         -0.828519         1.48823      -0.0886276
LJ         0.0708648         1.02607       0.0982686
LJ          0.828541         1.02868       -0.762665
LJ           1.84509         1.68823       -0.943029
LJ           0.76631         1.92485       0.0152179
LJ           1.75718        0.848125       -0.114798
LJ           2.39803         -2.4833         1.01569
LJ          -1.50434        -1.69523        0.990113
LJ          -2.50411        -1.53322         1.78608
LJ          -1.93751         2.51652         1.65988
LJ         -0.649765        -2.53999        0.934057
LJ          0.219632        -1.70841        0.951112
LJ         -0.910231        -1.64652         1.78232
LJ         0.0870422        -2.48836         1.78792
LJ           1.17124        -2.50343        0.889019
LJ           1.75524        -1.49816        0.905114
LJ          0.970287        -1.69303         1.70821
LJ           1.58201        -2.41824         1.82152
LJ           2.51863        -0.62125         0.92716
LJ          -1.87188       0.0886163        0.791899
LJ          -2.56414      -0.0175941         1.90017
LJ          -1.66971        -0.90564         1.60572
LJ         -0.694037        -0.85842        0.862134
LJ         0.0691434       -0.120302         0.87336
LJ         -0.827256        0.105072         1.95414
LJ          0.128407       -0.901018         1.65367
LJ          0.907766       -0.850753        0.920209
LJ           1.58568      -0.0673585         0.61076
LJ          0.806888       -0.109339         1.90808
LJ           1.71013       -0.887381         1.74518
LJ           2.45289        0.759667        0.714284
LJ          -1.56488         1.91907        0.833449
LJ          -2.55656         1.61943         1.55111
LJ          -1.57979        0.879709         1.65731
LJ          -1.03081        0.697334        0.820461
LJ          0.131496         1.63572        0.820262
LJ         -0.749392         1.74109         1.46518
LJ        -0.0337135        0.866324          1.6796
LJ          0.798086        0.738746         1.00279
LJ           1.78083         1.72977        0.826114
LJ           0.97849          1.6207         1.81243
LJ           1.70941         0.88226         1.68002
