108
#Comment!
LJ          -2.53078        -1.47708        -2.03301
LJ          -2.41713       -0.220098        -1.57753
LJ          0.688729         2.29776        -1.90645
LJ          0.489739        -2.47214         2.04205
LJ         -0.635916         1.20267        -1.17312
LJ           1.93931        0.616018        -1.41582
LJ          -1.52966          -1.318        -2.37134
LJ            1.8207       -0.164119        0.126266
LJ           2.29919         1.29812         1.94377
LJ           2.33264         -2.3329       -0.550074
LJ         -0.525701        -2.43156        0.219826
LJ         0.0087428        -1.04558        -1.97527
LJ          -2.28384        -2.45433        -2.51874
LJ         -0.366469       -0.251117         1.85374
LJ            0.3619        -2.47543       -0.180676
LJ          -2.42949         2.37214         1.47835
LJ           1.38554        -1.72058        -1.87452
LJ          0.153243       -0.260299        0.826272
LJ         -0.242214         2.41523        -1.07789
LJ         -0.299979         1.78026         1.15203
LJ           -1.2629       -0.957617         1.72737
LJ          0.288363        0.565965         1.54037
LJ           1.40496      -0.0864679       -0.888229
LJ          0.847703        -1.13351       -0.527865
LJ          -2.08158       -0.514752         2.49784
LJ          0.499632         2.28946        0.911957
LJ           2.38445        -2.39308        0.463329
LJ          -2.52108         -1.3333         2.10461
LJ           1.63658         2.34133         1.20175
LJ           2.37936         1.73332       -0.827846
LJ          -1.33444         2.56458         1.17557
LJ          -1.76193        0.358605        0.291858
LJ           -2.2104         1.15411         1.10224
LJ         -0.364162        -1.97396        -2.27182
LJ         0.0746489       -0.403305        -1.10296
LJ           2.23942        0.296324         1.19816
LJ          -1.26454        -2.37982        -2.11195
LJ         -0.392885         1.85781        -1.91784
LJ          0.617251          0.0081      -0.0215987
LJ          -2.00422         1.78441        -1.92504
LJ          -1.69021        0.599102        -1.25347
LJ          0.413014         1.53081        -1.05181
LJ          0.899754         1.72505       -0.209101
LJ          -2.15778        0.758215        -2.14296
LJ          -2.15958       -0.381697         1.37924
LJ          -0.45273        0.286384        -1.73518
LJ           1.85167       -0.649792         1.69762
LJ           2.02066         1.88676        -2.42218
LJ           0.65752        0.788257        -1.80391
LJ         -0.188882        -1.28198         1.99998
LJ         -0.964291        -1.53149        -1.29707
LJ          0.202999         1.24142         2.37433
LJ           1.13129        -2.11881        0.490565
LJ         -0.635897      -0.0432104     -0.00811019
LJ           1.43852        0.842216       -0.595804
LJ          0.635616          1.2212        0.768328
LJ           1.78308         2.01671        0.135064
LJ           -2.3051       -0.659769        0.249844
LJ          -1.35211       -0.715016        0.586864
LJ           1.85337       -0.501126        -2.16509
LJ           1.25015        0.908904         1.65057
LJ           -1.1968        0.127611         2.44044
LJ           1.32973         2.52567       -0.744511
LJ         -0.991975         1.07814         1.81483
LJ         -0.671884         2.20932         1.95501
LJ          -1.64377         1.36988       -0.589967
LJ            1.4827        0.916108         -2.3442
LJ          -2.00832        -1.54041     -0.00786445
LJ          0.451205        -1.91701        -1.31576
LJ           1.41613           1.652         -1.5458
LJ          -1.42505         1.38657         0.39792
LJ         -0.974772        -1.33645       -0.175459
LJ          -1.96776        -1.99316        -1.26143
LJ          0.172149        0.806815       -0.367087
LJ           2.18831        -1.43588       -0.123037
LJ          0.813453       -0.445164        -1.94812
LJ           1.15326         1.84319         2.12777
LJ          -2.27752         -1.5373         1.11669
LJ          -2.00526        0.646543         1.96134
LJ          0.540559         -1.6303          1.2791
LJ           2.22599        0.136069         2.22073
LJ          -1.16558        0.168783         1.19963
LJ          -1.73318       -0.315824       -0.683323
LJ         -0.291183        0.741014        0.518226
LJ         0.0768361        -1.59583        0.213922
LJ           1.60004        -2.32889         2.32553
LJ         -0.400967        -2.07623         1.28504
LJ           1.85739        -1.68456         1.28097
LJ           2.23303       -0.586266       -0.698896
LJ           2.39021         2.43268        -1.55781
LJ          -1.51936        -1.99037         2.05977
LJ          -2.50222        0.304463       -0.542034
LJ         -0.510695        -1.06056        0.979334
LJ           1.73103        -1.41883        -1.00295
LJ          -1.20815         2.04739        -1.26908
LJ           1.18664       -0.967334        0.689886
LJ         -0.278065          1.5994      -0.0230691
LJ           1.05539        -1.29699         2.44286
LJ          0.382909        0.154969         2.47569
LJ          -1.29248       -0.354368        -1.69594
LJ             1.225       0.0310986         0.99256
LJ           -1.1863        -1.63315        0.755036
LJ          -2.53772         1.32309       0.0170379
LJ          -1.86943         2.28763      -0.0792557
LJ          -1.89514         1.70732         1.96607
LJ          -1.21543        -2.33808       -0.587456
LJ          -1.10036         1.11195        -2.30708
LJ          0.677589       -0.633048          1.6782
