108
#Comment!
LJ          -2.50593        -2.27438        -2.55476
LJ          -1.68323        -1.51051        -2.56482
LJ          -2.43797        -1.55906        -1.73239
LJ          -1.71236         -2.4409        -1.76383
LJ         -0.819908         2.35899        -2.47769
LJ        -0.0916602        -1.53977         2.53152
LJ           -0.8193        -1.42884         -1.9524
LJ          0.118755        -2.51807        -1.81527
LJ           1.08973        -2.50813        -2.55743
LJ           1.60082        -1.52041         2.41365
LJ           1.04922         -1.7673        -1.74769
LJ           1.93105         2.56094        -1.62562
LJ           2.54894       -0.754554        -2.42909
LJ          -1.92462      -0.0389438         2.30424
LJ           2.53255       0.0564102        -1.59372
LJ          -1.62547       -0.557417        -1.60225
LJ         -0.777025       -0.713257         2.49697
LJ         0.0922796      -0.0412973        -2.36592
LJ         -0.728245       0.0736501        -1.75229
LJ         0.0874216       -0.871253         -1.5342
LJ          0.719836        -0.98659        -2.51934
LJ           1.70443       0.0702677        -2.44135
LJ          0.882241        0.223945        -1.59205
LJ           1.40809       -0.694459        -1.50562
LJ            2.5628         0.89902        -2.35821
LJ          -1.77129         1.89545         2.44845
LJ          -2.44384         1.73543        -1.52062
LJ          -1.53317        0.639317        -2.01645
LJ         -0.490485        0.827235          2.5134
LJ         0.0700549         1.85774         2.46382
LJ          -1.20662         1.61748        -1.70674
LJ         -0.171488         1.01995        -1.67851
LJ           1.00443        0.993726        -2.50465
LJ             1.793         1.95056         -2.5467
LJ           0.93843         1.84429        -1.79922
LJ           1.73548         1.23408        -1.80141
LJ          -2.56299        -2.39908       -0.626094
LJ          -1.40118        -1.58661       -0.849035
LJ          -2.25754        -1.61612       0.0383366
LJ          -1.71078         2.43344        0.358717
LJ         -0.692998         2.55916        -1.03861
LJ         0.0516691        -1.85065       -0.714736
LJ         -0.807272        -1.82211       0.0478766
LJ         0.0537772         2.46691       0.0904106
LJ           1.01809        -2.48167       -0.949949
LJ           1.92296        -1.50529       -0.930606
LJ          0.740836        -1.95619        0.256599
LJ           1.69696        -2.48108       0.0339417
LJ            -2.258       -0.802138       -0.750619
LJ          -1.85874        0.238787       -0.945414
LJ          -2.43773     0.000287386       0.0104597
LJ          -1.58617       -0.621902       -0.124638
LJ         -0.727783       -0.808487       -0.829497
LJ        -0.0282862      -0.0017013       -0.807427
LJ          -0.65409      -0.0607679       0.0505063
LJ        -0.0023936        -1.08518       0.0815734
LJ          0.902751        -1.14357       -0.677098
LJ           1.91187       -0.315861       -0.555981
LJ          0.834538       0.0814281        0.035593
LJ           1.91372        -1.06983        0.167614
LJ           2.35161        0.782864       -0.724462
LJ          -1.79355         1.63489       -0.643424
LJ           2.37246         1.63568      0.00627765
LJ          -1.80734         1.01678        0.134651
LJ         -0.862352        0.869851        -0.90456
LJ       -0.00520563         1.80382       -0.936012
LJ         -0.782357         1.70272       -0.109229
LJ          0.164812        0.931805       -0.191817
LJ          0.834633        0.969848       -0.969178
LJ           1.73915         1.75288       -0.808498
LJ          0.857524         1.85559       -0.126482
LJ           1.69571        0.716666       0.0880108
LJ           2.44072         2.43329        0.704576
LJ          -1.49017         -1.8171        0.866739
LJ            2.4269        -1.45659         1.63952
LJ          -1.95775         -2.4156         1.65375
LJ         -0.709625         2.45533        0.968851
LJ          -0.14565        -1.57503         1.09702
LJ         -0.884465        -1.64673         1.78078
LJ        -0.0111583        -2.31921         1.78772
LJ          0.832774         2.48878        0.890762
LJ           1.57198        -1.69067        0.986598
LJ          0.777785         -1.5511         1.64269
LJ           1.59662         2.53007         1.54352
LJ          -2.36641       -0.781956        0.894527
LJ          -1.84545        0.188374        0.794546
LJ           2.33884        0.113414         1.68362
LJ          -1.59199       -0.844709         1.63752
LJ         -0.940625       -0.891565        0.845721
LJ          0.106463      -0.0505148        0.868297
LJ          -1.00173      0.00399591         1.58334
LJ         0.0383131       -0.688566         1.77653
LJ          0.975191       -0.913344        0.504116
LJ           1.66774       -0.199293        0.886526
LJ          0.956335      -0.0428781         1.69691
LJ           1.55272       -0.834866         1.71538
LJ            2.3612        0.954411         1.04377
LJ          -1.93083         1.67262        0.955344
LJ           2.39685         1.93401         1.62175
LJ          -1.70172        0.843809          1.6523
LJ         -0.947582        0.852836        0.896251
LJ          0.273193         1.48973        0.742715
LJ         -0.704009         1.44459         1.68868
LJ          0.124976        0.694862         1.62362
LJ           1.14747        0.654487         1.09014
LJ           1.55539         1.74777        0.779119
LJ          0.838415         1.78161          1.6084
LJ            1.7601        0.913385         1.91331
