108
#Comment!
LJ           2.42074          2.5579          2.4799
LJ          -1.67438        -1.89959        -2.56363
LJ          -2.52231        -1.70152         -1.7821
LJ          -1.81478         2.50504        -1.69691
LJ         -0.931379          2.3863         2.47912
LJ         -0.157122        -1.82528        -2.47288
LJ         -0.820459        -1.60657        -1.57303
LJ        -0.0133169        -2.55967         -1.6509
LJ          0.899218         2.54178        -2.49157
LJ           1.61603        -1.80751         -2.5183
LJ          0.830689        -1.50466        -1.60999
LJ           1.85948        -2.41518        -1.71024
LJ           2.46914       -0.893607          2.4819
LJ          -1.61717       0.0505939         2.54915
LJ          -2.51951        0.152592        -1.81948
LJ          -1.83319       -0.985567        -1.73261
LJ          -1.12741       -0.812876         2.50122
LJ         0.0332265       -0.120185         2.49994
LJ         -0.787203       0.0631439        -1.71339
LJ          0.024266       -0.825602        -1.66284
LJ          0.878118        -0.91837          2.5622
LJ            1.8075        0.140877        -2.53068
LJ          0.731677        0.189393        -1.61684
LJ           1.68596       -0.808052        -1.70029
LJ          -2.53262        0.844602          2.5335
LJ          -1.76788         1.76377         2.53832
LJ           2.55077         1.63839        -1.80478
LJ          -1.77512        0.928939        -1.71497
LJ         -0.668042         1.03177         2.31239
LJ          0.155135         1.76481         2.38691
LJ         -0.883088         1.66836        -1.60911
LJ        -0.0899396        0.945741        -1.83848
LJ          0.744255        0.953403        -2.33921
LJ           1.80138         1.72351        -2.52592
LJ          0.913311         1.78177        -1.59311
LJ           1.74831        0.868571        -1.70676
LJ          -2.49206        -2.43162       -0.803664
LJ          -1.47425        -1.73723       -0.737932
LJ           2.47663        -1.82936     -0.00173792
LJ          -1.57459         2.50585     -0.00623126
LJ         -0.773034        -2.54761       -0.780365
LJ        -0.0311207        -1.74856       -0.989536
LJ         -0.860082         -1.7823        0.158395
LJ         -0.124587         2.41301       -0.015828
LJ            0.8415          2.5178       -0.819838
LJ            1.5525        -1.81018       -0.800846
LJ          0.722051        -1.77243        0.151568
LJ            1.6596         -2.4841      -0.0851019
LJ          -2.48612       -0.899575       -0.768633
LJ            -1.981        0.199064       -0.815108
LJ           2.51823       0.0365482      -0.0392073
LJ          -1.64213       -0.880829       -0.063744
LJ         -0.899336       -0.697132       -0.832347
LJ        -0.0500964     -0.00594109       -0.749038
LJ         -0.859746       0.0219117      -0.0831013
LJ        -0.0368857       -0.664391      -0.0456223
LJ          0.969119       -0.820336       -0.756555
LJ           1.75229        -0.15217       -0.841487
LJ          0.892802      -0.0419583      -0.0664382
LJ           1.69635        -1.01129       -0.151622
LJ           -2.5557         1.05287       -0.867975
LJ           -1.7226         1.75206       -0.978223
LJ           2.54389         1.76931        0.143605
LJ          -1.79289        0.916419       0.0674082
LJ         -0.776005        0.747768         -0.8043
LJ          -0.13748         1.69225        -0.93782
LJ         -0.894487         1.70089       -0.199586
LJ         -0.117634        0.985877      -0.0625063
LJ          0.681893        0.945241       -0.813618
LJ            1.7557         1.90675       -0.894905
LJ          0.654425         1.79369      -0.0552025
LJ           1.61818        0.767193        0.084118
LJ           2.51232         2.49128        0.879046
LJ          -1.58738        -1.70493        0.922469
LJ            2.3985        -1.71754         1.71385
LJ          -1.84117         2.49426         1.65725
LJ         -0.814838         2.47837        0.792715
LJ       -0.00439968        -1.70706        0.833574
LJ         -0.851637        -1.75531         1.73392
LJ          0.148459        -2.51936         1.84519
LJ           1.07926         2.50998        0.995419
LJ           1.71718        -1.77324        0.840567
LJ          0.928508        -1.58475         1.65195
LJ           1.68667        -2.49488         1.79803
LJ            2.4898       -0.600732        0.880848
LJ          -1.80587      0.00738416        0.874579
LJ          -2.42697      0.00582386         1.95557
LJ          -1.78831       -0.834378         1.61776
LJ         -0.680389       -0.885498         0.78047
LJ         0.0582759      -0.0359888        0.809349
LJ         -0.652522       0.0797927         1.76385
LJ          0.047774       -0.890652         1.61001
LJ          0.780161       -0.893836        0.842342
LJ           1.59275      -0.0123832         0.73993
LJ          0.808201       -0.169072         1.80118
LJ           1.66132       -0.919457         1.70276
LJ           2.38041        0.921691        0.856177
LJ          -1.80943          1.7407        0.782114
LJ          -2.54581         1.70631         1.81817
LJ          -1.79138         0.77713         1.65522
LJ         -0.842418        0.704841         0.87151
LJ        -0.0616692         1.64692        0.880541
LJ         -0.859056         1.73411         1.62349
LJ         0.0190644        0.808559         1.55998
LJ          0.839939        0.774717         0.83038
LJ           1.74716         1.80127          0.8391
LJ          0.858808         1.59287         1.67754
LJ           1.68408         1.05246         1.66088
