108
#Comment!
LJ          -2.55546        -1.55132        -1.93288
LJ          -2.30454       -0.190179        -1.64614
LJ          0.795856         2.39444        -1.91657
LJ          0.419253        -2.55989         2.12767
LJ         -0.744245         1.08549        -1.07777
LJ           1.79173        0.653086         -1.5619
LJ          -1.41208        -1.23413        -2.46665
LJ           1.82304       -0.160988        0.156891
LJ           2.22058         1.31226         1.73584
LJ           2.38441        -2.34102       -0.547185
LJ          -0.70142        -2.48453        0.253469
LJ         0.0688402        -1.08442         -2.0078
LJ           -2.3209        -2.44141        -2.53813
LJ         -0.354198       -0.330495         1.79794
LJ          0.331258         2.56051       -0.280358
LJ           -2.4282         2.34449         1.43656
LJ           1.28715        -1.94547        -1.86133
LJ          0.239018       -0.189428        0.863948
LJ         -0.185345         2.49223        -1.17592
LJ         -0.310593         1.62965         1.19229
LJ          -1.35464       -0.987245         1.62473
LJ          0.158341        0.598708         1.62862
LJ           1.32303       -0.145536       -0.852125
LJ           0.86852        -0.98793       -0.502465
LJ          -2.09224       -0.407225         2.41628
LJ          0.532885         2.36768        0.943039
LJ           2.27828        -2.33291        0.502166
LJ          -2.41616        -1.46499         2.08902
LJ           1.53808         2.26953          1.2373
LJ           2.26035         1.82473       -0.887977
LJ          -1.24016          2.4969          1.0942
LJ          -1.62637         0.36681        0.169026
LJ          -2.12497         1.27839          1.0064
LJ         -0.201545        -2.10936        -2.25234
LJ         0.0353682       -0.609362        -1.08535
LJ           2.34075        0.418127         1.21688
LJ          -1.36084        -2.34646        -2.14041
LJ           -0.3323         1.81977        -2.00874
LJ          0.858271     -0.00351495       0.0310695
LJ           -1.8837         1.75582        -2.01424
LJ          -1.73455        0.513183        -1.21323
LJ          0.367784         1.66021        -1.15033
LJ          0.773977         1.69317       -0.184847
LJ          -2.26173        0.692802        -2.18153
LJ           -2.1161       -0.422358         1.34733
LJ         -0.431695        0.405518        -1.88372
LJ           1.95378       -0.692787         1.68213
LJ           2.06217         1.93797        -2.42166
LJ          0.620967        0.902135        -1.74388
LJ         -0.252037        -1.31753         2.12827
LJ          -1.04802        -1.62437         -1.5211
LJ         0.0940087         1.31562         2.46648
LJ           1.29738        -2.22033        0.337112
LJ         -0.641337      -0.0839203      -0.0219101
LJ           1.47376        0.980524       -0.449452
LJ          0.614621         1.25263        0.639713
LJ           1.81251         1.94427      -0.0206324
LJ          -2.38386       -0.564462        0.148898
LJ          -1.38728       -0.516845        0.530177
LJ           1.95058       -0.596699        -2.00398
LJ           1.31085        0.829388         1.56509
LJ          -1.13284       0.0390342         2.51889
LJ           1.30396        -2.41953       -0.583396
LJ         -0.970402         1.17113         1.75515
LJ         -0.671135         2.11402         2.14861
LJ           -1.6381         1.35388       -0.566807
LJ           1.50526         1.06023        -2.50372
LJ          -1.97421        -1.70668       -0.146362
LJ          0.379329        -1.77193        -1.17237
LJ           1.46639          1.7006        -1.42909
LJ          -1.25451         1.46899        0.501312
LJ         -0.901385        -1.19306       -0.326602
LJ          -2.05006        -2.01434        -1.13028
LJ          0.190194        0.863092       -0.479816
LJ           2.05168        -1.35385      -0.0568294
LJ          0.943378       -0.285808        -1.77099
LJ            1.0922         1.84384         2.20022
LJ          -2.21304        -1.52549         1.07842
LJ          -1.85273        0.559366         1.95832
LJ          0.586473        -1.65114         1.46851
LJ           2.24667        0.233208         2.29593
LJ          -1.11885        0.223301          1.2252
LJ          -1.60315       -0.352291       -0.562857
LJ         -0.253258         0.68238         0.66836
LJ        -0.0142606        -1.63359        0.152009
LJ            1.7862        -2.21687         2.37862
LJ         -0.505944        -1.95257          1.3773
LJ           1.81842        -1.81618         1.28819
LJ           2.35219       -0.622281       -0.827141
LJ           2.28939        -2.51827        -1.62714
LJ          -1.33304        -2.01051         1.99532
LJ           -2.5317        0.393592       -0.380928
LJ         -0.361866       -0.950309        0.997391
LJ           1.74569        -1.45372        -1.09319
LJ          -1.18335         2.06803        -1.35407
LJ           1.36629         -1.0545        0.444972
LJ         -0.371842         1.73923         0.10572
LJ           1.08267        -1.21681         2.37147
LJ          0.462021        0.134851         2.49099
LJ          -1.29763        -0.54147        -1.63768
LJ           1.25379      -0.0397354          1.0555
LJ          -1.35418        -1.73888        0.652362
LJ           2.54251         1.21823       0.0516091
LJ          -1.98531         2.22341       0.0667124
LJ          -1.84193         1.61038         2.10266
LJ          -1.22466        -2.27586       -0.597575
LJ          -1.08436         1.07519        -2.27167
LJ           0.63192       -0.643237          1.6868
