108
#Comment!
LJ             2.543         -2.5189         2.45254
LJ           -1.7939        -1.71967         2.49177
LJ          -2.52439        -1.67406        -1.63914
LJ          -1.76177        -2.40821        -1.76353
LJ         -0.877623         2.47713          2.5093
LJ         0.0673374         -1.9733        -2.53243
LJ         -0.912161        -1.52961        -1.56286
LJ          0.113946         2.28674        -1.68491
LJ           1.01092         2.33826        -2.39913
LJ           1.78051        -1.67982        -2.55505
LJ           1.01438        -1.82489        -1.67892
LJ           1.94409         -2.5275        -1.51143
LJ           2.51283       -0.830237         2.55664
LJ          -1.78516       0.0872733        -2.52514
LJ            -2.463        0.192948        -1.78281
LJ          -1.62527       -0.477174        -1.39759
LJ          -1.13881       -0.922591        -2.49353
LJ          -0.10416       -0.200232        -2.43354
LJ         -0.802243        0.116625        -1.73981
LJ          -0.11105         -1.0217        -1.81077
LJ          0.973625        -1.07404        -2.47287
LJ           1.68047       0.0800054        -2.55341
LJ          0.786712      -0.0917545        -1.58566
LJ           1.71976       -0.848714        -1.70739
LJ          -2.43452         1.05426         2.36811
LJ          -1.77228         1.82557         2.55316
LJ          -2.52749         1.71529        -1.64296
LJ          -1.51025        0.881317        -1.70616
LJ         -0.698852          1.0742        -2.51952
LJ          0.126582         1.83663         2.52246
LJ         -0.739217         1.78358        -1.75847
LJ         0.0840167        0.904327        -1.81486
LJ          0.930274        0.817386        -2.48991
LJ           1.80365         1.79984         2.42493
LJ          0.924028          1.6593        -1.58847
LJ           1.80521        0.817686        -1.75447
LJ          -2.55787         2.40144       -0.726285
LJ           -1.5068        -1.87584       -0.720425
LJ           -2.4661        -1.77204        -0.11983
LJ           -1.7017         2.44612      -0.0894896
LJ         -0.656259        -2.46699       -0.986379
LJ         0.0674055        -1.70495       -0.881348
LJ         -0.546597        -1.78477    -0.000664685
LJ         -0.222822         2.35623        0.101007
LJ          0.824514        -2.54044       -0.925395
LJ           1.72413        -1.71237       -0.870947
LJ          0.638919        -2.00386        0.166214
LJ           1.63947        -2.38039       0.0164528
LJ          -2.42941       -0.929274       -0.740512
LJ          -1.90671       0.0891192       -0.619942
LJ           2.38858       0.0674234      -0.0287325
LJ          -1.65265       -0.845312         0.03332
LJ         -0.617141       -0.792512       -0.823035
LJ         0.0229171        0.154948       -0.899073
LJ         -0.856609      -0.0382445      -0.0510874
LJ         0.0222172       -0.813825        0.228406
LJ          0.841513        -0.87933       -0.705379
LJ           1.86737       -0.157974       -0.871197
LJ          0.819881       0.0332853      -0.0924894
LJ           1.68468        -0.83229       -0.127894
LJ          -2.47979        0.964749        -0.96409
LJ          -1.60423         1.74661        -1.04739
LJ           2.53175         1.64912       0.0786824
LJ          -1.92802        0.885789       0.0965786
LJ         -0.895176        0.716789       -0.880103
LJ         -0.100526         1.53294       -0.827787
LJ         -0.892915         1.47953      -0.0104777
LJ         0.0584705        0.940239        0.170194
LJ          0.833011        0.999639       -0.637798
LJ           1.78371         1.64561       -0.899051
LJ          0.794423         2.00213       0.0219783
LJ            1.7134        0.864892       -0.121175
LJ           2.51644        -2.53235        0.810173
LJ          -1.49126        -1.72846        0.718521
LJ           2.47998        -1.48166         1.67367
LJ          -1.92849         2.47362         1.56318
LJ         -0.781705        -2.43258         1.10695
LJ          0.131265         -1.5902         0.90226
LJ         -0.816008        -1.62758         1.71389
LJ          0.139779         -2.4101         1.70417
LJ           1.01138         2.50653        0.869563
LJ           1.92701        -1.54425        0.673979
LJ          0.898237        -1.76519         1.73159
LJ           1.63599        -2.50803         1.74982
LJ            2.4517       -0.655028        0.988778
LJ          -1.79438      0.00307428        0.777909
LJ           2.45775       0.0465945         1.94225
LJ           -1.6675       -0.989996         1.49711
LJ         -0.737383       -0.873174         1.01535
LJ         0.0449641      -0.0685912        0.972498
LJ         -0.860899        0.170268         2.09814
LJ          0.162053       -0.987449         1.75193
LJ           1.00865       -0.878243        0.819962
LJ           1.63095       -0.121851         0.63737
LJ          0.686688      -0.0329369         1.87169
LJ            1.5366       -0.844445         1.66492
LJ           2.48677        0.657719        0.925283
LJ          -1.47306         1.95556        0.758313
LJ           2.46422          1.5448         1.54482
LJ          -1.57296        0.892097         1.56141
LJ         -0.953102        0.668386        0.838477
LJ          0.147961         1.56509         0.86273
LJ         -0.827786         1.60687         1.53387
LJ        -0.0486983        0.940021         1.53681
LJ           0.82652        0.654708        0.899978
LJ           1.72516         1.74501        0.739716
LJ          0.855252         1.58728         1.76032
LJ           1.75833        0.739233          1.6881
