108
#Comment!
LJ          -2.53758        -2.31552         2.32602
LJ           -1.7709        -1.58166          2.4821
LJ          -2.25683        -1.55104        -1.64911
LJ          -1.78271        -2.54927        -1.59221
LJ         -0.676106         2.37069          2.5503
LJ          0.071371        -1.79803        -2.42992
LJ          -1.19868        -1.53784        -1.76312
LJ        -0.0387078         2.19021        -1.86611
LJ          0.818719        -2.52733         2.51874
LJ           1.80619        -1.60147         2.42501
LJ          0.839529         -1.9263        -1.67679
LJ           1.96129         2.38406        -1.82984
LJ           2.51822       -0.844274         2.45255
LJ          -1.74377       0.0876376         2.54419
LJ           2.42021        0.132446        -1.76948
LJ          -1.85203       -0.530896        -1.66576
LJ          -1.03749       -0.793063        -2.39858
LJ        -0.0272837       -0.278447        -2.42062
LJ          -1.05135       0.0430261        -1.73678
LJ        -0.0629007        -1.11998        -1.72858
LJ           0.78919        -1.03823        -2.55717
LJ           1.65814        0.048643         2.52927
LJ          0.965563        0.114987        -1.75592
LJ           1.63229       -0.756236        -1.68447
LJ          -2.46557        0.869187        -2.49829
LJ          -1.70054          1.8666         2.35883
LJ          -2.44993         1.59466        -1.60052
LJ          -1.75179        0.871625        -1.78789
LJ         -0.506937        0.989108         -2.5035
LJ          0.164576         1.70701         2.40378
LJ          -1.07467         1.67713        -1.79595
LJ          0.180685         1.03654        -1.80106
LJ          0.836763        0.913069        -2.53695
LJ           1.74354         1.75607          2.3748
LJ           0.93144         1.91614        -1.91351
LJ           1.74956         1.12519        -1.71155
LJ           2.51467         2.36617       -0.752389
LJ          -1.55714        -1.69052       -0.754776
LJ          -2.40712        -1.78038        -0.10256
LJ          -1.71943         2.37709       0.0451089
LJ         -0.686654        -2.53847        -1.06651
LJ          0.100763        -1.62761       -0.792709
LJ         -0.759594        -2.05259       -0.220991
LJ         -0.163245         2.31588        0.115918
LJ          0.899568        -2.47412       -0.921833
LJ           1.88594        -1.70729        -1.05605
LJ          0.811719        -1.85501        0.323332
LJ           1.70345        -2.51003       -0.152621
LJ          -2.40151       -0.961347       -0.782766
LJ          -1.89882       0.0243201       -0.682496
LJ          -2.50441        0.195221        0.101982
LJ          -1.67155        -0.66871        0.141677
LJ         -0.723916       -0.880932       -0.791482
LJ         -0.141834        0.106937        -1.06329
LJ         -0.665357       0.0859096       -0.086299
LJ        -0.0437147       -0.650314       0.0840352
LJ           1.01368        -1.09677       -0.824078
LJ           1.86721       -0.242515       -0.531387
LJ          0.791687       0.0396052       0.0703068
LJ           1.96985        -1.04656      -0.0730199
LJ           2.46836        0.931381       -0.775496
LJ           -1.5524         1.76686       -0.881501
LJ           2.40442         1.67773      -0.0577295
LJ          -1.83892          1.0369        0.302255
LJ          -1.03369        0.746849       -0.930783
LJ          0.141974         1.65119         -0.8856
LJ         -0.778587         1.59796       -0.212734
LJ        -0.0325707        0.911249       -0.127241
LJ          0.956875        0.839622       -0.766575
LJ           1.62936         1.73579       -0.691616
LJ          0.789129         1.91116      -0.0719676
LJ           1.78948        0.734484      -0.0841768
LJ           2.41114         2.37116         0.66507
LJ          -1.32004        -1.79791        0.800284
LJ           2.51896        -1.41102         1.51481
LJ          -1.93015        -2.34914         1.45189
LJ         -0.778182         2.52841        0.927269
LJ          0.110022        -1.45372        0.927732
LJ         -0.863291        -1.91358         1.89994
LJ          0.058685        -2.39606         1.73169
LJ          0.695591         2.42584         1.06887
LJ           1.75749        -1.66962        0.940706
LJ          0.899981        -1.74644           1.735
LJ            1.7018         -2.5274         1.68379
LJ          -2.45154       -0.672125        0.748402
LJ          -1.52594       0.0304941        0.825493
LJ           2.44781       0.0913289         1.66524
LJ           -1.7483       -0.715276         1.75947
LJ         -0.847138        -1.02464         1.07222
LJ          0.142892       -0.278897         1.04157
LJ           -0.9334        0.215598         1.94544
LJ          0.162537       -0.945182         1.82182
LJ           0.96521        -0.84897        0.817251
LJ           1.73198       -0.124592        0.656294
LJ          0.589186      -0.0111239         2.00106
LJ           1.47035       -0.765826         1.76261
LJ            2.2845        0.859535         0.86707
LJ          -1.65522         1.90302         1.01373
LJ           2.44438         1.70091         1.54457
LJ          -1.83518        0.817445         1.49245
LJ         -0.815214        0.823533        0.649781
LJ          0.272441         1.40601          0.8142
LJ         -0.906013         1.41581         1.57508
LJ         0.0359859        0.883359         1.72417
LJ           1.18438        0.694164        0.987824
LJ            1.5025         1.75014         0.61124
LJ           1.00997         1.55305         1.66667
LJ           1.69849        0.874354         1.83758
