108
#Comment!
LJ          -2.55907        -2.44559         2.49113
LJ          -1.76983        -1.66083         2.45624
LJ          -2.46836        -1.66384        -1.68178
LJ          -1.74716        -2.38905        -1.70486
LJ         -0.880327          2.4814         2.51081
LJ         0.0216059        -1.93867        -2.49775
LJ         -0.951416        -1.48369        -1.54497
LJ         0.0526636         2.26855        -1.66936
LJ          0.987221         2.38927        -2.40238
LJ           1.81934        -1.68929         2.52905
LJ           1.04757        -1.84532        -1.70479
LJ           1.94447         2.55012        -1.50535
LJ           2.52366       -0.906888        -2.54077
LJ          -1.79917       0.0664769        -2.55867
LJ          -2.49751        0.179715        -1.85672
LJ          -1.65442       -0.484011        -1.39484
LJ          -1.16067       -0.887984        -2.51479
LJ        -0.0660661       -0.206638         -2.3733
LJ         -0.811898        0.066459        -1.70439
LJ         -0.134375       -0.997722        -1.80629
LJ          0.975076        -1.11323        -2.48305
LJ           1.68027       0.0310293        -2.55851
LJ          0.789321       -0.106468        -1.59969
LJ           1.69334       -0.877004        -1.71372
LJ          -2.41883         1.05463         2.39693
LJ           -1.7255         1.84285         2.53039
LJ          -2.49351         1.66651        -1.64681
LJ          -1.53099        0.859511        -1.64683
LJ         -0.650047          1.0365        -2.54575
LJ           0.13145         1.85997        -2.56144
LJ         -0.796048         1.74461        -1.71751
LJ         0.0522947        0.975735        -1.81817
LJ            1.0037        0.796906        -2.46805
LJ           1.84823         1.84402         2.47368
LJ          0.965342         1.68086        -1.62144
LJ           1.83491        0.848349        -1.80595
LJ           2.55152          2.3622       -0.747189
LJ          -1.50045        -1.88688       -0.738764
LJ          -2.41301        -1.72664      -0.0945454
LJ          -1.75548         2.44508       -0.124529
LJ         -0.660379         -2.5201       -0.931173
LJ         0.0865215        -1.70648       -0.895017
LJ         -0.546125        -1.73326       -0.044164
LJ         -0.266277         2.36608        0.137135
LJ          0.765851        -2.49728       -0.941649
LJ           1.73424        -1.71462       -0.870361
LJ          0.587864        -2.01292        0.146504
LJ           1.61026        -2.35649       0.0414594
LJ          -2.41763       -0.938322       -0.705572
LJ          -1.83806       0.0323097       -0.647276
LJ           2.40664       0.0582741       0.0080164
LJ           -1.6279       -0.858048       0.0548451
LJ         -0.583811       -0.774622       -0.796694
LJ          0.018904        0.211013       -0.875127
LJ         -0.884918      -0.0395281       -0.059497
LJ         0.0498162       -0.804245        0.192624
LJ          0.854438       -0.936084       -0.731531
LJ           1.89151       -0.158432       -0.851472
LJ          0.821307       0.0152465      -0.0527154
LJ           1.72683       -0.822563      -0.0794332
LJ          -2.47681        0.999575       -0.907177
LJ          -1.59018         1.75734       -0.978545
LJ           2.49567         1.72648       0.0933822
LJ          -1.86613        0.892352       -0.014253
LJ         -0.873928        0.751863       -0.833168
LJ         -0.102047         1.56591       -0.815914
LJ         -0.877443         1.46677      -0.0111576
LJ        -0.0111677         0.88003        0.107059
LJ          0.850419        0.973182        -0.63328
LJ           1.73752         1.61037       -0.836511
LJ          0.788838         2.02132       0.0305893
LJ           1.71906        0.865951      -0.0934231
LJ           2.44796         2.54362        0.848982
LJ          -1.46188        -1.69888        0.646271
LJ           2.48282        -1.47005         1.70348
LJ          -1.97294         2.53164         1.58159
LJ         -0.758682        -2.46812         1.14532
LJ          0.129149        -1.55498        0.912071
LJ          -0.84177        -1.61605         1.69642
LJ          0.161759        -2.40149         1.69285
LJ          0.985839         2.48715        0.873667
LJ           1.90475        -1.60617        0.688642
LJ           0.95293        -1.74343         1.73983
LJ           1.59968        -2.46849         1.70024
LJ            2.4688       -0.653829         1.00128
LJ          -1.76917      -0.0461176        0.830897
LJ           2.44364       0.0275025         1.92267
LJ          -1.65323        -1.00069         1.48593
LJ         -0.658422       -0.885469        0.987531
LJ         0.0580185      -0.0842383        0.993931
LJ         -0.860971        0.166539         2.03079
LJ          0.142118       -0.997265         1.75353
LJ           1.03531       -0.908744        0.797951
LJ           1.58098       -0.123633        0.668842
LJ           0.73269      -0.0416847         1.84609
LJ           1.56678       -0.836169         1.66934
LJ           2.51065        0.670544        0.928213
LJ          -1.54865         1.89622        0.741906
LJ           2.47848         1.61397         1.52338
LJ          -1.61038        0.926544         1.57358
LJ         -0.994133        0.636484        0.759178
LJ          0.243662           1.531        0.856461
LJ          -0.80141         1.58466         1.56033
LJ         -0.124877        0.840238         1.52817
LJ          0.825139        0.655759        0.921815
LJ           1.72401         1.75899        0.699949
LJ          0.881691         1.57211         1.78119
LJ           1.79399        0.864292         1.73149
