108
#Comment!
LJ           2.52934        -2.50423         2.45582
LJ          -1.67612        -1.84795         2.55722
LJ           2.53214        -1.67616        -1.57815
LJ           -1.9196         2.55505        -1.81139
LJ         -0.955748         2.53693         2.36595
LJ         -0.231826        -1.85317        -2.52003
LJ         -0.940975        -1.51422         -1.7177
LJ         0.0560278           2.386        -1.76952
LJ          0.890029         2.49375        -2.47276
LJ           1.78609         -1.7045        -2.54386
LJ          0.830924        -1.59527        -1.57146
LJ           1.94552        -2.52558        -1.59876
LJ           2.48258       -0.906321        -2.53564
LJ          -1.76161        0.177432          2.4999
LJ          -2.49699        0.205953        -1.79601
LJ          -1.80158       -0.735605        -1.48627
LJ          -1.16555       -0.889087         -2.5605
LJ         0.0662213      -0.0977075         2.51304
LJ         -0.846705         0.12084        -1.73918
LJ         0.0786953       -0.841479        -1.75251
LJ          0.986543        -1.01113          -2.553
LJ           1.66464       0.0924647         2.54116
LJ          0.777227       0.0872638        -1.55762
LJ           1.66748        -0.91139        -1.75243
LJ          -2.55388         0.98777         2.41786
LJ          -1.66375         1.89181         2.51745
LJ          -2.54463         1.58459        -1.84895
LJ          -1.67352        0.926368        -1.81949
LJ         -0.700084         1.06133           2.358
LJ         0.0549966         1.70573          2.4143
LJ         -0.726417         1.61588        -1.72375
LJ        -0.0818156        0.845193        -1.86686
LJ          0.775363        0.896122        -2.51383
LJ           1.75079         1.88201         2.53933
LJ          0.975755          1.7832        -1.50101
LJ           1.72976        0.867961        -1.74356
LJ          -2.42689         2.53568       -0.832025
LJ           -1.5469         -1.8326       -0.654169
LJ           2.53243        -1.73066      -0.0539581
LJ          -1.67674          2.4675     -0.00158457
LJ         -0.824434         2.45415       -0.872057
LJ         0.0536892        -1.66708       -0.923799
LJ         -0.786434        -1.76002        0.148687
LJ         -0.215326          2.3223      0.00398598
LJ          0.936875        -2.50403        -0.94795
LJ           1.71505        -1.68157       -0.785029
LJ          0.649421        -1.91009       0.0515852
LJ           1.61959        -2.41199      -0.0772332
LJ           2.49606       -0.909891         -0.7656
LJ          -1.84322        0.135131       -0.805139
LJ          -2.56066      0.00534731      -0.0162909
LJ          -1.80901       -0.776999      -0.0876335
LJ         -0.798389       -0.780654       -0.880073
LJ         -0.051164        0.180445       -0.835121
LJ         -0.884132      -0.0121817      0.00604377
LJ         -0.103572       -0.742034      -0.0637972
LJ          0.735465       -0.922276       -0.743508
LJ           1.73972       -0.111771       -0.792915
LJ          0.808968       0.0789166       -0.146421
LJ           1.73192        -0.99251      -0.0519091
LJ          -2.51044         1.04028       -0.809083
LJ          -1.57839         1.67216        -1.04069
LJ           -2.5643         1.69193       0.0621655
LJ          -1.88864         0.85179        0.089019
LJ         -0.971928        0.830474       -0.869361
LJ        -0.0281973         1.72506       -0.938286
LJ         -0.867569         1.46562      -0.0910306
LJ         0.0175835         1.08841       0.0830463
LJ          0.765207        0.949063         -0.7693
LJ           1.88897          1.6715       -0.891583
LJ          0.748603         1.85874      -0.0366955
LJ           1.75148        0.879314        -0.13438
LJ           2.45943         -2.5605         1.02394
LJ           -1.5174        -1.81323          1.0225
LJ          -2.52214        -1.56358         1.82699
LJ          -1.90289         2.50773         1.62207
LJ         -0.719447         2.53564        0.873008
LJ          0.162851        -1.67839        0.948971
LJ         -0.957223        -1.67814         1.77273
LJ         0.0667399        -2.46491          1.7649
LJ           1.11397        -2.49335        0.994788
LJ           1.83018        -1.50509        0.916983
LJ          0.852878        -1.60585          1.7023
LJ           1.59942        -2.42166         1.84396
LJ           2.52018       -0.657939        0.896385
LJ           -1.8869       0.0152242        0.826088
LJ          -2.55377       -0.027351         1.91488
LJ          -1.67833       -0.922855         1.64755
LJ         -0.641137       -0.851397        0.865562
LJ       -0.00655775      -0.0403378        0.820851
LJ         -0.775257        0.120068         1.90593
LJ          0.128735       -0.899994         1.58464
LJ          0.891782       -0.937318        0.936697
LJ           1.60789      -0.0603527        0.659813
LJ          0.842344      -0.0662756         1.90283
LJ           1.63362       -0.886188         1.75307
LJ           2.36866        0.726577        0.740164
LJ          -1.55216         1.90633        0.900868
LJ           2.49806          1.6564         1.64379
LJ          -1.56703        0.814189         1.64104
LJ         -0.965769        0.681832        0.829635
LJ         0.0607245         1.67574        0.815152
LJ         -0.768505         1.70785         1.48553
LJ        -0.0179993        0.860407         1.63107
LJ          0.796885         0.81594         1.02897
LJ           1.80519         1.72357        0.793332
LJ           1.00555         1.58918         1.84194
LJ           1.69213        0.930166         1.65709
