108
#Comment!
LJ           2.51474         2.52128         2.48291
LJ          -1.76601        -1.70596         2.51585
LJ          -2.49625        -1.76573        -1.58791
LJ           -1.7633        -2.46532        -1.79465
LJ         -0.926508         2.42604         2.52425
LJ         0.0210524        -2.01166        -2.50438
LJ          -0.90177        -1.55215        -1.62855
LJ         0.0686231         2.28524        -1.67137
LJ           0.98983         2.46406        -2.31459
LJ           1.79168        -1.73843         2.47966
LJ          0.961748        -1.73362        -1.66471
LJ           2.03626        -2.47372        -1.47787
LJ           2.46164       -0.771657         -2.4888
LJ          -1.78582       0.0107786         2.55992
LJ          -2.50995        0.193434        -1.75589
LJ          -1.61372       -0.564926        -1.33633
LJ          -1.18106       -0.874721        -2.44255
LJ         -0.116657       -0.245038        -2.42835
LJ         -0.800525        0.100209        -1.81779
LJ        -0.0846634       -0.952726        -1.75265
LJ           1.03091        -1.12051        -2.45199
LJ           1.62074       0.0709981         2.56435
LJ           0.75571      -0.0698478        -1.54297
LJ           1.72424       -0.834701        -1.70385
LJ          -2.48385         1.04033         2.32095
LJ          -1.77896         1.78861         2.55747
LJ          -2.56256         1.67522        -1.74176
LJ          -1.70911        0.943877        -1.88672
LJ         -0.733122         1.10222         -2.5511
LJ         0.0566969         1.82733         2.54086
LJ         -0.800451         1.71916        -1.75708
LJ         0.0509834         0.83466        -1.87332
LJ           0.86944        0.810812        -2.44444
LJ           1.77549         1.87741         2.45149
LJ          0.937957         1.64617        -1.58441
LJ           1.82224        0.806373         -1.7483
LJ          -2.46846         2.43996       -0.732243
LJ          -1.45463         -1.8082       -0.678542
LJ           2.52613        -1.78267       -0.174881
LJ          -1.67293         2.42387      -0.0987595
LJ         -0.721212         2.49871       -0.913425
LJ         0.0396137        -1.72051       -0.964078
LJ         -0.567689        -1.80239        0.101675
LJ         -0.193833         2.30952       0.0994307
LJ          0.856129        -2.47326       -0.915025
LJ           1.79033        -1.66569       -0.859065
LJ          0.680258        -1.93572        0.105447
LJ           1.62367        -2.35589      -0.0737067
LJ          -2.54828       -0.877682       -0.761012
LJ          -1.90796        0.133434       -0.705418
LJ           2.38309      -0.0352653      -0.0216861
LJ           -1.6479       -0.942315     -0.00402687
LJ         -0.648058       -0.816235       -0.831592
LJ       -0.00872319        0.187659       -0.910463
LJ         -0.762407      -0.0653532      -0.0572032
LJ         0.0789907       -0.778185        0.165967
LJ          0.781225       -0.857333       -0.769126
LJ           1.80709       -0.146045       -0.878929
LJ          0.744621       0.0627251       -0.155051
LJ           1.68234       -0.931784      -0.0844296
LJ          -2.41194        0.994036       -0.960997
LJ          -1.68587         1.68927        -1.07342
LJ            2.5248         1.58103       0.0513775
LJ           -1.9167        0.808031       0.0463652
LJ         -0.974114        0.751255       -0.892368
LJ        -0.0495934         1.54608       -0.854457
LJ         -0.867674         1.44946      -0.0724162
LJ         0.0475319        0.999629       0.0712238
LJ          0.807732         1.09857       -0.716482
LJ           1.73601         1.71034       -0.953855
LJ          0.861798         1.98707       0.0179609
LJ           1.82851        0.844907       -0.154274
LJ           2.48389         -2.4744        0.804579
LJ          -1.50232        -1.69963        0.706422
LJ           2.55154        -1.45688          1.6963
LJ          -1.97982         2.50905         1.54037
LJ         -0.740632        -2.53019         1.04339
LJ          0.135428        -1.75867        0.909921
LJ         -0.929628        -1.65959         1.74499
LJ          0.105144        -2.41132         1.74127
LJ           1.01892        -2.55979        0.937976
LJ           1.80348        -1.52265        0.750605
LJ           0.88851        -1.68227         1.66177
LJ           1.60623        -2.50819         1.82021
LJ           2.53243       -0.563926         1.04992
LJ          -1.84664      0.00544857        0.795371
LJ           2.52487        0.115983         1.89414
LJ          -1.62304       -0.904091         1.48416
LJ         -0.778931       -0.891176        0.920458
LJ          0.111841      -0.0876363         1.03958
LJ         -0.858636        0.148057         2.10566
LJ          0.133461       -0.958948         1.67696
LJ          0.965281       -0.822517        0.805315
LJ           1.61364      -0.0788588        0.607081
LJ          0.703229       -0.115282         1.91684
LJ           1.69002       -0.836747         1.70537
LJ           2.47292        0.636024        0.787118
LJ          -1.47453          1.9296         0.77706
LJ          -2.50622         1.59048         1.47515
LJ          -1.54997        0.928158         1.62822
LJ         -0.840618         0.73985        0.682287
LJ          0.194714          1.6119        0.901804
LJ         -0.754912         1.64202         1.53062
LJ         0.0111466        0.945812         1.59971
LJ          0.785848        0.624737        0.915784
LJ           1.73866         1.62897        0.710105
LJ          0.890742         1.62254         1.70994
LJ           1.66798        0.782879         1.64558
