108
#Comment!
LJ          0.548075       -0.465912         -1.4794
LJ           1.55782       -0.779884        -1.77832
LJ          -1.79689         1.22761         1.24785
LJ          -1.50524         2.49433        -1.72948
LJ           1.43297        -2.09848       -0.648126
LJ           1.47776         1.32886        -1.21349
LJ           1.17716       -0.711434         1.51879
LJ           2.01554       -0.450353      -0.0658559
LJ          0.565028        0.413567         -0.8925
LJ         -0.128969          2.2715        0.627475
LJ           2.03824        -1.58077      -0.0385387
LJ           2.12464         2.27055         1.42848
LJ           1.00932        -1.56365       0.0690933
LJ          -0.94871         -1.3573        -2.20205
LJ          -1.53161         2.30911         1.56964
LJ          0.166238         2.46868       -0.319186
LJ         -0.812184        -1.93488       0.0273063
LJ          0.764455        0.637742         0.23402
LJ          -1.72568         1.12629       -0.270971
LJ          -2.34769        0.577627        0.281071
LJ          -1.73581         1.33382         2.37123
LJ         -0.800929         1.29281        0.842952
LJ          0.910386        -1.13955       -0.808665
LJ          -1.43639         2.18357       0.0636095
LJ         -0.974386       -0.547802         0.10596
LJ          0.911375       -0.612067        -2.56065
LJ           2.01673        -2.31883        0.625457
LJ         -0.581239        -1.22403         2.01456
LJ           1.77951         0.76045       -0.252504
LJ            2.4765        -2.19302        -1.57543
LJ           2.18034        -1.03736         1.96439
LJ          0.668009        0.923057        -1.88042
LJ          0.359264         1.50116       -0.997663
LJ           -1.9712        -1.81277        -2.51513
LJ          0.892269         2.34048        -1.56632
LJ         -0.746172        -2.27246         1.31345
LJ           1.07984         -2.1093         2.50566
LJ         -0.205374         2.55588        -1.31079
LJ          0.867354         2.14156         1.71462
LJ           1.05035        -2.50301        0.271021
LJ           1.06706         1.65687       -0.169656
LJ        -0.0516563        0.115856       0.0116586
LJ           0.70645        0.223078         1.34162
LJ           2.37931          1.2063         2.26508
LJ           2.36968         1.05134         1.31278
LJ          -2.43505       -0.556625        -2.00536
LJ          -2.20404        -1.62106        0.440323
LJ          0.187668         1.83234        -2.32413
LJ          0.645948       -0.484227        0.382719
LJ          -1.02999        -2.54736         2.43879
LJ         -0.407022       -0.553753       -0.908952
LJ          -2.48054         1.45579        -1.87639
LJ        -0.0314757        -1.12469      -0.0225969
LJ          -1.31431        -1.42076        0.807077
LJ           2.47497         1.68298       -0.898868
LJ         -0.752827         1.65886        -2.05048
LJ           2.10305       -0.029226         2.14804
LJ          -1.37922        -2.37443         -0.7883
LJ          -1.96569       -0.441051       -0.906598
LJ          0.431083        -1.46308          1.6468
LJ          0.766887        -1.63619        -1.69802
LJ            -2.301        0.370791        -2.34716
LJ         -0.435431        0.350969        -2.18867
LJ          -2.29903         2.05555        0.687162
LJ           1.42218         1.43506        0.703614
LJ          -2.01482       -0.478855        0.131635
LJ           1.11441        0.492602         2.42239
LJ          -1.42511         0.43494         -1.8582
LJ          0.142925        0.826282         2.28946
LJ          -1.14717       -0.539675        -1.57398
LJ          -1.38926         -0.2439          2.5151
LJ          -2.49175       -0.885053         1.07659
LJ           2.19542        -1.23671        -1.16034
LJ         -0.352558        0.364422           1.035
LJ          -2.09443        0.207497         1.32403
LJ        -0.0268008        -1.59027        -1.05535
LJ         -0.251903       -0.823873        0.983022
LJ           1.23649         1.68575        -2.47718
LJ           1.96789        0.737306        -1.84828
LJ          -1.48064         1.29947        -1.33268
LJ           1.64755        -1.33253        0.871861
LJ          -2.34783        0.671561        -1.04416
LJ           1.97272          2.3519        -2.13923
LJ          0.205139         1.20997         1.00275
LJ         -0.985633        0.356649         -0.4614
LJ         -0.470854         1.89084         1.67496
LJ         -0.193728         1.08082       0.0374925
LJ          -1.60909        -1.38304         1.77388
LJ           1.26127        0.975023         1.62244
LJ         -0.715452         1.84821       -0.728178
LJ           2.55328        -2.43769       -0.250311
LJ          -1.17978        -1.24056       -0.571405
LJ          -2.38014         -2.0123         1.43337
LJ           1.56952      -0.0125269        -1.06558
LJ          0.253188        -1.88243        0.649942
LJ         -0.809555        0.842205         1.87317
LJ         -0.515459        0.832949         -1.2596
LJ        -0.0106593        -2.29658         2.33265
LJ         0.0285326        -1.25642        -2.32824
LJ            2.2348         -1.4222        -2.18841
LJ           1.25383         -2.2373         1.27628
LJ          -2.21948        -1.55576       -0.609913
LJ          -1.35164        0.235939        0.563782
LJ          -1.76458        -1.34327        -1.61324
LJ          -2.13014         2.40575         2.32534
LJ          -1.17658       -0.307948         1.45713
LJ           2.03211         1.87623        0.101453
LJ         0.0890066       -0.236413         1.94016
