108
#Comment!
LJ          -2.53429        -2.38576         2.53834
LJ          -1.79435        -1.53727         2.51589
LJ          -2.30337        -1.62124        -1.82475
LJ          -1.52128        -2.40617        -1.82952
LJ         -0.833607         2.37463         -2.5373
LJ        -0.0871719         -1.5912          2.4534
LJ         -0.952829        -1.54543        -1.92176
LJ         0.0882598         2.43959         -1.8889
LJ           1.01542        -2.36827        -2.48751
LJ           1.71711        -1.61398         2.39416
LJ           1.26752        -1.68362        -1.69631
LJ           1.91188         2.45648        -1.55689
LJ           2.45412       -0.631326         2.54355
LJ          -1.81186     -0.00412092          2.3863
LJ          -2.39208      -0.0860024        -1.85751
LJ          -1.60121       -0.610933        -1.62716
LJ          -1.06834       -0.749128        -2.48395
LJ       -0.00579305       -0.184285        -2.42383
LJ         -0.789664        0.131698        -1.76746
LJ         0.0730312       -0.931991         -1.6381
LJ          0.806166       -0.955147         2.55608
LJ           1.65724      -0.0208195        -2.41853
LJ          0.735434        0.146159        -1.66576
LJ           1.54465       -0.695021         -1.5759
LJ          -2.56207         0.94693          -2.439
LJ           -1.7495         1.98758         2.39581
LJ          -2.48601         1.71305        -1.51948
LJ          -1.60691        0.713747        -2.00793
LJ         -0.505844        0.787427         2.53178
LJ         0.0981826         1.72783         2.36918
LJ          -1.25473         1.70819        -1.63204
LJ        -0.0778202         1.04504        -1.71115
LJ           1.13621        0.985706        -2.56032
LJ           1.79059          1.8734         2.49249
LJ           0.96135         1.89399        -1.83844
LJ           1.75712        0.814078        -1.74568
LJ           2.51743         2.51138       -0.716314
LJ           -1.4546        -1.73336       -0.889518
LJ          -2.34976        -1.64915       -0.175978
LJ          -1.62513         2.48578       0.0885241
LJ         -0.618944        -2.47635        -1.05929
LJ         0.0236969        -1.78714       -0.750427
LJ          -0.73151        -1.76631      -0.0726978
LJ        -0.0483281         2.30808        0.157801
LJ          0.694487         2.55152       -0.885687
LJ           1.90292        -1.55294        -0.92799
LJ          0.792734        -1.88981        0.222449
LJ           1.62564        -2.46085     -0.00732594
LJ          -2.42694       -0.821298       -0.821257
LJ          -1.79847        0.111065       -0.951379
LJ          -2.35835       0.0891345        0.036415
LJ           -1.6301       -0.763244      -0.0205507
LJ         -0.736669        -0.70298       -0.733907
LJ          -0.11707        0.135294         -1.0065
LJ         -0.636094      -0.0679368       0.0984912
LJ        -0.0520774       -0.833569        0.116171
LJ          0.892765        -1.19136       -0.730517
LJ           1.84814       -0.225508       -0.608355
LJ          0.721199        0.098382       0.0990266
LJ           1.96756         -1.0074      -0.0179273
LJ           2.48803        0.821338       -0.810846
LJ          -1.75258         1.67149       -0.760428
LJ           2.45399         1.62982     -0.00173708
LJ          -1.83526         1.05253        0.157071
LJ          -1.10158           0.734        -0.93212
LJ          0.187169          1.7166       -0.874968
LJ         -0.850081         1.71937      -0.0773262
LJ         0.0531283        0.837672       -0.185401
LJ          0.918201         0.97443        -0.89459
LJ           1.74632         1.70553       -0.868022
LJ          0.877598         1.75123       -0.119321
LJ           1.60414        0.865641        0.155872
LJ           2.56046         2.47401        0.599652
LJ          -1.54588        -1.78744        0.798324
LJ          -2.51129        -1.46086         1.58659
LJ          -1.98897        -2.37293         1.67844
LJ         -0.811684         2.43393         1.01759
LJ         0.0370279         -1.5045         1.04049
LJ          -1.00764        -1.68432         1.79185
LJ          0.053286        -2.20271         1.73913
LJ          0.848836         2.40968        0.911136
LJ           1.68409        -1.53758         1.08671
LJ          0.867868        -1.67286         1.79378
LJ           1.80335        -2.48928         1.51741
LJ          -2.44686        -0.83709        0.700571
LJ          -1.58481       0.0975887        0.850843
LJ           2.38883     -0.00268865         1.61669
LJ          -1.70267       -0.940737         1.62236
LJ         -0.844618       -0.872595         1.03488
LJ          0.158614      -0.0998027        0.926998
LJ         -0.993944       0.0514594         1.80652
LJ          0.247531       -0.697222          1.6955
LJ          0.897294       -0.924193        0.656536
LJ           1.78367       -0.332952        0.817239
LJ          0.877618       0.0438259         1.80397
LJ           1.50923       -0.715447         1.76638
LJ           2.26148        0.992057         1.03952
LJ          -1.80687         1.73995         1.04859
LJ           2.53794         1.91198         1.65149
LJ           -1.8511        0.808591         1.65047
LJ         -0.918082        0.909492        0.708419
LJ          0.363536         1.40768        0.746725
LJ         -0.677171          1.3503         1.68142
LJ          0.122963        0.822854          1.5531
LJ            1.1917        0.654974         1.01355
LJ           1.50138         1.67941        0.706595
LJ           1.02509         1.64402         1.68396
LJ            1.8696         1.15879         1.87941
