108
#Comment!
LJ           2.52915         2.55595         2.48718
LJ          -1.78202         -1.7126         2.50011
LJ          -2.49928        -1.75362        -1.59492
LJ          -1.77304        -2.46244        -1.78034
LJ         -0.950878         2.41965         2.50991
LJ        0.00630109         -2.0211        -2.50501
LJ         -0.907476        -1.56726        -1.63786
LJ         0.0726091         2.28384        -1.67808
LJ          0.993266         2.45935         -2.3146
LJ           1.78675        -1.72435         2.49476
LJ          0.950509        -1.73643        -1.67613
LJ           2.04748        -2.49062        -1.47568
LJ           2.44471       -0.774893        -2.49121
LJ          -1.78818       0.0294266         2.56166
LJ          -2.51841        0.203772        -1.75676
LJ          -1.63708       -0.565898        -1.35142
LJ           -1.1842       -0.883756        -2.46957
LJ         -0.123618       -0.242315        -2.43422
LJ         -0.783782        0.121994        -1.83223
LJ        -0.0738501       -0.963854        -1.75981
LJ           1.04542        -1.11483        -2.45514
LJ           1.60749       0.0701607         2.54813
LJ          0.746553      -0.0800161        -1.52845
LJ           1.72584        -0.83757        -1.70773
LJ          -2.47224         1.04925         2.31812
LJ          -1.79296         1.79521         2.53613
LJ           -2.5295         1.68083        -1.74201
LJ          -1.67684        0.964024        -1.86557
LJ          -0.71166         1.07326        -2.53077
LJ         0.0749117         1.84391         2.55485
LJ         -0.771358         1.71528        -1.75825
LJ         0.0520677        0.851834        -1.88027
LJ           0.86432        0.822305        -2.44324
LJ           1.76769          1.8704         2.43691
LJ          0.935164         1.62135        -1.56787
LJ           1.82646        0.797191        -1.75486
LJ           -2.4817         2.44677       -0.722768
LJ          -1.46173        -1.79769       -0.690982
LJ            2.5585        -1.76923       -0.196141
LJ          -1.67956         2.43783      -0.0836385
LJ         -0.734263         2.50761       -0.923085
LJ         0.0330713        -1.72947       -0.939044
LJ         -0.597159        -1.79557        0.106147
LJ         -0.191991         2.30128        0.108911
LJ           0.87118        -2.46818       -0.931009
LJ           1.78284        -1.64537       -0.853427
LJ          0.683871        -1.94725         0.10846
LJ           1.63675        -2.35262      -0.0591603
LJ          -2.53613       -0.891013       -0.769232
LJ          -1.91486        0.125663       -0.689505
LJ           2.41557      -0.0322428      -0.0226477
LJ          -1.64053       -0.916597       0.0175673
LJ         -0.647416       -0.821394       -0.821625
LJ        -0.0092323        0.189471       -0.931197
LJ         -0.773787       -0.058775      -0.0432291
LJ         0.0726091       -0.801813        0.170183
LJ          0.793049       -0.853663        -0.78485
LJ           1.83077        -0.14251        -0.87339
LJ          0.737807       0.0476022       -0.147551
LJ           1.70303       -0.920238      -0.0691824
LJ          -2.39322         1.00378       -0.960447
LJ          -1.67079         1.70207        -1.06121
LJ           2.52431         1.59246       0.0380281
LJ          -1.92059        0.814396       0.0693825
LJ         -0.987386        0.742991       -0.869267
LJ         -0.055571         1.53385       -0.831608
LJ         -0.850143         1.46822       -0.066274
LJ         0.0181514        0.982525       0.0699741
LJ          0.829156         1.10947       -0.721788
LJ           1.74787         1.71105        -0.93571
LJ          0.866525         1.98495       0.0226245
LJ           1.82134         0.82812       -0.124783
LJ           2.48384        -2.48918        0.836535
LJ          -1.49299        -1.69789        0.696861
LJ           2.54724        -1.47508         1.67757
LJ          -1.97282          2.5157         1.54406
LJ         -0.735363        -2.52201         1.05146
LJ          0.128864        -1.76306        0.903659
LJ         -0.917034        -1.65746         1.75153
LJ         0.0994958        -2.41056         1.74119
LJ           1.00725         2.55441        0.939571
LJ            1.8231        -1.52232        0.756174
LJ          0.896858        -1.69398          1.6671
LJ            1.6001        -2.52075           1.814
LJ           2.52286       -0.568074         1.06384
LJ          -1.83503    -0.000828862        0.783214
LJ           2.52042       0.0975117          1.9108
LJ          -1.62375       -0.911256         1.46805
LJ         -0.784639       -0.896987        0.964874
LJ         0.0975918      -0.0657838         1.02755
LJ         -0.874536        0.126178         2.08021
LJ          0.144005       -0.965361         1.68093
LJ           0.97838       -0.833932        0.808823
LJ           1.61455      -0.0769956         0.60401
LJ          0.710973       -0.120237         1.91758
LJ           1.68457       -0.836436         1.69623
LJ           2.47186        0.648841        0.785066
LJ          -1.45965         1.91491        0.753324
LJ          -2.52307         1.59751         1.47832
LJ          -1.57644        0.914532         1.64231
LJ         -0.858185        0.750079        0.682231
LJ          0.198153         1.60954        0.913647
LJ         -0.721656         1.67448         1.53399
LJ         0.0209321        0.925465         1.58561
LJ          0.823055        0.619348        0.898868
LJ           1.72601         1.65084        0.736203
LJ          0.884141         1.61971         1.72368
LJ           1.68016        0.780263          1.6523
