108
#Comment!
LJ          -2.42109       -0.274598        0.744908
LJ           2.41039        -1.68551        0.718663
LJ         -0.580905        -1.76553         1.11334
LJ          -2.08014        0.740698        0.528586
LJ          -2.45405        0.957936         1.49405
LJ          -0.94675        -2.12856         -1.3313
LJ          -2.46334       -0.196432        -2.04934
LJ         -0.827371       -0.209191        0.709505
LJ           1.01948         2.30777          1.5492
LJ          -1.48467       0.0768607        -2.42373
LJ           1.42701        0.301232        -2.29328
LJ          0.415747         1.46191         1.40648
LJ          -0.48701        0.886556         1.15112
LJ          -1.15311         2.36491         1.48363
LJ            1.7683       -0.159432          1.1799
LJ          -2.54341       -0.386589       -0.303137
LJ          0.347473        -1.86816          2.0638
LJ         -0.628706         1.21188        0.147566
LJ          0.684975         2.29605        0.457819
LJ          0.298795       -0.605977       -0.489112
LJ          -1.29515        0.411367          1.4085
LJ          0.163243        -2.53013        -1.25133
LJ        -0.0502892          1.8318       -0.444261
LJ           1.43225       -0.736654       -0.627341
LJ           0.68988         -2.0024        -2.07354
LJ          -2.09197        -1.52839       -0.467339
LJ            2.1124         2.48211       -0.610054
LJ           2.40484       -0.919135        -1.24182
LJ           1.85051           2.349         1.00534
LJ           -1.8284        -1.87722        -2.36401
LJ          -2.07443          1.9248         1.93524
LJ          -1.47936        -1.74188          1.7932
LJ           2.35962        -1.34607        -2.31838
LJ          0.627351        -0.73485         2.33515
LJ          0.646136       -0.332754         -1.6412
LJ          -1.93207        -0.88066         2.10811
LJ          -2.13213        -2.47394         1.10665
LJ         -0.383711          1.6829        -2.34774
LJ           1.43111        -1.00203        -2.09867
LJ          -1.56106       -0.480068       -0.572285
LJ           1.81602        -1.75908        -1.57802
LJ         0.0775656       -0.685968        0.538122
LJ          0.987385        0.883078          2.1222
LJ          -2.50689        0.921763        -1.92271
LJ           1.48598       -0.845894        0.444069
LJ         -0.118965        -1.36481        -1.95677
LJ          0.331796        0.574321        -2.25804
LJ           1.61706        0.186694       -0.249767
LJ           0.94433       -0.748748         1.43293
LJ          -2.49715        -2.00177         1.96771
LJ          -2.36231     -0.00997874         1.97411
LJ           1.69215         1.89642        0.082501
LJ           2.37656          2.1337        -2.26245
LJ           1.38283        -1.99334        0.461495
LJ           1.78967        -0.53408         2.23444
LJ          -2.23359         1.89197        -1.34926
LJ         -0.339579         2.07854        0.779751
LJ           0.99143        -1.75217        -1.14798
LJ         -0.744428       -0.789569        -1.42753
LJ          -1.75605         1.36169        -2.35155
LJ          -0.18284         2.13892         1.91475
LJ          -1.29147        -1.91586        0.214193
LJ          -1.77549         1.61216       -0.308337
LJ          -1.77532        -1.00831        -1.86567
LJ         -0.456865       -0.281284        -2.29082
LJ           1.37501        0.283126          -1.223
LJ            1.8914        0.874045        0.776899
LJ         -0.163888        -1.00759         1.63767
LJ          0.756548        -1.48817       -0.195498
LJ         -0.639762        0.687322        -1.98228
LJ         -0.188564         -1.4779       -0.904265
LJ          0.338913        0.402071       -0.928388
LJ           1.58997        -2.37318        -2.45258
LJ           2.34513         1.01626       -0.337894
LJ          -2.06253        -2.16069        -1.38935
LJ         -0.281333        0.227875         1.95214
LJ          -1.07185         1.81592        -1.67661
LJ          -1.24224       0.0930682        -1.25319
LJ          -1.10798       -0.893638         1.42585
LJ          0.843541         1.30497        0.556931
LJ         -0.946738        -1.13793          2.5046
LJ         -0.555578        0.177773       -0.244991
LJ           -2.2842        -2.41161       0.0798063
LJ           1.87223         1.63465         2.10149
LJ          -1.62513         1.05583        -1.34193
LJ         -0.638416         0.90544         -1.0325
LJ           2.41864        -0.99722          1.5546
LJ          -2.26352        0.236188         -1.1046
LJ          0.545994        0.192554        0.108034
LJ           2.00929        -1.56935       -0.399762
LJ          -1.57585        0.537008       -0.399285
LJ          -1.42213         1.69505        0.746276
LJ         -0.716799        -2.25369         2.52437
LJ          0.553643        -1.70109        0.983916
LJ         -0.750595       -0.907758       -0.212078
LJ          -2.55685         1.68268        0.801607
LJ          0.895322        -2.50335       -0.423372
LJ           1.61332         1.11752        -1.70499
LJ           1.45224        -1.62341         1.63535
LJ         -0.868393         1.27753         2.05281
LJ          0.701173         2.10707          2.4969
LJ           1.40565         1.62515       -0.819832
LJ         -0.177996        -2.22559       0.0536111
LJ          -1.25447         2.46536       -0.493926
LJ            1.0074         2.24402        -1.61707
LJ          0.824684        0.394553         1.07133
LJ           -1.8626        -1.06454        0.667994
LJ            0.4561         1.37144        -1.58264
