108
#Comment!
LJ          -2.54297        -2.43157        -2.54923
LJ          -1.73996        -1.70915         2.47363
LJ           2.49904        -1.66547        -1.70443
LJ          -1.73328        -2.36933        -1.78065
LJ          -0.80397         2.53565         2.55781
LJ         0.0355663        -2.05018        -2.50179
LJ          -1.09816        -1.40846        -1.60092
LJ         0.0402811         2.22904        -1.70586
LJ          0.968782         2.35161        -2.48893
LJ           1.74842        -1.77181         2.51139
LJ           1.03731        -1.73675        -1.69208
LJ           1.89342         2.47204        -1.59671
LJ            2.4455         -0.7839         2.55003
LJ          -1.84099        0.105973         2.50425
LJ            2.5328        0.177533        -1.91569
LJ          -1.68637       -0.552786        -1.58613
LJ          -1.10619       -0.857562         -2.3938
LJ        -0.0288748       -0.233004         -2.4409
LJ         -0.817485      -0.0060232        -1.67132
LJ         -0.101169        -1.04189        -1.88917
LJ           1.00322        -1.08178        -2.44367
LJ           1.69112        0.071861         -2.4564
LJ          0.765095         0.02032        -1.79985
LJ           1.59164       -0.746935        -1.75922
LJ          -2.49124         1.10608         2.50658
LJ          -1.77107         1.88852        -2.56023
LJ          -2.51349         1.64586        -1.64975
LJ          -1.56202        0.890999        -1.80376
LJ         -0.660553         1.10488          2.5549
LJ         0.0675448         1.78577          2.4714
LJ         -0.814273         1.71479        -1.62552
LJ           0.02895         1.10117         -1.7613
LJ           1.00558        0.877633        -2.54227
LJ           1.82992         1.83981         2.50992
LJ          0.923147         1.76923        -1.66219
LJ           1.77657        0.896204        -1.86006
LJ           2.42053          2.4027       -0.665039
LJ          -1.53448          -1.931        -0.76443
LJ          -2.46475        -1.80563       -0.107236
LJ          -1.80079         2.40223      -0.0358312
LJ         -0.641161        -2.49951        -1.04342
LJ         0.0997984        -1.68566       -0.884221
LJ         -0.414051         -1.7699      -0.0083957
LJ          -0.27652         2.42553        0.123185
LJ          0.821821        -2.51797       -0.970766
LJ           1.69361        -1.68395       -0.970863
LJ          0.600276        -2.09327        0.052151
LJ           1.74956        -2.37216      -0.0180999
LJ          -2.41092       -0.895219        -0.61337
LJ          -1.85213       0.0769059       -0.695005
LJ            2.4442        0.093942       0.0240726
LJ          -1.54549       -0.978273      0.00605189
LJ         -0.601495       -0.896567       -0.719569
LJ        -0.0582185        0.280224        -1.00998
LJ         -0.947483       -0.107769       -0.108123
LJ         0.0335554       -0.730828        0.233591
LJ           0.86764        -1.07116       -0.736989
LJ           1.94253       -0.160481       -0.928255
LJ          0.743369       0.0181139      -0.0600662
LJ           1.62971       -0.914509       -0.114796
LJ          -2.42092         0.93042       -0.997932
LJ           -1.5748         1.69595       -0.807537
LJ           2.45094         1.72457        0.122823
LJ          -1.95216         1.00926      0.00470986
LJ          -1.04775        0.672678        -0.88086
LJ        -0.0135057           1.681        -0.83267
LJ         -0.775825         1.53825       -0.194614
LJ        -0.0803944        0.876403       0.0570513
LJ           0.73687        0.984375       -0.625524
LJ           1.52753         1.61799       -0.970341
LJ          0.877695         2.00783      -0.0235216
LJ           1.69955        0.814434        -0.21168
LJ           2.43899         2.47499        0.858695
LJ          -1.42764        -1.75384         0.64191
LJ           2.46463        -1.57124         1.81658
LJ          -2.03258         2.53524         1.67117
LJ         -0.700916        -2.48453         1.12792
LJ          0.145447         -1.6742        0.934245
LJ         -0.908899        -1.70647          1.7036
LJ         0.0895389        -2.35486         1.73147
LJ          0.917169         2.37715        0.920328
LJ           1.91394        -1.49955         0.70034
LJ           0.98854        -1.85407         1.70092
LJ           1.74321          2.5351         1.71589
LJ            2.5378       -0.613367         1.00751
LJ          -1.67147      -0.0874075        0.881639
LJ           2.55729     -0.00563699         1.88525
LJ          -1.69877       -0.885174         1.62192
LJ         -0.704905       -0.774061        0.974982
LJ         0.0707547      -0.0172066        0.995378
LJ         -0.882779        0.171053         1.94389
LJ          0.163416       -0.931026         1.90344
LJ           1.02275        -1.01101        0.703246
LJ           1.70008       -0.162954        0.750084
LJ          0.828251      0.00721424         1.89384
LJ           1.68205       -0.849772         1.64839
LJ           2.47327        0.881822        0.922788
LJ          -1.48076         1.88857        0.772796
LJ           2.39755         1.71482         1.60591
LJ          -1.72923        0.994468         1.49975
LJ         -0.904319         0.65094        0.827037
LJ          0.270177         1.47328         0.85004
LJ         -0.867455         1.57462         1.52375
LJ        -0.0304601        0.848507         1.65841
LJ           1.03455         0.72889         0.82819
LJ           1.63355         1.70796        0.651754
LJ          0.887665         1.58392         1.79227
LJ           1.75253        0.831005          1.7922
