108
#Comment!
LJ           2.51222         2.53828         2.49563
LJ          -1.77439        -1.73429         2.46102
LJ          -2.51928        -1.74066        -1.60648
LJ          -1.77836        -2.46859        -1.84661
LJ         -0.951258         2.41323         2.48718
LJ        -0.0183682        -1.99914        -2.45948
LJ         -0.920951        -1.49895        -1.59085
LJ         0.0571805         2.28475        -1.63544
LJ            1.0087         2.46331         -2.3393
LJ           1.79414        -1.69798         2.52488
LJ          0.969098        -1.69932        -1.61032
LJ           2.00082        -2.48443        -1.52683
LJ           2.46988       -0.792307        -2.43871
LJ          -1.78911       0.0688412         2.51569
LJ          -2.50829        0.187003        -1.67534
LJ          -1.63946       -0.604447        -1.34269
LJ          -1.19683       -0.910793        -2.46427
LJ         -0.110147       -0.230545        -2.45193
LJ         -0.832799        0.109037        -1.81084
LJ        -0.0428921       -0.926587        -1.74751
LJ          0.974137        -1.07582        -2.44133
LJ           1.62576       0.0868536        -2.53626
LJ          0.716119      -0.0427049        -1.55111
LJ           1.74868       -0.822015        -1.72338
LJ          -2.49475         1.01287         2.32492
LJ          -1.80772         1.78766        -2.55825
LJ          -2.53884          1.6459        -1.71823
LJ          -1.70732        0.910635         -1.8734
LJ         -0.728785         1.11453         2.52006
LJ         0.0408923         1.83656         2.51371
LJ         -0.788256         1.69307        -1.78745
LJ         0.0531332        0.843963        -1.92787
LJ          0.847888        0.810273        -2.50794
LJ           1.79566          1.8874         2.41626
LJ          0.873694         1.70301        -1.56998
LJ           1.82562        0.791272        -1.75393
LJ          -2.45794         2.44958       -0.692094
LJ          -1.49045        -1.80676       -0.625333
LJ           2.52231        -1.79518       -0.191745
LJ          -1.66923         2.36179      -0.0745278
LJ         -0.751756         2.50317       -0.917055
LJ         0.0420769        -1.72753       -0.966732
LJ         -0.648822        -1.80237       0.0534121
LJ         -0.183351          2.3405       0.0506635
LJ          0.829404        -2.46203       -0.892972
LJ           1.79093        -1.64861       -0.851893
LJ          0.705062         -1.9639        0.103503
LJ           1.60472        -2.33465      -0.0961043
LJ          -2.51759       -0.875502       -0.748673
LJ           -1.8841          0.1354       -0.725606
LJ           2.39333      -0.0268404     -0.00976251
LJ          -1.66473       -0.910335       0.0222693
LJ         -0.675017       -0.851081       -0.835759
LJ        0.00580493        0.212698        -0.93669
LJ         -0.741616      -0.0660101      -0.0684343
LJ         0.0776745       -0.778461        0.176047
LJ          0.796066       -0.827952       -0.787718
LJ           1.79313       -0.146013       -0.843688
LJ          0.752016        0.019014      -0.0736197
LJ            1.6495       -0.995106      -0.0804299
LJ          -2.40761         1.00939       -0.923736
LJ          -1.65405         1.66032        -1.05501
LJ           2.53412         1.61271       0.0552394
LJ          -1.96408         0.83931       0.0417211
LJ         -0.966158        0.740593       -0.850359
LJ        -0.0575644         1.52224       -0.820141
LJ         -0.862194         1.45425      -0.0565657
LJ         0.0529928         1.02149       0.0543762
LJ            0.8687         1.08459       -0.756677
LJ           1.77549         1.66009       -0.952362
LJ          0.879591         1.95829       0.0368858
LJ           1.82284        0.854115       -0.141976
LJ           2.45991        -2.50527        0.784582
LJ          -1.50052        -1.68997        0.754143
LJ          -2.54637        -1.41689         1.73122
LJ          -1.99163         2.49194         1.53196
LJ         -0.717156        -2.51205         1.01849
LJ          0.144382        -1.79973        0.922994
LJ         -0.949515        -1.65332         1.73963
LJ         0.0830498        -2.41905         1.72075
LJ           1.04171        -2.56206         0.89704
LJ           1.77028        -1.50401        0.755793
LJ          0.862264        -1.66604          1.7002
LJ           1.53027        -2.49446         1.86007
LJ           2.54777       -0.544597         1.04154
LJ          -1.84009     -0.00860645        0.795864
LJ           2.54555        0.144656         1.81899
LJ          -1.63971       -0.917555         1.48992
LJ         -0.782295       -0.877238        0.894829
LJ         0.0932537       -0.107219         1.02812
LJ         -0.869992        0.176047         2.10454
LJ          0.100504       -0.932558         1.65093
LJ          0.974969        -0.84989        0.793138
LJ           1.60214       -0.108106        0.579995
LJ            0.7539       -0.106894         1.90738
LJ           1.68097       -0.822089         1.68536
LJ           2.47446        0.675288        0.740465
LJ          -1.43546         1.92336        0.794645
LJ          -2.55912         1.56999         1.45094
LJ          -1.50768        0.899809         1.63223
LJ         -0.840755        0.751858        0.641917
LJ          0.205713         1.65542        0.950838
LJ         -0.792236          1.6576          1.5036
LJ         0.0153265        0.934321          1.6289
LJ          0.805479        0.636189         0.94176
LJ           1.77622         1.67664        0.777595
LJ           0.94431         1.70343         1.70792
LJ           1.68758        0.774387         1.67365
