108
#Comment!
LJ           2.54653        -2.23102         2.32703
LJ          -1.65351        -1.62667          2.4567
LJ          -2.22061        -1.57537         -1.7098
LJ          -1.70587        -2.46335        -1.76036
LJ         -0.785869         2.35625         2.48577
LJ        -0.0182871        -1.79527        -2.45017
LJ          -1.19993        -1.52624        -1.85685
LJ         0.0255638         2.32592        -1.86411
LJ           0.89375        -2.48911         2.51656
LJ           1.75345        -1.65608         2.49696
LJ          0.885607        -1.87392        -1.71376
LJ           1.95319         2.43661        -1.82193
LJ           -2.5149       -0.849227         2.38911
LJ          -1.84308       0.0560239          2.5352
LJ             2.516       0.0288252        -1.82867
LJ           -1.7896       -0.604788        -1.68528
LJ           -1.1227       -0.724658        -2.42883
LJ        -0.0611768       -0.199063        -2.39923
LJ          -1.02664      -0.0364508        -1.71447
LJ         0.0292532        -1.06073        -1.76354
LJ          0.968935        -1.00148        -2.52537
LJ           1.62679        0.029601        -2.47651
LJ          0.991608        0.130475        -1.70204
LJ           1.59718       -0.635126        -1.71595
LJ          -2.45952          1.0329        -2.51716
LJ          -1.70341         1.92098         2.34461
LJ          -2.55938         1.58125        -1.60359
LJ          -1.69543        0.761992        -1.83543
LJ         -0.571688        0.874124         2.43766
LJ          0.206442         1.65601         2.39802
LJ          -1.19767         1.63711        -1.83803
LJ          0.062247         1.15777        -1.88377
LJ          0.933938        0.964771        -2.56297
LJ            1.8233         1.73745         2.52092
LJ          0.945324         1.76062        -1.88437
LJ           1.67251        0.994983        -1.67137
LJ           2.56429         2.34453       -0.808292
LJ          -1.47672         -1.7327       -0.805185
LJ          -2.22922        -1.78384       -0.116177
LJ          -1.72171         2.51406        0.119067
LJ          -0.59204        -2.48414        -1.00777
LJ         0.0594083        -1.59629        -0.81401
LJ         -0.710166        -2.01679       -0.111889
LJ         -0.158144         2.36254       0.0233762
LJ          0.827055        -2.49201       -0.822364
LJ           2.05915        -1.74525       -0.967465
LJ          0.798231        -1.76774        0.319204
LJ           1.70875         2.56142      -0.0388527
LJ          -2.26154       -0.969722       -0.757344
LJ          -1.95011      -0.0336948       -0.798114
LJ          -2.43229       0.0788837        0.115769
LJ          -1.66111       -0.735273       0.0532135
LJ         -0.730054       -0.793186       -0.823579
LJ         -0.128257       0.0802953         -1.0887
LJ         -0.765286      -0.0353808      -0.0820572
LJ         0.0910925       -0.656054       0.0277891
LJ           1.03489        -1.19113       -0.858241
LJ           1.90526      -0.0943566       -0.610112
LJ          0.888687       0.0547145        0.133003
LJ           2.03962       -0.995345      -0.0674287
LJ           2.46036        0.955921         -0.7514
LJ          -1.59529         1.74273       -0.846293
LJ           2.32642         1.71444     -0.00847225
LJ          -1.80596         1.02307        0.281987
LJ           -1.0847        0.713021       -0.840336
LJ         0.0368041         1.64559       -0.946479
LJ         -0.848218         1.53424       -0.243402
LJ        -0.0684946        0.773587       -0.158234
LJ           1.08937         0.76376       -0.863986
LJ           1.66329         1.68378       -0.726316
LJ           0.79625         1.81572       -0.194495
LJ           1.73981        0.855647      -0.0935885
LJ           2.43145         2.35072        0.736224
LJ          -1.33526        -1.84317        0.696296
LJ           2.55693         -1.5239         1.51926
LJ          -1.94363        -2.34931         1.51459
LJ         -0.756224         2.50752        0.955713
LJ        -0.0704397         -1.5451        0.951909
LJ         -0.824742        -1.76217         1.89807
LJ         0.0774071        -2.35131         1.78618
LJ          0.767323         2.50256        0.983322
LJ           1.71321        -1.57376        0.882928
LJ          0.945555        -1.69188         1.69051
LJ           1.79774        -2.49619         1.59111
LJ          -2.45905       -0.818227        0.759615
LJ           -1.4941      -0.0771009        0.817968
LJ           2.43676      -0.0280619         1.73937
LJ          -1.77861       -0.757952         1.55317
LJ         -0.846702       -0.937075           1.053
LJ          0.253665       -0.134643        0.981343
LJ         -0.957575        0.133742         1.82414
LJ          0.192931       -0.881383         1.74105
LJ          0.879308       -0.859592         0.79537
LJ           1.74843       -0.206806        0.646705
LJ          0.698177       0.0312394         1.95539
LJ           1.54604       -0.817049         1.62365
LJ           2.15417        0.852987        0.913034
LJ          -1.69678          1.9576         1.02075
LJ           2.41618         1.71542         1.59909
LJ          -1.85601        0.756157         1.41732
LJ          -0.79431        0.811479        0.659014
LJ          0.361003         1.55646        0.851652
LJ         -0.941091         1.44631         1.58564
LJ         0.0887962        0.823187         1.52239
LJ           1.16041        0.657336         1.07454
LJ           1.41451         1.74813         0.62535
LJ           1.08105         1.57591         1.68259
LJ           1.78874        0.904998         1.89389
