108
#Comment!
LJ          -2.26396        0.196006        0.913424
LJ           1.83111        -1.82776        0.638219
LJ         -0.527375        -1.23141         1.07538
LJ          -1.95573         1.35841        0.640317
LJ           -1.9597         1.18237         1.55609
LJ          -1.35015        -1.96177        -1.83527
LJ          -2.56202       -0.640664        -2.03956
LJ         -0.911992       -0.309597        0.254148
LJ           1.45505         -1.8597         1.55417
LJ          -1.64411       0.0210643        -2.14446
LJ           1.32587        0.362838        -1.91157
LJ           0.87824         1.48557          1.4953
LJ         -0.292363         0.80589        0.724487
LJ         -0.681648         -2.2056         1.15487
LJ           1.89516        0.108982         1.34302
LJ          -1.68494       -0.939506       -0.368514
LJ         0.0781065        -1.31397         2.24344
LJ          -1.02947          1.2363        0.143704
LJ           0.73089         1.94576         0.33621
LJ          0.971026       -0.693459       -0.715939
LJ          -1.17259        0.475786         1.20074
LJ          0.133172         2.46614        -1.41765
LJ        -0.0439395         1.48779       -0.158943
LJ           1.71162        -1.32734       -0.346487
LJ           1.00704        -1.59415        -2.51604
LJ          -1.59129        -2.08718       -0.579876
LJ           2.01278          2.0832       -0.878595
LJ          -2.41677        -1.58358        -1.28865
LJ           1.75605         2.07762         1.03997
LJ          -1.64201        -1.88227         1.57278
LJ           2.40136         2.00372         1.97463
LJ         -0.949951        -1.11224         1.98284
LJ           2.15461        -1.53123        -2.43904
LJ          0.535149       -0.265041         2.38404
LJ          0.264811       -0.676737         -1.8794
LJ          -1.77319        -1.28312         -2.5056
LJ          -1.83375        -1.92418        0.536865
LJ         -0.981957         -2.5076         2.33898
LJ             1.379       -0.789347        -1.70184
LJ          -1.09705       -0.166814       -0.860326
LJ           2.16572        -2.46091          -1.726
LJ          0.288157       -0.031519        0.461022
LJ           1.32257        0.234488         2.22605
LJ           2.34007        0.344905        -1.81395
LJ           1.14395       -0.945065        0.591413
LJ          0.181496        -1.80356        -1.87632
LJ          0.315306        0.497124        -2.17237
LJ           2.37651        0.557164       0.0877255
LJ          0.563937       -0.596371         1.45901
LJ           2.47718        -1.79268         1.66487
LJ           -2.3718        0.294988         2.15828
LJ           1.77396         1.51374      -0.0743165
LJ          -2.12164        -2.42091        -2.38276
LJ           1.00455        -2.16765        0.129468
LJ           1.68087       -0.929631         1.87995
LJ          -2.38372         1.30448        -1.70081
LJ         -0.191446         2.09431         1.09471
LJ           1.25095        -1.84373        -1.05793
LJ         -0.706699        -1.44779        -1.11393
LJ          -1.58754         1.57685         -2.4902
LJ          0.752019         2.44518          1.7696
LJ         -0.854323        -1.72931       0.0512574
LJ          -1.77202         1.53259        -0.69923
LJ          -1.73754       -0.844888        -1.41255
LJ         -0.630481       -0.237761         2.49501
LJ           1.77957      -0.0876617        -1.05728
LJ           2.25339         1.03814          1.1988
LJ         -0.286708      -0.0323415         1.43714
LJ          0.114776        -1.08403        0.165632
LJ         -0.604911        0.951995        -2.26463
LJ          0.179514        -1.73258         -0.6758
LJ          0.732155        0.200428        -1.09516
LJ           1.71588        -2.43988         2.38738
LJ           2.11857        0.994095       -0.884873
LJ          -2.11605         2.54763        -1.21689
LJ        -0.0491235         1.40508          1.9656
LJ          -1.12822         2.02736        -1.57773
LJ         -0.617144      0.00623977        -1.66213
LJ          -1.46809       -0.252479         1.83728
LJ           1.17649         1.01174        0.631743
LJ         -0.600231        -1.14556        -2.05616
LJ         0.0512268        0.513261       -0.395374
LJ          -2.17192         2.28013      -0.0375705
LJ           1.98634        0.958805         2.42762
LJ          -1.67009         0.72191        -1.35203
LJ         -0.722702          1.2284       -0.841569
LJ          -2.28062       -0.731185         1.98809
LJ          -2.18487       0.0540686       -0.702524
LJ           1.17855        0.313672      -0.0869685
LJ          -2.55564        -1.95905       -0.246416
LJ          -1.57474        0.384773       0.0501053
LJ          -1.14935          2.3104        0.259347
LJ          0.114154         2.42649        -2.52129
LJ          0.319857        -1.89494        0.926547
LJ        -0.0614617       -0.602751       -0.687519
LJ          -2.29585         2.26639        0.953972
LJ          0.691543         2.14018       -0.625324
LJ           1.61045         1.49798        -1.69728
LJ           2.20331       -0.960545         0.93662
LJ          -1.49051         2.09967         1.60119
LJ           0.61537         1.55076        -2.30632
LJ           1.11935         1.09699       -0.808017
LJ        -0.0436265        -2.46228        0.107437
LJ         -0.704212         2.51413       -0.677929
LJ           1.09021         2.54584        -1.77223
LJ          0.669451        0.487365         1.46213
LJ          -1.53268       -0.985171        0.861756
LJ          0.248249         1.22288         -1.2968
