108
#Comment!
LJ          -1.00651         -2.3073          1.6962
LJ           1.56228        0.301262         -1.8802
LJ          -2.49282        0.300192         2.55384
LJ          -0.64074         1.77274         1.71602
LJ         -0.992624       -0.978169        0.515237
LJ          -1.68622         2.33189         2.36198
LJ          0.799158        0.182653        -2.53131
LJ           2.05803       -0.352685        -1.28909
LJ       -0.00336775         0.86535       -0.201762
LJ           -1.8382        0.551364       -0.610096
LJ          0.579398         -1.8994        -1.17385
LJ           1.78486        0.995031         1.27069
LJ           1.13532         2.52066        -1.83669
LJ          0.742635         -1.4196        0.950826
LJ          0.678137        0.703473        -1.24449
LJ        0.00781444        0.934936         1.00686
LJ         -0.783874        -0.15785         2.20451
LJ           1.30999         1.84582         1.35127
LJ            1.0362       -0.545012         -1.6575
LJ           2.25725          2.0759           1.085
LJ          -1.64314        -1.18775        -2.02615
LJ          0.478481          1.1969        -2.22136
LJ          -2.34098        -0.72776       -0.625795
LJ           1.02984         1.73236       -0.745127
LJ         -0.136682       -0.961921         1.19936
LJ           2.31802        -2.38623       0.0273837
LJ          0.079593         2.41789        -1.67906
LJ          -1.24844        -1.22633         1.47039
LJ           1.36915         2.30352        0.307508
LJ         -0.725878        -1.52172         2.36234
LJ         -0.677336        -1.68569       -0.465412
LJ           1.27691         0.86366        0.140553
LJ          -0.64088         1.82992        0.677057
LJ          0.300987       -0.340391       -0.566425
LJ          -2.18106        0.394498         1.60116
LJ         -0.109943        -2.22982        0.766998
LJ           1.33776        -1.57434        -1.87418
LJ        -0.0860033        -2.54899         2.44073
LJ           2.54623        -1.70758        -1.00594
LJ          -2.18337       -0.272293          -1.756
LJ           1.94203       -0.550419         -2.3958
LJ          -1.19887         1.92752        -1.36831
LJ          -1.77327        -1.81327         2.19203
LJ         -0.274607        0.570034        -1.95353
LJ         0.0226639        -0.54935        -2.53151
LJ         -0.125797        0.634102         2.18762
LJ         -0.432617         1.61698        -2.46244
LJ          -1.24524        0.964041         1.36684
LJ           2.12142       -0.869353       0.0727514
LJ          0.881529        -2.38067         1.02734
LJ           0.12954        -1.25999        0.216339
LJ          0.112673        -1.68428         1.83835
LJ           1.35744      -0.0226336       -0.491091
LJ           2.47207        0.730864        -1.49473
LJ           2.14022         1.53244       0.0421549
LJ          -1.34628        -2.49486       -0.363354
LJ         -0.646263        -1.75965        -1.61045
LJ           2.31074         0.47241        0.109975
LJ           0.62454       -0.477345         1.58523
LJ         -0.837983       -0.625423       -0.467739
LJ          -1.88105        -1.72258       -0.171274
LJ          0.826827        0.608791         1.45223
LJ          -1.65513         1.91673         1.27341
LJ           -2.2421        -2.00044         1.09626
LJ          -1.84573        -2.34847        -1.48404
LJ         -0.995122        -2.52367        -2.12169
LJ           1.84624          1.5869         -1.8386
LJ           1.84015         1.02362        -0.72835
LJ           2.11967         -2.3098        -1.88522
LJ           -1.5848        0.921664        -1.60101
LJ          -0.33374         1.56596       -0.989665
LJ          -1.22623        -2.07972        0.550712
LJ          0.938596        -1.95215      -0.0821706
LJ          -2.09305         1.81611         -1.8845
LJ          -2.08342         2.05545        0.186718
LJ           2.32029         2.49215         2.14623
LJ          -2.24437         1.69585       -0.841467
LJ          -2.54449       -0.859943         1.15947
LJ          -2.08888       -0.147293        0.476974
LJ          -2.20646       -0.805124         2.12909
LJ          -1.35627       -0.244266         1.38151
LJ          -1.02032        0.587654        0.484549
LJ           1.01719       -0.953515         2.41085
LJ          0.923771     -0.00114062        0.576014
LJ         -0.270719       -0.778618        -1.40888
LJ          -1.23422      -0.0473982        -1.86256
LJ          0.761329         2.03451         2.35506
LJ           1.21195        -2.20947         2.05435
LJ           2.14323        0.112523        0.988164
LJ          -1.60194        -1.19401        -1.04976
LJ           2.06554         2.26546       -0.880879
LJ           0.26098         1.93728         1.44791
LJ           1.77966         1.12453         2.31503
LJ          -2.22757         1.46965         2.20316
LJ         -0.307494         2.51957       -0.627834
LJ          -2.29645         1.12363         0.71967
LJ          -1.00844         1.62238       -0.293988
LJ           1.75645        -1.91473        0.908899
LJ          0.489737         1.57794        0.304785
LJ           0.34558        -1.62598        -2.22533
LJ           1.74736        0.119129         2.02102
LJ           2.53263        -1.28665        -2.18121
LJ         -0.705133         0.54494       -0.842506
LJ           2.11292         -1.4953         1.87281
LJ          -1.28699        0.848068         2.50688
LJ           1.61353       -0.854637        0.995513
LJ            1.5144        -1.23601       -0.975689
LJ         -0.175649      -0.0883125         0.33258
