108
#Comment!
LJ           2.52941         2.56379         2.55242
LJ            -1.698        -1.80571         2.53043
LJ          -2.54151        -1.76954        -1.76273
LJ          -1.81252         2.56084        -1.69138
LJ         -0.922404         2.45241          2.4825
LJ         -0.183803        -1.79346        -2.51866
LJ         -0.837134        -1.63506        -1.52769
LJ        -0.0200275        -2.49607        -1.51305
LJ          0.930339         2.48095          2.4501
LJ           1.70663        -1.75806        -2.51063
LJ          0.939007        -1.54722        -1.56752
LJ           1.84079        -2.46634        -1.73421
LJ           2.39026       -0.883202         2.46427
LJ          -1.63474       0.0132342         2.48094
LJ           2.48783    -0.000592769        -1.72312
LJ          -1.68504       -0.926981        -1.66336
LJ         -0.977524       -0.957606         2.53588
LJ         0.0835618       -0.122284         2.53349
LJ         -0.890551        0.105825        -1.70884
LJ        -0.0310464       -0.868027        -1.67731
LJ          0.778859        -1.05136        -2.53135
LJ           1.83021        0.129642         2.55626
LJ          0.749963       0.0973025        -1.68098
LJ           1.68352       -0.879918        -1.60985
LJ           2.56182        0.879993         2.56062
LJ          -1.77475         1.69366         2.52535
LJ          -2.49449         1.55193        -1.74544
LJ          -1.79032        0.844916        -1.63963
LJ         -0.814835         1.01215         2.40321
LJ          0.159036         1.62853         2.40678
LJ         -0.854236         1.75664        -1.62868
LJ         -0.051942         0.85492        -1.80654
LJ          0.827331         0.90332         -2.4528
LJ           1.78869         1.77209         2.53202
LJ           1.10371         1.76164         -1.7776
LJ           1.66009         0.77895        -1.64269
LJ          -2.52416        -2.46481       -0.905374
LJ          -1.57545        -1.76219       -0.791222
LJ           2.53901        -1.78083      -0.0713102
LJ          -1.64616         2.47729       0.0134809
LJ         -0.751175          2.5593        -0.86804
LJ        -0.0344609        -1.64949       -0.897421
LJ         -0.892362        -1.68388       0.0692265
LJ        -0.0752756         2.49358      -0.0397755
LJ          0.898119         2.52651       -0.849573
LJ           1.67448        -1.82383       -0.755946
LJ          0.673309        -1.95044        0.158773
LJ           1.63665        -2.56404      -0.0432534
LJ          -2.48691       -0.787949       -0.788448
LJ          -1.85564        0.122163       -0.875615
LJ           2.45714       0.0170908      -0.0102033
LJ          -1.72326       -0.873806     -0.00445811
LJ          -0.91302        -0.75678         -0.8187
LJ         -0.067475       -0.126704       -0.874239
LJ          -0.88669      -0.0711042      -0.0018382
LJ          -0.02963       -0.732829       0.0820348
LJ          0.857244        -0.79957       -0.815008
LJ           1.70696      -0.0896877        -0.89146
LJ          0.958444      -0.0176261       -0.140144
LJ           1.70338       -0.977395       -0.201881
LJ          -2.49818        0.878814       -0.817871
LJ          -1.81042         1.72843       -0.905113
LJ           2.55146         1.70663       0.0828056
LJ          -1.66724        0.874156        0.136254
LJ         -0.832239        0.741739       -0.614397
LJ         -0.127682         1.73936       -0.972236
LJ         -0.949134         1.75468        -0.13006
LJ        -0.0618861        0.937907       0.0779684
LJ          0.781282         0.95569       -0.799112
LJ           1.70813         1.84121       -0.851213
LJ          0.674555         1.67592        -0.16846
LJ           1.73818         0.77039       0.0476679
LJ           2.54845          2.5302        0.945424
LJ          -1.65887        -1.77957         1.03655
LJ           2.45372        -1.66215          1.7633
LJ          -1.79191        -2.54084         1.70272
LJ         -0.825782         2.36941         0.86093
LJ           0.11066        -1.78038         0.92496
LJ          -0.82526        -1.69462         1.83258
LJ         0.0503327        -2.52156         1.78513
LJ            1.0374          2.4817        0.895562
LJ           1.71606        -1.83276        0.770233
LJ           1.02538        -1.65531         1.58408
LJ           1.72032        -2.50334         1.71164
LJ           2.45819       -0.670843        0.984531
LJ          -1.75625      -0.0103177        0.758196
LJ          -2.51933      -0.0401896         1.85768
LJ          -1.71709       -0.937558         1.85182
LJ          -0.85328       -0.929872        0.813985
LJ         0.0839478      -0.0538483        0.864889
LJ         -0.727783      -0.0180023         1.64172
LJ         0.0320678       -0.907019         1.60056
LJ          0.814517       -0.890476        0.886953
LJ           1.67232       -0.140046        0.778611
LJ          0.811624       -0.105807         1.64242
LJ           1.78072       -0.839308         1.74972
LJ           2.56365         0.95089         0.78988
LJ          -1.70552         1.71612        0.794002
LJ          -2.52463          1.7049         1.82023
LJ          -1.63846        0.760589         1.76972
LJ         -0.837494        0.712927        0.825586
LJ        -0.0212861         1.55775        0.894434
LJ         -0.828983         1.73599         1.70956
LJ         0.0298238         0.83107         1.52999
LJ          0.860012        0.751929        0.789119
LJ           1.71845         1.63143        0.797735
LJ          0.866275         1.62648         1.64634
LJ            1.6705        0.980177         1.64898
