108
#Comment!
LJ            2.5227        -2.43051         2.53925
LJ          -1.69603        -1.67427         2.44937
LJ           2.55995        -1.66043        -1.63976
LJ          -1.70945        -2.37515        -1.81471
LJ         -0.833453          2.4811         2.48435
LJ         0.0471711         -2.0451        -2.49346
LJ          -1.12556        -1.43181        -1.61952
LJ         0.0655616          2.2705        -1.62452
LJ           0.94363         2.37635        -2.52497
LJ           1.83279        -1.73813         2.52363
LJ           1.00529        -1.78534        -1.67004
LJ           1.91659          2.5548        -1.55527
LJ           2.41597       -0.805706         2.51773
LJ           -1.7344       0.0929193          2.5304
LJ          -2.55171        0.180584        -1.83067
LJ          -1.65687       -0.495588        -1.53004
LJ          -1.14527       -0.852972        -2.43789
LJ          0.021325       -0.242624        -2.43195
LJ         -0.815923       0.0178862        -1.70428
LJ         -0.106674        -1.00072        -1.88553
LJ          0.942853        -1.10914        -2.46557
LJ           1.66701       0.0664964        -2.51088
LJ          0.752695      -0.0126459        -1.70627
LJ           1.64082       -0.764425        -1.73797
LJ          -2.42349         1.09126         2.46403
LJ          -1.78956            1.87          2.5241
LJ          -2.51292         1.65961        -1.64701
LJ          -1.50797        0.893017        -1.74379
LJ         -0.635376         1.11892        -2.54281
LJ         0.0983759         1.76471         2.51518
LJ         -0.823601         1.73056        -1.66578
LJ         0.0639564         1.06702        -1.69856
LJ            1.0386         0.84291        -2.53814
LJ           1.84593         1.86163         2.51471
LJ          0.886632         1.74707        -1.63116
LJ           1.81128         0.89125        -1.82883
LJ           2.51453         2.38364       -0.624891
LJ          -1.55873        -1.90372       -0.772693
LJ          -2.43121        -1.75354       -0.139799
LJ          -1.77707         2.45956      -0.0452843
LJ         -0.666689        -2.51386         -1.0042
LJ          0.104315        -1.75058        -0.89094
LJ          -0.48811        -1.77934       0.0355929
LJ         -0.323118          2.3654        0.197899
LJ          0.797951        -2.53426       -0.940661
LJ           1.72445        -1.65564       -0.969348
LJ          0.612652        -2.12854       0.0245601
LJ           1.67963        -2.32029       0.0358738
LJ          -2.37179       -0.872617       -0.741555
LJ          -1.84217       0.0622724       -0.600472
LJ           2.44286       0.0902321       0.0145268
LJ          -1.56732       -0.910845       0.0390347
LJ         -0.582394       -0.863146       -0.812358
LJ        -0.0112163        0.304117       -0.965889
LJ         -0.881272      -0.0581737      -0.0925551
LJ         0.0321836       -0.835937         0.24042
LJ          0.824014       -0.975544       -0.735735
LJ           1.91115       -0.150196       -0.871976
LJ          0.749231       0.0467419       -0.045649
LJ           1.66346       -0.911011       -0.173267
LJ          -2.41923        0.895383        -0.93502
LJ          -1.62059         1.71692       -0.887159
LJ           2.46609         1.67478        0.102485
LJ           -1.9651         1.01072      -0.0391476
LJ          -1.06098        0.706464       -0.849733
LJ         0.0344678         1.64824       -0.807179
LJ         -0.821616         1.54852       -0.147275
LJ        -0.0688057        0.873449        0.114074
LJ          0.776144         0.89924       -0.672784
LJ           1.66075         1.62426       -0.956116
LJ          0.859704         1.99583      -0.0350249
LJ           1.74297        0.811198       -0.214199
LJ           2.45984         2.46476        0.834041
LJ          -1.40593        -1.71148        0.610279
LJ           2.44738        -1.56185         1.72228
LJ           -1.9953         2.48863         1.64963
LJ         -0.687525        -2.44311         1.08453
LJ          0.142326        -1.58249        0.851902
LJ         -0.902598        -1.72277         1.69247
LJ         0.0754596        -2.33634         1.73469
LJ          0.956451         2.43881        0.895911
LJ           2.00034        -1.54311           0.653
LJ           1.00935        -1.82527         1.64205
LJ           1.70498         2.55968         1.67557
LJ           2.54624       -0.628624        0.979502
LJ          -1.73094      -0.0491154        0.927156
LJ           2.53507       0.0204741         1.82874
LJ          -1.74728       -0.955549         1.57454
LJ         -0.683729       -0.909336        0.940974
LJ         0.0801207      0.00746392         1.05884
LJ         -0.844822        0.163369         2.04835
LJ         0.0947183       -0.886609         1.85577
LJ           1.03484       -0.964056        0.721724
LJ           1.64492       -0.113272         0.68056
LJ          0.750639      -0.0533987         1.85684
LJ           1.65692       -0.844075         1.70545
LJ          -2.56431        0.808496        0.934232
LJ          -1.44171         1.90388        0.736781
LJ           2.41868         1.66633         1.55719
LJ          -1.64717         0.95019         1.56602
LJ         -0.904926        0.649462          0.8351
LJ          0.260941         1.43847        0.864606
LJ         -0.836882         1.54905         1.58095
LJ        -0.0237818        0.850327         1.59411
LJ          0.932918        0.680623        0.816407
LJ           1.66311         1.73958        0.722842
LJ          0.900023         1.50633         1.83504
LJ           1.76536        0.806881         1.80467
