108
#Comment!
LJ          -2.56329        -2.39524         2.50934
LJ          -1.69072        -1.61133         2.41412
LJ            2.5217        -1.74031        -1.68542
LJ          -1.77655        -2.43208        -1.69321
LJ         -0.818388         2.52221         2.49449
LJ         0.0276947         -2.0006         -2.4414
LJ          -1.02011        -1.45906        -1.60385
LJ       -0.00101775         2.34136        -1.68059
LJ            1.0032         2.39256        -2.54481
LJ           1.72369        -1.83301         2.50922
LJ          0.994971        -1.83699        -1.74634
LJ           1.92329         2.55605         -1.6519
LJ           2.44963        -0.80257         2.53448
LJ          -1.89492        0.014327         2.56327
LJ           2.46324        0.115641        -1.97429
LJ          -1.73977       -0.525452        -1.55335
LJ          -1.10237       -0.825353        -2.42033
LJ         -0.029742       -0.157697        -2.45967
LJ         -0.731701       0.0138969         -1.7178
LJ         -0.106306        -1.15049        -1.90033
LJ          0.918064        -1.12009        -2.50105
LJ           1.65312       0.0112743        -2.47381
LJ          0.826243       0.0672302        -1.78226
LJ           1.64779       -0.678999         -1.7607
LJ          -2.42189         1.02138         2.46999
LJ          -1.71631          1.9303         2.54364
LJ          -2.50437         1.70607        -1.65125
LJ           -1.4992        0.799149        -1.82907
LJ         -0.680421         1.07843         2.45843
LJ          0.125723         1.84857         2.44081
LJ         -0.804917         1.66047        -1.74142
LJ           0.04956         1.02759        -1.83746
LJ          0.931065         0.91236        -2.53677
LJ           1.91353         1.80616         2.51782
LJ          0.937385         1.84056        -1.64003
LJ           1.72372        0.896102        -1.69374
LJ           2.38226         2.36379       -0.755758
LJ          -1.48007        -1.79652         -0.7672
LJ          -2.48401        -1.85538      -0.0775283
LJ          -1.64637         2.52076      -0.0877905
LJ         -0.805432        -2.53957        -1.12766
LJ          0.153659        -1.75151       -0.926679
LJ         -0.496816        -1.81737      0.00481315
LJ         -0.255867          2.3937       0.0568194
LJ          0.890637        -2.55459       -0.932361
LJ           1.73859        -1.74544       -0.968791
LJ          0.655148        -2.01426        0.129136
LJ           1.64852        -2.38573      -0.0542435
LJ          -2.48509       -0.867636       -0.688484
LJ          -1.92351       0.0699731        -0.71003
LJ            2.5244       0.0633945       0.0345771
LJ          -1.64281       -0.940246        0.025786
LJ         -0.552067       -0.870335       -0.762253
LJ        -0.0447584        0.198866        -1.04688
LJ         -0.847233      -0.0979819       -0.164194
LJ         0.0706256       -0.733733        0.287549
LJ          0.896172       -0.981585       -0.682381
LJ           2.02255      -0.0273604       -0.875643
LJ          0.735155     -0.00316427      -0.0346926
LJ           1.65968       -0.948759       -0.114271
LJ          -2.42441        0.940636       -0.923236
LJ          -1.52231         1.78684       -0.825572
LJ           2.38805         1.79514        0.023899
LJ          -1.93224        0.975007       0.0609303
LJ          -1.04155        0.695668       -0.944083
LJ         0.0752995         1.85094       -0.775562
LJ          -0.79867         1.50064      -0.0832117
LJ        -0.0267814        0.846242       0.0578043
LJ          0.764142        0.982511       -0.684246
LJ           1.61002         1.64959       -0.899254
LJ          0.846894         1.94858       -0.071497
LJ           1.67024        0.882912       -0.176462
LJ           2.47212         2.40435        0.873269
LJ          -1.41873        -1.76819        0.694274
LJ           2.50586        -1.52718         1.80524
LJ          -2.05238        -2.51435         1.68212
LJ         -0.683638         2.54266          1.1047
LJ          0.157815        -1.61735        0.965328
LJ         -0.915052        -1.75649         1.68632
LJ         0.0587246        -2.33843         1.74669
LJ          0.939754         2.34455        0.919653
LJ           1.92391        -1.51214        0.710053
LJ          0.988855         -1.7863         1.72288
LJ           1.71238         2.54021         1.68778
LJ          -2.56393       -0.614414        0.956768
LJ          -1.68468       0.0344024         0.82109
LJ           2.52231    -0.000519298         1.78328
LJ          -1.80358        -0.80346         1.67035
LJ         -0.732128       -0.929313          1.0786
LJ        0.00401516     -0.00723817        0.938233
LJ         -0.845679        0.169743         2.00103
LJ          0.186896       -0.934071          1.9042
LJ           1.01008        -1.06043        0.716771
LJ           1.64627       -0.128065        0.754101
LJ          0.884565       0.0512629         1.84791
LJ           1.57518       -0.881245         1.77015
LJ           2.39141        0.847597        0.865271
LJ          -1.52925         1.96902        0.792932
LJ            2.3871         1.61766          1.5883
LJ          -1.79104        0.926875         1.51539
LJ         -0.905955        0.656041        0.864496
LJ          0.272672         1.49288        0.795136
LJ         -0.830042         1.63766         1.59949
LJ        -0.0610577          0.8464          1.6435
LJ          0.974802        0.778364        0.866143
LJ           1.57297         1.71426        0.574472
LJ          0.838513         1.55123         1.71931
LJ           1.93538        0.805969         1.76511
