108
#Comment!
LJ           2.51993         2.52644         2.47556
LJ           -1.7737         -1.7194         2.51332
LJ          -2.50562        -1.76798        -1.58729
LJ          -1.77017        -2.45826        -1.82904
LJ         -0.936251         2.42167         2.52166
LJ         0.0187842        -1.98935        -2.49491
LJ         -0.903494        -1.54737        -1.59738
LJ          0.057145         2.28343        -1.66809
LJ          0.984547         2.47515        -2.30337
LJ           1.80734        -1.70758         2.50096
LJ          0.994211        -1.71876         -1.6592
LJ            1.9939        -2.47902        -1.48661
LJ           2.46337       -0.805555        -2.48823
LJ          -1.77834        0.027749         2.55728
LJ          -2.51401        0.179966        -1.73635
LJ          -1.61584       -0.554987        -1.32713
LJ          -1.17856       -0.894046        -2.44765
LJ         -0.125747       -0.237916        -2.44641
LJ         -0.802239        0.120088        -1.81551
LJ        -0.0536664       -0.940185        -1.76363
LJ           1.00484        -1.10396        -2.43932
LJ           1.61778       0.0771261        -2.56179
LJ          0.774228      -0.0805351        -1.56091
LJ           1.70927       -0.840997        -1.71325
LJ          -2.48852         1.03994         2.30941
LJ          -1.78504         1.80178         2.54812
LJ           2.56258         1.66681        -1.75575
LJ          -1.72001        0.930758        -1.91538
LJ         -0.745608         1.07963         2.55779
LJ         0.0335678          1.8385         2.53407
LJ         -0.787919         1.71183        -1.77075
LJ         0.0352506        0.833403        -1.88181
LJ          0.854431        0.813353        -2.46253
LJ           1.77424         1.88606         2.44992
LJ          0.942416         1.65634        -1.59744
LJ           1.83443        0.799456        -1.76422
LJ          -2.46922         2.41297       -0.727615
LJ          -1.44513        -1.80351       -0.677913
LJ           2.54817        -1.78021        -0.16344
LJ          -1.65351         2.43296      -0.0927644
LJ         -0.736753          2.5161       -0.923975
LJ         0.0289382        -1.72431       -0.964358
LJ         -0.586397        -1.80442        0.109078
LJ          -0.19637         2.30637       0.0937185
LJ          0.822307        -2.47656       -0.902611
LJ           1.78489        -1.64726         -0.8467
LJ          0.668439        -1.92913        0.121711
LJ           1.61821        -2.33896      -0.0880386
LJ          -2.53713       -0.845689       -0.762147
LJ          -1.89855        0.134394       -0.724917
LJ           2.38455      -0.0432289       -0.028451
LJ           -1.6595       -0.931764      0.00614977
LJ         -0.671292       -0.832499       -0.836322
LJ       -0.00292692        0.192017       -0.903473
LJ         -0.758828      -0.0605623      -0.0442279
LJ         0.0740566       -0.772487        0.187423
LJ          0.777854       -0.844457        -0.77344
LJ           1.80158       -0.150216       -0.891505
LJ           0.74054       0.0583691        -0.12291
LJ           1.67367        -0.93141      -0.0937607
LJ           -2.3982        0.989516       -0.979372
LJ          -1.68408         1.68966        -1.06781
LJ           2.52895         1.56359       0.0553713
LJ          -1.93011        0.830642       0.0246031
LJ         -0.973451        0.737262       -0.873775
LJ        -0.0554066         1.55315       -0.845626
LJ         -0.857225         1.45848      -0.0597105
LJ         0.0643717        0.991995       0.0571898
LJ          0.828415         1.08198       -0.751289
LJ           1.72219           1.693       -0.952644
LJ          0.861921         1.97297       0.0213649
LJ           1.83622         0.81342       -0.152189
LJ           2.47709        -2.49061        0.780909
LJ          -1.51246        -1.69588        0.702728
LJ           2.55434        -1.45856         1.70192
LJ           -1.9989         2.51668         1.53338
LJ         -0.754825        -2.52474         1.02988
LJ          0.144531        -1.74942        0.896612
LJ         -0.935998        -1.66066         1.74973
LJ          0.111466        -2.43491         1.72824
LJ           1.03816        -2.55513        0.936278
LJ           1.80991        -1.52094        0.767457
LJ           0.87956        -1.68071         1.68045
LJ           1.59807        -2.50864         1.83366
LJ           2.53379       -0.562866         1.06155
LJ          -1.83355       0.0115965        0.801552
LJ           2.54557        0.116242         1.88055
LJ          -1.61188       -0.912423         1.48344
LJ         -0.779193       -0.896569        0.908273
LJ          0.111801      -0.0821888         1.03043
LJ         -0.847711        0.138214         2.10015
LJ          0.114716       -0.948845         1.67922
LJ          0.962626        -0.83289        0.814056
LJ           1.63932      -0.0790774        0.618178
LJ          0.723756       -0.118682         1.93194
LJ           1.68983       -0.821703          1.7027
LJ           2.49789        0.646602        0.785068
LJ          -1.44629         1.91754        0.777902
LJ          -2.53612         1.57379         1.46415
LJ          -1.52658        0.913486          1.6164
LJ          -0.83943        0.755129        0.653725
LJ          0.203786         1.61831        0.928123
LJ          -0.75766          1.6335         1.51538
LJ        0.00943112        0.947298         1.60294
LJ           0.78802        0.630647        0.913874
LJ           1.71379         1.63318        0.733261
LJ          0.914061         1.64385         1.70352
LJ           1.67475        0.764464          1.6648
