108
#Comment!
LJ          -2.54732         -2.3514         2.36969
LJ           -1.7898        -1.60329         2.42141
LJ          -2.31555        -1.55323        -1.62384
LJ          -1.75388         -2.4915        -1.53283
LJ         -0.743397         2.34477         2.51377
LJ         0.0629584        -1.84698         -2.4224
LJ           -1.1734        -1.59944         -1.7881
LJ        -0.0191115         2.16758        -1.88718
LJ          0.782452        -2.53023         2.48717
LJ           1.74216        -1.63631         2.49043
LJ          0.806947        -1.91446        -1.66648
LJ            1.8852         2.38873        -1.84901
LJ           -2.5554       -0.877013         2.55856
LJ          -1.72976        0.100353         2.55313
LJ           2.45844        0.134389        -1.81219
LJ          -1.81509       -0.535686        -1.62848
LJ          -1.03615       -0.754439        -2.36548
LJ        -0.0347583       -0.198132        -2.45918
LJ          -1.03347       0.0784357        -1.78872
LJ         -0.115235        -1.11665        -1.80379
LJ          0.852904        -1.03758         2.53608
LJ           1.75281       0.0614369          2.4281
LJ          0.928408       0.0754584        -1.82551
LJ           1.69434       -0.697596        -1.71838
LJ          -2.53436        0.888032        -2.46946
LJ          -1.67534          1.8178         2.36907
LJ          -2.41429         1.55275        -1.61268
LJ          -1.72053        0.925983        -1.76972
LJ         -0.486665        0.950225         2.54174
LJ          0.136954         1.72676         2.39229
LJ           -1.1172          1.6808        -1.83676
LJ           0.16156         1.05076        -1.80057
LJ          0.849203        0.911127        -2.56206
LJ           1.70466         1.71053         2.41569
LJ           0.95849         1.93657        -1.91919
LJ            1.6842         1.12218        -1.67487
LJ           2.47333         2.34493       -0.775437
LJ          -1.51263        -1.66408       -0.772808
LJ           -2.4367        -1.87797       -0.103699
LJ          -1.78973         2.37924       0.0246631
LJ         -0.674769         2.54846        -1.02983
LJ          0.180699        -1.70206         -0.7741
LJ         -0.774323        -2.01488       -0.214741
LJ         -0.190359         2.33152        0.111805
LJ           0.90845         -2.4548       -0.940483
LJ           1.87479        -1.71284        -1.05902
LJ          0.766383        -1.90163        0.289299
LJ           1.71548        -2.52102       -0.121477
LJ          -2.43999       -0.968502       -0.784975
LJ          -1.89472      -0.0632601       -0.713141
LJ          -2.52717        0.175921       0.0672872
LJ          -1.65421       -0.682491        0.156915
LJ         -0.749797       -0.854535       -0.752996
LJ         -0.101937        0.183153        -1.05407
LJ         -0.665504       0.0775612      -0.0770858
LJ        -0.0425863       -0.721945       0.0864784
LJ          0.969052        -1.07651       -0.807285
LJ            1.8718       -0.220325       -0.565996
LJ          0.770001     -0.00663145       0.0754244
LJ           1.91499        -1.09214      -0.0965736
LJ           2.49962        0.869254       -0.815389
LJ          -1.56145         1.81371       -0.886849
LJ           2.41086         1.64094      -0.0408632
LJ          -1.88188         1.04749        0.330812
LJ          -1.02842         0.71913       -0.958144
LJ          0.116684         1.63452       -0.913126
LJ           -0.8014         1.58739       -0.220309
LJ        -0.0361953        0.872999       -0.126132
LJ          0.939317        0.849611       -0.746014
LJ           1.65962         1.72944       -0.688012
LJ          0.830962         1.90652      -0.0804619
LJ           1.74662        0.806675       -0.100819
LJ           2.43513         2.40691        0.607486
LJ          -1.38478        -1.79412        0.659317
LJ           2.51875         -1.4081         1.57359
LJ          -1.97196        -2.36573         1.47348
LJ         -0.763172           2.563        0.942043
LJ          0.132687        -1.43455         1.01933
LJ         -0.837966         -1.8489         1.89209
LJ         0.0637573        -2.43148          1.7098
LJ          0.694805         2.40551         1.09197
LJ           1.79318        -1.65473        0.939184
LJ          0.931537        -1.75493         1.72443
LJ           1.78995        -2.47148         1.66216
LJ          -2.55774       -0.664905        0.753333
LJ          -1.50884       0.0715673        0.862315
LJ           2.49262       0.0622497          1.7011
LJ          -1.76112       -0.727528         1.72987
LJ         -0.809629       -0.994159         1.03258
LJ          0.214559       -0.250869         1.04758
LJ         -0.943293        0.211529         1.98014
LJ          0.165523       -0.875879         1.84813
LJ          0.972399       -0.930945        0.819732
LJ           1.74486       -0.160345        0.617321
LJ          0.609572       0.0194623         1.95789
LJ           1.53549       -0.810876         1.79663
LJ            2.3079        0.771234        0.884911
LJ          -1.59136         1.90318         1.03435
LJ           2.39561         1.64897         1.49752
LJ           -1.8567        0.794037           1.548
LJ         -0.792722        0.762386        0.725329
LJ          0.268907         1.39084        0.830621
LJ         -0.866054         1.45981         1.59705
LJ         0.0862712        0.875583         1.70297
LJ           1.20572        0.725224        0.968705
LJ           1.51812         1.73091        0.624436
LJ          0.976508         1.55677         1.61712
LJ           1.71841        0.814989         1.82687
