108
#Comment!
LJ           2.51574         -2.4757         2.45663
LJ          -1.67882        -1.84768          2.5627
LJ           2.49933        -1.67259         -1.5959
LJ          -1.90065         2.54124        -1.81608
LJ         -0.940899         2.55415         2.32549
LJ         -0.220824        -1.84448        -2.54346
LJ         -0.961578        -1.53882        -1.70337
LJ         0.0678868         2.36755         -1.7405
LJ          0.917811         2.54146         -2.4622
LJ           1.73463        -1.71146        -2.54974
LJ          0.867243        -1.56195        -1.58698
LJ           1.90412        -2.51775        -1.61445
LJ           2.51814       -0.913592        -2.50635
LJ          -1.66733        0.181321         2.48254
LJ          -2.46239        0.215093        -1.85088
LJ          -1.79305       -0.800907        -1.45792
LJ          -1.12835       -0.937834         2.55389
LJ         0.0938828      -0.0699679         2.50632
LJ         -0.853585        0.151617         -1.7323
LJ          0.101464       -0.883329        -1.73336
LJ          0.932044         -1.0444        -2.52493
LJ           1.69558        0.108376         2.52558
LJ          0.727445        0.150253        -1.58738
LJ           1.65602       -0.892719        -1.75847
LJ           2.56017        0.972503          2.4614
LJ          -1.67902         1.89158         2.49561
LJ           -2.5532         1.59159        -1.84295
LJ          -1.67355        0.902962        -1.78928
LJ          -0.74062         1.05781         2.36441
LJ         0.0777792         1.69266           2.408
LJ         -0.793521         1.60532        -1.72214
LJ        -0.0869666        0.834509        -1.81611
LJ            0.7728        0.846312        -2.49033
LJ           1.76184         1.83852         2.55245
LJ           1.00548         1.76968        -1.50447
LJ           1.76752        0.839108        -1.73975
LJ          -2.41617         2.53065       -0.851025
LJ          -1.51732         -1.7559       -0.693724
LJ           2.53142        -1.75941       -0.054577
LJ          -1.70863         2.43983      -0.0117345
LJ         -0.825092         2.50455       -0.901351
LJ         0.0858311        -1.68903       -0.904461
LJ         -0.761134        -1.70419        0.143237
LJ         -0.246588         2.36058     -0.00553287
LJ          0.957765        -2.47194       -0.945938
LJ           1.67484        -1.69696       -0.766316
LJ          0.643667         -1.9008       0.0245591
LJ           1.68872         -2.4098      -0.0588826
LJ           2.51607       -0.929703       -0.760245
LJ          -1.86661        0.138095       -0.788939
LJ          -2.52339      -0.0104255      -0.0547438
LJ          -1.75464       -0.699358       -0.133678
LJ         -0.796373       -0.724493       -0.886972
LJ        -0.0154215        0.138256       -0.802791
LJ         -0.863061      0.00747706      0.00328249
LJ         -0.099555       -0.698245        -0.12207
LJ           0.71831       -0.857367       -0.799236
LJ           1.81031      -0.0852832       -0.794383
LJ          0.851463        0.102914       -0.127482
LJ              1.77        -1.01578      -0.0393907
LJ           -2.4956          1.0962       -0.756766
LJ          -1.61478         1.68327        -1.06745
LJ            2.5387         1.66572        0.065786
LJ          -1.88292        0.907755        0.118935
LJ         -0.909696        0.798128       -0.876242
LJ      -0.000221005           1.745       -0.870051
LJ         -0.871683         1.48382       -0.179677
LJ       -0.00713665         1.07792       0.0266354
LJ          0.709046        0.966327       -0.772011
LJ           1.90206         1.68776       -0.923802
LJ          0.788039         1.85911       -0.140174
LJ           1.74511        0.917782       -0.115297
LJ           2.48683        -2.53565         1.03799
LJ          -1.50358        -1.84956          1.0045
LJ           2.54144        -1.59198         1.76046
LJ          -1.89781         2.47357         1.65313
LJ         -0.717819         2.54529        0.881429
LJ           0.13526        -1.69041        0.906266
LJ         -0.975612         -1.7012         1.76057
LJ         0.0692966         -2.5208         1.76726
LJ           1.11142        -2.54803        0.973745
LJ           1.90318        -1.52796        0.926166
LJ          0.859349        -1.62678         1.67061
LJ           1.55236        -2.41121         1.84514
LJ           2.49695       -0.674076        0.887526
LJ           -1.8738     -0.00602991        0.833565
LJ          -2.54442      -0.0372899         1.95982
LJ          -1.71304       -0.850554         1.65788
LJ          -0.63943       -0.874521        0.835254
LJ         0.0159247      -0.0796794        0.811559
LJ         -0.799841       0.0927523         1.89158
LJ         0.0981585        -0.91683         1.60502
LJ          0.891754       -0.912169        0.909418
LJ           1.59312      -0.0191935        0.646479
LJ          0.808024      -0.0545119         1.86222
LJ           1.68903       -0.850322         1.72313
LJ           2.39143        0.734556        0.751313
LJ          -1.51189         1.88731        0.831701
LJ           2.50978         1.60834         1.69054
LJ          -1.61796        0.784571         1.64063
LJ         -0.910831        0.631623        0.877964
LJ         0.0261477         1.66278        0.840301
LJ         -0.785527         1.75538         1.43919
LJ        -0.0407572        0.846817          1.6277
LJ          0.808484        0.848867         1.04032
LJ           1.78326         1.74035        0.849373
LJ           1.04241         1.64024         1.84088
LJ           1.67585        0.911399         1.69202
