108
#Comment!
LJ          -1.08394        -2.43533       -0.106245
LJ           1.37919        0.680182        -1.30587
LJ          -0.57285        0.515757        0.603483
LJ          -2.32006        -1.61899         2.07788
LJ           1.64311        -2.45695        0.150536
LJ          -1.33175         1.27123       -0.842849
LJ           1.88483        -1.15252         1.82259
LJ          -1.78868         1.60901          1.5263
LJ           2.37445        -1.85312        -1.53655
LJ          -1.45728        -1.94991        -1.23176
LJ          -2.06913        -2.18629        0.553378
LJ            2.2251        0.433018         2.15024
LJ            -2.224         1.55779        -1.63211
LJ          0.701745         1.25395         1.89168
LJ          0.321653        -1.29723        -1.21487
LJ          0.623083         1.34812        -1.42112
LJ          -1.40978        -1.06307       -0.643935
LJ          0.788264        0.195338       -0.606189
LJ           2.17597         2.37673        -1.79876
LJ         -0.221655       -0.461805        -1.00795
LJ         -0.679116        -1.66351         1.66625
LJ          -1.90062        0.796251         2.28591
LJ           2.03214         1.90464        0.857078
LJ           1.19197        0.419936          1.6084
LJ          0.616965        -0.45884        -1.83305
LJ          0.846096        -2.24488       -0.492509
LJ        -0.0697315         2.16766         1.71722
LJ          -2.11373         1.04697        0.695201
LJ         -0.192941         1.95271        -1.87876
LJ           1.70461       -0.253071        0.965974
LJ           0.31798        0.114208         2.15069
LJ         -0.614398       -0.649681         2.16211
LJ           -1.1264        -0.55943        0.625833
LJ          -2.37651        -1.27489         1.13752
LJ           1.99797        -2.02822         1.20614
LJ            1.2439        -1.04602        -2.30304
LJ          -2.09267        -1.00877       0.0429124
LJ           1.33785        -1.66322        -1.50563
LJ          -1.03622        -1.44669        -2.55894
LJ          -1.23935        -1.61597        0.844883
LJ         -0.888674         2.07062        -2.55745
LJ        -0.0140236        -1.38361         0.84313
LJ          -2.09632         1.93652         0.40373
LJ          -1.18108         1.40244        0.590477
LJ          -0.12637         1.61936        0.602561
LJ          0.173485         2.15034       -0.907282
LJ           2.52827       -0.903811       -0.967222
LJ         -0.701389        0.469479          2.4782
LJ           1.48059        0.111361        -2.24503
LJ          0.680045         2.33061        0.657484
LJ          -0.81109         -1.2533        -1.34465
LJ          0.947618        -1.48393        0.364535
LJ         -0.131726         1.32499         2.39141
LJ          -1.97926         -2.3492        -2.01161
LJ           1.97685        -1.38719        0.427998
LJ           1.86876        -1.70987       -0.699753
LJ             1.428       -0.591439       -0.270759
LJ          0.926703         1.14986        0.821029
LJ          -2.30036         1.80653         2.43171
LJ          -1.87646        -1.23121        -1.79815
LJ         -0.682912         1.10669         1.42447
LJ          0.775822         2.42052        -1.59154
LJ          0.744782       -0.659046         1.24748
LJ           1.96767         1.54027         1.80546
LJ            1.5292        0.881736       -0.247416
LJ         -0.140932        -2.24607        -2.26402
LJ          -1.45019       -0.296552        -2.35509
LJ         -0.323224       -0.167404        -1.99397
LJ           1.38068         1.91727        -1.01334
LJ          0.482851       -0.854833        -0.36357
LJ          0.643461        0.815136         -2.2864
LJ           2.11655        0.704576        0.905761
LJ           2.21246        -1.16336        -2.27266
LJ          -1.25798         2.35359         1.01339
LJ           2.53929         1.24967       -0.687387
LJ         -0.470972        -2.26393        -1.13804
LJ         0.0469657        -1.13172        -2.24352
LJ          -1.48796        -0.89438          1.5272
LJ           -2.3446      -0.0535281         1.18788
LJ          0.730974        0.120709        0.434274
LJ          -2.49627       -0.212438        -1.77685
LJ           2.31292        0.783573          -2.004
LJ           2.45906        -2.43153       -0.412482
LJ         -0.410453        0.828481       -0.630388
LJ          -1.08628         2.15144        -1.36226
LJ          -2.43966         2.45655         1.43918
LJ           2.50566      -0.0437865       0.0860066
LJ            1.0769        -1.85453         1.31834
LJ         -0.192535        -1.47436       -0.358313
LJ          0.350883        -1.37886         1.87684
LJ          -1.28963        0.234748       -0.273957
LJ           2.05289        -2.25959         2.34623
LJ           1.19861         2.32879         1.74962
LJ         -0.294077       -0.255743         1.21522
LJ          0.663432         2.02048         2.55225
LJ          -1.19639        0.176896         1.55889
LJ          -1.31153       -0.256818        -1.27035
LJ          0.827506         1.66089       -0.202492
LJ         -0.298426        -2.38572        0.745701
LJ           1.55373          1.4751        -2.13911
LJ          -1.54349        -2.21067         2.12577
LJ         -0.382129        0.818459        -1.64153
LJ           0.20551        0.573922         1.32179
LJ           1.08974        -2.16765         2.53634
LJ             1.664        -0.67043        -1.47058
LJ           2.34549        0.234968       -0.866882
LJ          -1.39377        0.684075         -1.9285
LJ          -2.33333       -0.506622         2.18156
