108
#Comment!
LJ          -1.91905        -2.20343       -0.708788
LJ           1.44617        0.429522        0.161094
LJ         -0.720697       0.0919817          1.0216
LJ          -2.25687        -1.43828         1.21964
LJ           1.39722         2.23513        0.182525
LJ          -2.38415       -0.494788        -1.23041
LJ           1.62507        -1.87374         2.25913
LJ          -1.90192         1.49314        0.486667
LJ           2.07877        -1.72197        -1.74819
LJ            2.5009         2.43989        -1.52051
LJ           2.24984        -2.45893       -0.390262
LJ           1.47656       -0.562202         1.66421
LJ          -2.27843         0.38877        -1.64003
LJ           1.00802         1.81993         1.63775
LJ          0.688161       -0.600942       -0.702768
LJ          0.236365         1.68345        -1.08913
LJ          -2.51029       -0.535932       -0.138942
LJ          0.922992         1.18936        -1.60057
LJ          -2.16507         2.15084        -2.39161
LJ         -0.780221         1.20803        0.285123
LJ          -1.15986         1.88722         2.41629
LJ           1.92728        0.139822         2.27022
LJ            2.3026         1.61518         0.11599
LJ           1.61083         1.18809          2.2787
LJ            1.2145       -0.685038        -2.37459
LJ         -0.491525        -2.05718       -0.582508
LJ         -0.532387         1.36638         1.75821
LJ          -2.42062        0.454734         1.81398
LJ          -1.07291        0.858092       -0.928058
LJ           1.28632        0.507148         1.57592
LJ           0.59477        0.145807         -1.9251
LJ          0.209377       -0.844522        -2.04748
LJ          -1.70557       -0.653986        0.517215
LJ          -2.40535         2.50166        0.475001
LJ           1.96651        -2.12974         1.00823
LJ           0.42036       -0.368253         2.20162
LJ           2.24645        -1.39507        0.196448
LJ           1.48619       -0.865166        -1.32837
LJ          -1.34873        -2.21461        -2.41664
LJ          -1.88018        -1.71962        0.198422
LJ          -1.63516         1.28203         1.71905
LJ         -0.931703        -1.52851        0.849455
LJ          -2.03346         1.91682       -0.686616
LJ          -1.65081        0.436035        0.883485
LJ         -0.529063         2.18899         1.05239
LJ          0.364692         2.19296       -0.205122
LJ           2.38956        -1.47043       -0.897359
LJ          -0.41889        0.130833        -2.15947
LJ           1.62462        0.482713          -1.869
LJ         -0.237802        -2.16517        0.542725
LJ         -0.265448       -0.325483        -1.11295
LJ          0.205071        -1.10445        0.220573
LJ          -1.32804        0.804741        -2.39331
LJ          -2.02494        -1.26024        -2.02578
LJ           1.02414        -1.58409        0.828875
LJ          0.821004        -2.00807      -0.0592672
LJ           1.25959          -1.112      -0.0776606
LJ          0.468006         1.46369        0.855373
LJ           -2.5621         1.68651          1.2133
LJ            2.1013       -0.488834        -2.04569
LJ         -0.308045        0.163389         1.99873
LJ           1.40635        -1.86572       -0.886824
LJ         0.0694798         -1.0008         1.32992
LJ           1.61462         1.42755        0.919082
LJ          0.453612      -0.0543868        0.239761
LJ         -0.158963        -1.74143        -2.39891
LJ         -0.882826       -0.910256          -1.804
LJ        -0.0582793          1.0216        -1.84853
LJ           1.47451         2.04496       -0.869773
LJ         -0.722655     0.000935374      -0.0554458
LJ          0.276352         1.78254        -2.48855
LJ          0.885171         1.23661       -0.450658
LJ          -2.37715        -2.04672         2.03602
LJ         -0.361097        -2.05108         1.80052
LJ           -2.2678        0.967864       -0.683829
LJ          -0.78194        -1.93966        -1.59857
LJ          0.224201        -1.51735        -1.11516
LJ          -1.42549        -1.60146          1.8281
LJ           2.41211       -0.437279         0.94215
LJ          0.296479        0.201694         1.18277
LJ          -1.87267       -0.216931        -2.43896
LJ           1.96306         1.50897        -1.89088
LJ           1.76927        0.869499       -0.729887
LJ          -0.61019         1.82572       -0.614066
LJ          -2.11916         1.43532        -1.61639
LJ          -1.59745        -2.33807         1.05113
LJ           2.50981         0.67639        0.650309
LJ          0.589552        -2.51368         2.17548
LJ         -0.790894        -1.07895       -0.154757
LJ          0.753768        -1.41697         2.12701
LJ          -1.75405        0.193094       -0.321468
LJ           1.88131         2.19518          2.0261
LJ           0.51784         -2.4506         1.16904
LJ         -0.741525       -0.929761         2.27706
LJ          0.159457        -2.54855        -1.65123
LJ          -1.54961       -0.444729         1.63659
LJ          -1.24033       0.0996052        -1.53075
LJ         0.0714356        0.484433        -0.64992
LJ          -1.13934         2.38951        0.111313
LJ           1.14567           2.291        -2.12491
LJ          -1.55271          2.3953        -1.45591
LJ         -0.708552         1.68694         -1.7938
LJ          0.720216        0.714223         2.34721
LJ          0.982129        -1.63336        -1.93358
LJ           1.94091       -0.118704       -0.834749
LJ          -1.72733        -1.09965       -0.779404
LJ          -2.43025         1.02888        -2.46772
LJ           2.54325       -0.987794         2.13144
