108
#Comment!
LJ          -2.49703         -2.2891         2.56325
LJ          -1.69239        -1.48614         2.56053
LJ          -2.44795        -1.54613        -1.74835
LJ           -1.7384        -2.43247          -1.811
LJ         -0.768829         2.33567        -2.44181
LJ         -0.134658        -1.45623         2.44565
LJ         -0.853159        -1.46178        -1.93881
LJ          0.117776        -2.42162        -1.88948
LJ           1.03618        -2.46804         -2.5202
LJ           1.64763        -1.52318         2.44878
LJ           1.11213        -1.79691        -1.72534
LJ           1.93962        -2.56129        -1.61718
LJ           2.50612       -0.809225        -2.44747
LJ          -1.83143      -0.0221355         2.26768
LJ           2.54031       0.0869733        -1.60637
LJ           -1.5849       -0.578836        -1.57512
LJ         -0.744181       -0.666591         2.53516
LJ         0.0824941      -0.0158919        -2.35847
LJ         -0.768484       0.0624619        -1.73976
LJ          0.099666       -0.941853        -1.54549
LJ          0.731469       -0.948104        -2.52645
LJ           1.71534        0.100925        -2.43972
LJ           0.87194        0.228887        -1.63713
LJ           1.48803       -0.686955        -1.56377
LJ           2.55524        0.889887        -2.36629
LJ          -1.81091         1.93935         2.47034
LJ          -2.46554         1.69789        -1.55073
LJ          -1.57559        0.680613        -2.08354
LJ         -0.472846        0.853687         2.51987
LJ         0.0457935         1.83166         2.42126
LJ           -1.2324         1.63177        -1.71848
LJ         -0.114667         1.00361        -1.59388
LJ          0.989486         1.02174        -2.48057
LJ           1.78101         1.95805        -2.55228
LJ          0.964858         1.85936        -1.84126
LJ           1.70392         1.12286        -1.81985
LJ          -2.56004        -2.47425       -0.653658
LJ          -1.37461        -1.57807       -0.804518
LJ          -2.24557        -1.62032       0.0382293
LJ          -1.66743         2.48892         0.28015
LJ         -0.729505        -2.51172        -1.04849
LJ         0.0409879        -1.90517       -0.760215
LJ         -0.697418        -1.87371       0.0494463
LJ         0.0426421         2.41486        0.151306
LJ          0.986852        -2.44406       -0.939763
LJ           1.85968         -1.5722       -0.919352
LJ          0.734203        -1.92387        0.191593
LJ           1.67497        -2.51235      -0.0317755
LJ          -2.30754       -0.805723        -0.76655
LJ          -1.84383        0.253272       -0.960512
LJ            -2.427      -0.0477432      0.00508115
LJ          -1.58548       -0.619077       -0.119459
LJ         -0.737599       -0.754261       -0.843361
LJ          0.048398      -0.0832423       -0.891484
LJ         -0.655628      -0.0346423      -0.0176083
LJ         0.0237323        -1.08336       0.0904689
LJ          0.971257        -1.13257       -0.572831
LJ           1.91811       -0.305503       -0.596275
LJ          0.795188        0.055812       0.0462973
LJ           1.91444       -0.977561        0.144615
LJ           2.31012        0.795267       -0.719162
LJ          -1.76763         1.65623        -0.69118
LJ           2.41035         1.59833     -0.00140181
LJ          -1.74033        0.985573        0.112132
LJ         -0.894157        0.833122       -0.948944
LJ        -0.0201497         1.75786       -0.874904
LJ         -0.793094         1.70237       -0.124333
LJ          0.156915        0.972335       -0.155196
LJ           0.86178          1.0188        -1.01256
LJ           1.69288         1.74167       -0.839925
LJ          0.858852         1.82753       -0.172434
LJ           1.69936        0.785931       0.0828978
LJ           2.47538         2.38894        0.738996
LJ          -1.44141        -1.80865         0.87578
LJ           2.43115        -1.48696         1.63496
LJ          -1.88738        -2.40123          1.6038
LJ         -0.780452         2.38781          0.9815
LJ         -0.119156        -1.53089         1.09643
LJ         -0.875862        -1.64261          1.7811
LJ        0.00190709        -2.31445         1.82068
LJ          0.761728         2.43547        0.910849
LJ           1.62898        -1.65032        0.929777
LJ           0.71966        -1.54991         1.67936
LJ            1.6542        -2.54372         1.52927
LJ          -2.37104        -0.75929         0.88852
LJ          -1.81305        0.222622        0.771814
LJ           2.39378       0.0350419         1.69263
LJ          -1.61389         -0.8014         1.63094
LJ         -0.927115       -0.904859        0.893679
LJ         0.0656956       -0.073859        0.914544
LJ          -1.00891      -0.0502312         1.59396
LJ         0.0579776       -0.662956         1.83481
LJ          0.945541       -0.884662        0.469185
LJ           1.70379       -0.193729        0.870959
LJ          0.878506      -0.0554389          1.7487
LJ           1.52678       -0.824265            1.74
LJ           2.29901        0.929987         1.06107
LJ          -1.89123         1.59621         0.97149
LJ           2.41999         1.95637         1.62712
LJ          -1.69991        0.843087         1.61385
LJ         -0.974032        0.880798        0.848228
LJ          0.303892         1.46126        0.725429
LJ          -0.72877         1.47065         1.70817
LJ          0.149674        0.685278         1.63559
LJ           1.17036        0.723635         1.08875
LJ           1.58341         1.75841        0.784666
LJ          0.865057         1.81962         1.64274
LJ           1.77415        0.972986         1.92705
