108
#Comment!
LJ           1.80144       -0.299855        -1.92461
LJ          -1.86848        -1.10876         -1.2998
LJ         -0.198095         2.53929         2.11314
LJ          -1.50321         -1.9585        -2.51582
LJ          -1.42431        0.651831        -1.96075
LJ          -2.26283       -0.374777        -1.97057
LJ            2.3145        -1.27687        -1.71911
LJ           1.90527        0.495659         0.38283
LJ           1.00898         1.24782        -2.10357
LJ           1.93091        -2.36161        0.224759
LJ          -2.29057         2.43219       -0.322832
LJ          -0.85186        -1.54817         1.81493
LJ           1.66088        -1.54204       -0.417655
LJ         -0.529483        0.621796         1.56468
LJ           1.03396         2.30787        0.330802
LJ          -2.46149         1.74413        -1.58711
LJ           1.35907        -1.59724        -1.67902
LJ          0.567233        -1.14357       0.0863695
LJ         -0.924207         1.29128        -1.27908
LJ          -1.58745         2.06404        0.530394
LJ           -1.5389        0.942137        0.967672
LJ         -0.613234         1.69335          1.0616
LJ           1.13769       -0.675181       -0.925202
LJ          0.815044        -2.43471        -1.27918
LJ           1.89978       -0.777414         2.30651
LJ          0.216996        -2.13882          1.2551
LJ           -2.3888        -2.27193        0.805125
LJ          0.503154         -1.5632         2.27115
LJ             1.736        -2.46712         1.32767
LJ           1.91562         1.60595      -0.0839021
LJ          -2.35802        0.367503         1.09265
LJ           2.14296        0.829407        -2.13069
LJ           1.97478         2.12565         2.20332
LJ          -1.60712         2.27401         -1.4225
LJ          0.361103        -1.13765        -1.40139
LJ          0.531672         1.74326         1.07517
LJ           -1.7301         1.83908        -2.36471
LJ         -0.544571         2.43825        -1.12733
LJ           1.98975       -0.555795         1.26512
LJ           1.94847         1.24436        -1.17658
LJ          -2.39306        0.239166        -1.10705
LJ          0.090172         1.23995        -1.37412
LJ          0.967472         1.11201        0.298695
LJ          -1.58754        0.420701         1.92025
LJ           1.83938        0.383514         1.42491
LJ          -1.13586       -0.339899        -1.40119
LJ           1.88269        -2.05119         2.47702
LJ           1.56235         2.12418        -1.86671
LJ           0.58233     -0.00694795       0.0902381
LJ         -0.716655        -1.26907        0.395675
LJ         -0.852734        -1.52863        -1.71851
LJ          -0.68758         1.60442         2.35273
LJ           1.29327        -1.67449        0.818179
LJ         -0.264261      -0.0553398        0.631072
LJ           1.26563        0.479366       -0.555137
LJ          0.920862         2.46399         2.16075
LJ           1.54331         1.57259         1.08161
LJ          -1.68238       -0.949369        -0.12502
LJ         -0.712061       -0.495064       -0.289956
LJ            1.1228       -0.138116         2.08244
LJ          0.552334       0.0775753        -1.94631
LJ          -1.52147         1.54673         1.68827
LJ        -0.0999329       -0.265986        -1.13203
LJ         -0.902499         2.45637        -2.14325
LJ          -2.53904         1.47252         1.01295
LJ          -1.35458        0.443115       -0.629429
LJ         -0.439351        0.511341        -2.55903
LJ           2.21578       -0.636498       -0.774063
LJ          0.215547         2.14178        -2.00221
LJ          0.323861         1.51022         2.02601
LJ          -0.78162         1.15045        0.206026
LJ          -1.77685       -0.697914        0.869965
LJ          -2.38655        -1.75825       -0.575182
LJ          -0.27189        0.484207       -0.373692
LJ           2.19678        -1.66849         1.68586
LJ         -0.150045       -0.891384        -2.39525
LJ       -0.00414325       -0.939219         1.12022
LJ          -2.37079         2.19837         1.64529
LJ           -2.5238      -0.0805195         2.15486
LJ          0.588794        -2.11563        -0.22107
LJ          -2.25333         -1.2097         2.48207
LJ           -2.2993       -0.075365       0.0639129
LJ          -2.39572         -2.2002        -2.00413
LJ         0.0612628        0.922123        0.759841
LJ          -1.17961         1.95386       -0.413901
LJ        -0.0894978        -2.00054         -2.1138
LJ        -0.0460206         2.26103        0.345841
LJ         0.0829299       -0.128141         1.68297
LJ            2.4066        -1.50903         0.39452
LJ           1.16906         1.75974       -0.865466
LJ          -1.91138        -1.89428         1.64928
LJ          -1.21808        0.106654        0.444498
LJ          -1.01711        -2.52826         1.45232
LJ           1.62745       -0.467449        0.295494
LJ           2.00753        -2.51214       -0.839385
LJ           1.38297         1.15123         1.98906
LJ          0.238349         1.45808       -0.242904
LJ          0.999876       -0.921262        -2.24173
LJ         -0.883357       -0.413648         1.33512
LJ          -1.28185       -0.443222        -2.52901
LJ          0.846374         0.43666         1.08758
LJ         -0.977894        -2.23308        0.239109
LJ          -2.15114        0.958539        0.185706
LJ          -1.46284        -1.97621        -0.94897
LJ          -2.46316         1.09958         2.01029
LJ           -0.5179        -1.44274       -0.618868
LJ          -2.02831         1.34603       -0.757395
LJ           1.16611        -1.16622         1.67827
