108
#Comment!
LJ          -1.12525        -1.90544      -0.0162636
LJ           2.09195        0.545885       -0.586746
LJ         -0.148914      -0.0249327      -0.0719479
LJ          -2.28881        -1.88261         1.64514
LJ           1.99943        -2.54543        0.044003
LJ          -0.53144         2.10051        -1.19779
LJ          -2.16043        -1.10405        0.957627
LJ          -2.29837        0.144109         1.63826
LJ           2.42983        -1.42209        -1.86513
LJ          -1.47744        -1.62363        -1.23165
LJ          -1.90234        -2.15532        0.730332
LJ           2.53547        0.928635        -2.39064
LJ          -1.81477         1.81357        -1.76043
LJ           1.80203        0.382074         2.16957
LJ          0.479526        -1.55411        -1.09987
LJ          0.840374         1.56861        -1.80539
LJ         -0.327531       -0.934409         -0.4344
LJ           1.10844       -0.440431       -0.738298
LJ           2.26353        -2.37121         -1.6078
LJ         -0.603539        0.141343        -1.03957
LJ        -0.0688783        -1.53839         2.29306
LJ          -1.60149          1.0849          2.0626
LJ           2.35472         1.20489         1.55325
LJ            2.2767       -0.723448         1.71845
LJ           0.40001        -0.22925        -1.53492
LJ          0.996476         1.97526        0.224295
LJ         -0.417004        -2.22391         1.61441
LJ          -1.28362        0.412916       -0.149384
LJ         -0.192672         1.18806        -2.07055
LJ            2.0564       -0.645363        -0.24551
LJ          0.435317       -0.189311         2.38036
LJ         -0.545857       -0.437658         1.91858
LJ          -1.14057       -0.578002        0.625513
LJ          -1.76256        -1.21586       0.0990008
LJ           2.23599        -2.40527         1.08192
LJ            1.6072        -1.25298         2.46392
LJ          -2.15517       0.0454695       -0.642032
LJ            1.3818        -1.83496        -1.78706
LJ          -0.99975        -1.31325        -2.34457
LJ         -0.809703         2.51357        0.725459
LJ         -0.355839        -2.16189        -1.78584
LJ          -0.12531       -0.588368         0.84717
LJ           2.35523          1.7761         0.47435
LJ          0.490763         1.02078        0.564806
LJ         0.0323364         2.07552        0.476178
LJ          -1.06016         2.22706       -0.224513
LJ          -1.51986       -0.681482        -1.74329
LJ          -0.40914        0.995781         1.98266
LJ           1.25373        0.576951        -1.52754
LJ           1.42974         1.67676         1.34771
LJ          -0.39974        -1.13794        -1.56066
LJ           1.43693        -1.64736        0.464493
LJ         -0.924907         2.10812        -2.36778
LJ          -1.85263        -2.30507        -1.98477
LJ           2.37915        -1.61729        0.244123
LJ           1.50967        -1.60192        -0.62274
LJ          -2.51286        -1.23959       -0.783568
LJ           1.05069        0.716763         1.49199
LJ          -2.46444         2.11141         2.39874
LJ           -1.6234       -0.908817         1.82109
LJ          -1.60906         1.29926        0.546308
LJ          0.493779         2.55638        -1.36481
LJ           1.71796       -0.649907        0.797114
LJ           1.60279         1.45841         2.39093
LJ           1.57422         1.11015        0.361352
LJ          0.751141        -2.15704         2.08151
LJ          -1.77783         0.36786        -2.14491
LJ         -0.773896       0.0898825        -2.06602
LJ           1.42699         1.34191       -0.675899
LJ          0.730443        -1.00232       0.0447637
LJ          0.722767        0.827833         2.48724
LJ           1.88503        0.304129          1.1793
LJ          -2.07741        -1.49009         2.54985
LJ          -1.67683         1.62593       -0.613927
LJ           2.39465         1.88115       -0.854189
LJ         -0.337156        -2.11432       -0.646855
LJ          0.707564        -1.11422        -1.97861
LJ         -0.941973        -1.54856        0.936519
LJ           -2.5074      -0.0676298        0.411133
LJ          0.942682        -0.28093         1.47936
LJ           2.25456        0.159249        -1.70914
LJ           1.90996         1.58484        -1.78394
LJ          -2.23761          -2.342        -0.35787
LJ          0.915587       0.0562629        0.395657
LJ          -1.55884         2.47617         -1.1119
LJ          -1.74884         2.16873         1.52539
LJ          -2.23613        0.856141       -0.143841
LJ          0.552389        -2.20577         1.13119
LJ          0.618128        -2.23384       -0.114105
LJ          0.511744        -1.18778         1.56537
LJ         -0.565509           1.271       -0.155429
LJ           2.01634        -2.16643         2.48386
LJ          0.299903          1.8785         1.47247
LJ         -0.253796        0.351546         1.10346
LJ          0.198808         2.16297         2.42239
LJ          -1.38918        0.499854         1.33844
LJ          -1.26236       -0.597861       -0.773964
LJ          0.276602         1.85322       -0.569398
LJ        -0.0353099        -1.59575        0.476078
LJ            1.1658         2.39734        -2.32487
LJ          -1.37462        -2.11969         2.23403
LJ          0.576877        0.670629       -0.622549
LJ         -0.733347         1.62318         1.19024
LJ           1.67764         -1.5766          1.4463
LJ           1.35534       -0.334197        -2.16978
LJ          -2.28652        0.838535        -1.33053
LJ          -1.23837        0.998966        -1.26488
LJ           2.33643       -0.465707        -2.46464
