108
#Comment!
LJ          -2.51798        -2.36314         2.48434
LJ          -1.65096        -1.49377          2.4718
LJ          -2.29963        -1.48908        -1.83076
LJ          -1.66457        -2.48349        -1.71492
LJ         -0.746547         2.33473        -2.44325
LJ         -0.121142        -1.49251         2.52365
LJ         -0.927827        -1.42488        -1.97329
LJ          0.100697        -2.51251        -1.96829
LJ           0.99923        -2.34046        -2.41095
LJ           1.68026        -1.51949         2.35033
LJ           1.16889        -1.65358        -1.74184
LJ           1.89401        -2.56376        -1.66054
LJ           2.42489       -0.742704        -2.46681
LJ          -1.76775      -0.0820016          2.3052
LJ          -2.55676       0.0230742        -1.69897
LJ          -1.54098       -0.555034        -1.70564
LJ         -0.818024       -0.671519        -2.53832
LJ         0.0980495      -0.0872621        -2.37048
LJ         -0.798986       0.0927703        -1.74091
LJ          0.153048       -0.947941        -1.58334
LJ          0.758212        -1.02186        -2.53224
LJ           1.66631       0.0379337        -2.38166
LJ          0.937308        0.183308        -1.64985
LJ           1.51687       -0.583975        -1.53076
LJ          -2.46513        0.848054        -2.43668
LJ          -1.80591         2.05135         2.42752
LJ          -2.52285         1.71186        -1.59479
LJ          -1.53525        0.697752        -2.07954
LJ         -0.556597        0.820817         2.51719
LJ         0.0271616         1.70888         2.37069
LJ          -1.27101         1.71347        -1.67312
LJ         0.0116338         1.07598        -1.66753
LJ          0.979575         0.94478        -2.54744
LJ           1.74764         1.91165         2.46934
LJ          0.926914         1.85593        -1.76141
LJ           1.72392         1.01144         -1.8295
LJ          -2.55538        -2.47835       -0.735968
LJ           -1.3619        -1.67976        -0.97142
LJ          -2.33789        -1.57429       -0.126407
LJ          -1.64705         2.39604        0.159889
LJ         -0.732425        -2.52381        -1.02149
LJ         0.0701756        -1.83692       -0.686054
LJ         -0.754495        -1.84398       0.0529325
LJ        -0.0297386         2.38168        0.237415
LJ          0.869603        -2.52767        -1.05558
LJ           1.91763        -1.57928       -0.907421
LJ          0.810372        -1.90048        0.225903
LJ           1.76793        -2.53075       0.0917019
LJ          -2.41704       -0.735584       -0.716272
LJ          -1.84678         0.21869       -0.895551
LJ          -2.32437       0.0148905      -0.0585629
LJ          -1.51856       -0.674134      -0.0570721
LJ         -0.671706       -0.798996       -0.748843
LJ        -0.0291707       0.0108343       -0.983826
LJ         -0.671221       -0.128451       0.0149498
LJ         0.0107786       -0.994655        0.192924
LJ           0.97252        -1.05216       -0.719718
LJ           1.88491       -0.283194       -0.662275
LJ          0.791493        0.111584       0.0457017
LJ           1.88996        -1.04966       0.0864235
LJ           2.38429          0.8027       -0.750256
LJ          -1.82145         1.74769       -0.634964
LJ           2.47797         1.77925      -0.0471151
LJ           -1.7231        0.938536        0.198267
LJ         -0.986401        0.777141       -0.975058
LJ         0.0254685         1.72504       -0.778071
LJ         -0.739045         1.64859       -0.157046
LJ         0.0835462         0.85579       -0.124273
LJ           0.85466         1.04152       -0.965949
LJ           1.61131         1.69046       -0.786485
LJ           0.86859          1.8083       -0.133983
LJ           1.64005        0.797154       0.0635909
LJ            2.4799         2.45202        0.738976
LJ          -1.44285        -1.81414        0.816342
LJ           2.48535        -1.51252          1.6321
LJ          -1.83902        -2.39552         1.65947
LJ         -0.875239          2.4659        0.957136
LJ        -0.0379352        -1.50824         1.06685
LJ         -0.877221        -1.65689         1.76059
LJ        -0.0467962        -2.28114         1.76402
LJ          0.742836         2.38091        0.854239
LJ           1.66086        -1.62483        0.932606
LJ          0.789275        -1.61263         1.61131
LJ           1.72054         -2.4982         1.58494
LJ           -2.3934       -0.871834        0.801552
LJ          -1.69569        0.146874        0.842261
LJ           2.36711       0.0231002         1.66351
LJ          -1.65067        -0.87441         1.57193
LJ         -0.872038       -0.859636         0.98379
LJ          0.128782       -0.105585        0.853644
LJ         -0.913149     -0.00592359         1.73039
LJ         0.0457855        -0.74715         1.76536
LJ           1.00224       -0.867634          0.5542
LJ           1.74823       -0.256179        0.835008
LJ          0.850525      -0.0119333         1.73896
LJ           1.51608       -0.701039         1.76669
LJ           2.29423        0.907025         1.11924
LJ            -1.827         1.65828         0.93484
LJ           2.44353         1.83901         1.58799
LJ          -1.72934        0.832337         1.71843
LJ         -0.932022        0.902178        0.844058
LJ          0.378425         1.34801        0.785074
LJ         -0.652118         1.52031         1.71984
LJ          0.098645          0.7712         1.64621
LJ            1.0162        0.688124        0.968515
LJ           1.59103         1.78778        0.680864
LJ          0.935228         1.78509           1.678
LJ           1.79945         1.01508         1.95227
