108
#Comment!
LJ           2.55955        -2.27935         2.52473
LJ          -1.68552        -1.44373         2.51389
LJ          -2.32089        -1.53913         -1.7957
LJ          -1.72268        -2.47359        -1.69306
LJ         -0.776534         2.39146        -2.44172
LJ         -0.141403        -1.44012         2.49159
LJ         -0.916908        -1.42273        -1.94555
LJ         0.0866329        -2.51636        -1.94448
LJ           0.96255        -2.38459        -2.42414
LJ           1.65481        -1.56787         2.40248
LJ           1.15514        -1.68501        -1.72275
LJ           1.87907        -2.53795        -1.63166
LJ           2.47315       -0.731541        -2.41259
LJ          -1.87457      -0.0780559         2.33578
LJ           2.51736      -0.0132894        -1.63979
LJ          -1.59651       -0.460509        -1.68778
LJ         -0.794678       -0.615491        -2.52689
LJ          0.239011      -0.0508021        -2.25639
LJ          -0.75563       0.0649826        -1.73097
LJ          0.146121       -0.916774         -1.5506
LJ          0.775844       -0.992794        -2.49064
LJ           1.70566       0.0396466        -2.41225
LJ          0.869943        0.265889        -1.62493
LJ           1.48884       -0.620482        -1.60234
LJ          -2.52268        0.881109        -2.41841
LJ          -1.80664         2.01502         2.42416
LJ          -2.55818         1.75221        -1.55792
LJ          -1.60283        0.627019        -2.12005
LJ         -0.543978        0.840958         2.50118
LJ         0.0842228         1.79274         2.46394
LJ          -1.27433         1.71328        -1.64959
LJ        -0.0465364         1.05743         -1.6176
LJ          0.950577        0.957105        -2.53853
LJ           1.71066          1.8833         2.54249
LJ          0.912706         1.84158        -1.80214
LJ           1.71765        0.998976        -1.81556
LJ           2.54132        -2.55809       -0.729903
LJ          -1.40959        -1.66896       -0.848268
LJ          -2.23643        -1.58199       -0.071336
LJ          -1.68819         2.42393        0.225539
LJ         -0.715545        -2.52101        -1.05453
LJ         0.0429474        -1.90757       -0.638763
LJ         -0.691548        -1.80712      -0.0218858
LJ        -0.0329199         2.30594        0.178631
LJ           0.94805        -2.49672        -1.01201
LJ           1.84282        -1.55104       -0.937649
LJ          0.784189        -1.97278        0.211835
LJ           1.73949        -2.53793       0.0991188
LJ           -2.3514       -0.769397       -0.806827
LJ          -1.89396        0.247348       -0.955338
LJ          -2.39383      -0.0285092     -0.00524808
LJ          -1.55485       -0.649261       -0.130312
LJ         -0.709989        -0.69114       -0.770215
LJ         0.0491628      -0.0856149       -0.945461
LJ         -0.685065       -0.127935      -0.0202662
LJ         0.0481179        -1.04279         0.15432
LJ          0.942711        -1.08069        -0.64903
LJ           1.88858        -0.26282       -0.646186
LJ          0.753509        0.100975       0.0147836
LJ           1.91429        -1.02449       0.0807437
LJ           2.38783        0.815322       -0.790998
LJ          -1.79443         1.64432       -0.683619
LJ           2.41718         1.67594    -0.000176935
LJ           -1.7874        0.940804        0.137759
LJ         -0.960577        0.779363        -1.02684
LJ        0.00296937         1.76361       -0.848318
LJ         -0.718439         1.68053       -0.112079
LJ         0.0680733         0.90522       -0.115759
LJ          0.869532         1.03493       -0.987025
LJ           1.67175         1.75594       -0.784221
LJ          0.870773         1.81971        -0.11805
LJ           1.74394        0.816216        0.113285
LJ           2.46967         2.44269        0.712747
LJ          -1.44287         -1.8368        0.835514
LJ           2.49895        -1.53373         1.64127
LJ          -1.87296        -2.41176          1.6682
LJ         -0.838894         2.45925        0.934516
LJ        -0.0669131        -1.53762          1.0822
LJ         -0.891888          -1.609         1.74825
LJ         0.0191353        -2.28763         1.76693
LJ          0.792229          2.4498        0.876421
LJ           1.65676        -1.65477        0.994135
LJ          0.790778        -1.55494         1.65344
LJ           1.71321        -2.50474         1.58158
LJ          -2.42675       -0.821707        0.780217
LJ          -1.82507        0.177688        0.783655
LJ           2.38988     0.000279998         1.68063
LJ           -1.6536       -0.836122         1.65997
LJ         -0.839907       -0.890441        0.914838
LJ          0.167996      -0.0387474        0.871886
LJ         -0.912385      -0.0600635         1.75722
LJ         0.0213195       -0.731978         1.75547
LJ           1.00107       -0.934356         0.45681
LJ           1.77445       -0.224487        0.822077
LJ          0.950415      0.00575341         1.73163
LJ           1.56456       -0.757818         1.70865
LJ           2.32954        0.897016         1.06261
LJ          -1.89138         1.62399        0.879354
LJ           2.44179         1.88237         1.58334
LJ          -1.71157        0.879783         1.63751
LJ         -0.924542        0.942042        0.841788
LJ          0.339783         1.41971        0.794346
LJ         -0.693504         1.47976         1.68216
LJ         0.0965332        0.661049         1.66303
LJ           1.06683          0.7392         1.04868
LJ           1.58612         1.75405        0.751627
LJ          0.922619         1.83678         1.60844
LJ            1.8706        0.981274         2.02194
