108
#Comment!
LJ            2.4918        -2.54143         2.52386
LJ          -1.65966        -1.85114         2.54024
LJ           2.53329        -1.73309        -1.61996
LJ          -1.88983         2.54634        -1.79387
LJ         -0.896379         2.55891          2.3503
LJ         -0.180868        -1.87733        -2.54238
LJ         -0.925634        -1.51567        -1.69931
LJ           0.14049         2.39426        -1.72283
LJ          0.874419         2.54451        -2.40787
LJ           1.67998        -1.69024         2.55373
LJ          0.792129        -1.55045        -1.57081
LJ           1.89113         -2.4378        -1.61064
LJ           2.48357       -0.868142        -2.53852
LJ             -1.65        0.153513         2.49584
LJ          -2.51287         0.18316        -1.83628
LJ           -1.8638       -0.816194        -1.52114
LJ          -1.10808        -0.97477         2.53664
LJ        0.00345216      -0.0699049         2.55262
LJ         -0.835335         0.15645        -1.80555
LJ         0.0672319       -0.817882        -1.77296
LJ          0.939895        -1.02869        -2.53493
LJ           1.69107        0.194548         2.50877
LJ          0.712856        0.167724        -1.61466
LJ           1.59036       -0.869393        -1.76239
LJ          -2.51238         0.97331          2.4745
LJ          -1.77637         1.89537          2.4801
LJ          -2.56328         1.59476        -1.81937
LJ          -1.66495        0.922926        -1.76984
LJ         -0.667188        0.997243         2.26592
LJ          0.119162         1.70929         2.35654
LJ         -0.801816         1.61707        -1.68531
LJ        -0.0932453        0.837494        -1.74121
LJ          0.720255        0.854719        -2.44743
LJ           1.79295         1.90266        -2.54501
LJ          0.996167         1.76493         -1.5388
LJ           1.76097        0.805761        -1.72291
LJ          -2.45207        -2.55666       -0.829315
LJ          -1.54185        -1.75228       -0.618396
LJ          -2.55651        -1.79683      -0.0398776
LJ          -1.73264         2.43129      -0.0251274
LJ         -0.749951         2.49512       -0.828847
LJ         0.0198167        -1.66164       -0.852511
LJ          -0.78177        -1.77684        0.135596
LJ         -0.212999         2.36898      -0.0137907
LJ           1.01281        -2.51909       -0.926163
LJ            1.6371         -1.6605       -0.785115
LJ          0.655233        -1.89122        0.036857
LJ           1.68705        -2.40105       -0.085097
LJ           2.54964       -0.875029       -0.769101
LJ          -1.85834        0.145743       -0.760602
LJ          -2.54392     -0.00163279       0.0170291
LJ           -1.7259       -0.709672      -0.0599301
LJ         -0.862266       -0.747803       -0.870722
LJ         0.0110871        0.058361       -0.811227
LJ          -0.83118      -0.0238146     -0.00738706
LJ         -0.148818       -0.701775       -0.118351
LJ          0.760333        -0.87537        -0.80452
LJ           1.83363      -0.0741313         -0.8353
LJ          0.867498       0.0421903      -0.0859533
LJ           1.76767       -0.960037      -0.0447982
LJ          -2.47811          1.1254       -0.790779
LJ          -1.68093         1.74032       -0.997924
LJ           2.55554         1.69018       0.0916779
LJ          -1.88324          0.9217        0.104973
LJ         -0.921063        0.782393       -0.864176
LJ       -0.00569424          1.7248       -0.857042
LJ         -0.928099         1.57867       -0.211932
LJ        -0.0601962         1.01541      -0.0344249
LJ          0.754495        0.944246       -0.810072
LJ           1.92672         1.77724       -0.924528
LJ          0.830752         1.92324        -0.11572
LJ           1.77729        0.889954       -0.086689
LJ           2.48578         2.53158         0.99763
LJ          -1.51842        -1.80734         1.00454
LJ           2.48123        -1.54175         1.77092
LJ          -1.92656         2.45176         1.69002
LJ         -0.789885         2.50857        0.770221
LJ         0.0860629        -1.69505        0.894599
LJ          -0.94598        -1.69304         1.80211
LJ         0.0544212        -2.52005         1.75467
LJ           1.12355        -2.49845         1.00508
LJ           1.89528        -1.57675        0.858224
LJ          0.809997        -1.68886         1.67908
LJ           1.62175         -2.5013         1.82213
LJ           2.50182       -0.691671        0.887003
LJ           -1.8497       0.0236141        0.911818
LJ          -2.56356      0.00737424         1.90648
LJ          -1.73779       -0.817858         1.66041
LJ         -0.677489       -0.833064        0.788485
LJ        0.00410229        -0.11916        0.841946
LJ          -0.79945       0.0752328         1.82283
LJ         0.0554081       -0.941165         1.56643
LJ          0.885159       -0.896134        0.897661
LJ           1.55603       0.0365965        0.623606
LJ           0.77385      -0.0438512         1.88537
LJ           1.76258       -0.865867         1.69981
LJ           2.41229        0.691848        0.760012
LJ          -1.51695         1.86126        0.825892
LJ           2.50304         1.71102         1.72971
LJ          -1.60013         0.72873         1.65314
LJ         -0.890641        0.629821        0.820776
LJ        -0.0277333         1.71989        0.834822
LJ         -0.807201         1.73836         1.43328
LJ         0.0162523        0.882078         1.58687
LJ          0.854795        0.904263        0.984358
LJ           1.80541         1.71287        0.836016
LJ           1.00024         1.74113         1.86599
LJ           1.66001        0.917922         1.65036
