108
#Comment!
LJ         -0.193795         -1.8029        -2.43127
LJ           2.24051        0.136429        0.151846
LJ         -0.822439         1.12296      -0.0692607
LJ          -2.03998         2.36945         2.44045
LJ           2.17339        -2.17165        -1.17096
LJ         -0.513214         1.44456         2.16434
LJ          -1.37227        0.277465        0.733087
LJ          -1.43092       -0.432712         2.31012
LJ          -1.05597        -2.45127        -1.30162
LJ         0.0803467        -2.48602        -1.51741
LJ          -2.33626       -0.748339       -0.128037
LJ          -1.37309        0.493504        -2.47639
LJ          -1.10799         2.30216       -0.350678
LJ          -2.31042         1.24726         2.43494
LJ           1.64267        -1.53648         -1.8421
LJ           1.87411         1.17241        0.747276
LJ          0.328332          2.1575       -0.417176
LJ          0.593118       -0.352377       -0.901835
LJ           2.54547         1.89087        -1.89777
LJ         -0.454256       -0.235765        -1.39351
LJ          0.527277         -1.5079        -1.54874
LJ          -1.84245        0.710586         1.48367
LJ          -1.99291        0.930095        -1.80281
LJ           0.89804        0.395889         2.10356
LJ          0.537551        0.208332        -1.87117
LJ           2.08074         2.07954       0.0874151
LJ           1.06507        -2.38505         1.27998
LJ          -1.30325       -0.723273       -0.705086
LJ          0.549914         1.23093        -2.47964
LJ           1.25222        -1.35915       -0.889342
LJ          0.668919        0.869898         1.13319
LJ         -0.945796         1.31524         1.25699
LJ          -1.17721        -1.80749       -0.558069
LJ          -1.80258         0.22231       -0.522405
LJ            2.0842          2.4521         1.27545
LJ           2.22471       0.0859786         2.24253
LJ          -2.16507        -1.64062       -0.822808
LJ           2.00776        -1.61914           1.692
LJ          -1.79286        -1.57771         2.26328
LJ        -0.0289601        -1.38546        0.738063
LJ          -1.21468        -1.63517         1.25691
LJ          -0.77723        -0.67697         1.54347
LJ          -1.98486         2.46368        0.395442
LJ           1.13123         1.89899        0.691994
LJ           1.32079        -2.32385       -0.228372
LJ        -0.0106985        -1.75819       -0.656256
LJ         -0.801721        -1.51337        -1.45403
LJ           1.21036          1.6663         1.85425
LJ           1.50283       0.0588709       -0.526615
LJ           2.04108          1.1179         1.72697
LJ         0.0718562       -0.244575         2.08624
LJ           2.38832        -1.93995       0.0175574
LJ          -1.48083         1.50826         2.11109
LJ          -1.30281         1.72791        -1.84367
LJ          -1.95396         -1.5854        0.511619
LJ           -2.1227        -2.18198        -1.85002
LJ          -2.31799         2.42554       -0.555929
LJ         -0.177643        0.140592      -0.0404959
LJ           2.03404       -0.847209         1.02193
LJ         -0.889217        0.360127         1.66817
LJ           0.41847        -2.25642        0.556073
LJ           2.11614        -2.18491        -2.48093
LJ           1.47332        0.207755         1.22092
LJ           2.50437         0.72584       -0.914954
LJ          -2.20292         1.69967         1.10217
LJ          0.924533        -1.25109         1.38554
LJ         -0.584664       -0.684355        -2.42874
LJ          -0.33239        0.948403        -2.06195
LJ           2.14296          1.6662       -0.964671
LJ          0.430367        0.648583       -0.931944
LJ           1.41975         1.88293        -1.85873
LJ           1.71198       -0.777322      -0.0837584
LJ          -2.52848       0.0738043         1.12208
LJ          -0.27604         1.99029        0.556736
LJ          -1.82391          1.4501       -0.918091
LJ           1.21755         1.59672       -0.427386
LJ          0.533507       -0.832517        -2.30079
LJ          -1.07199        -0.88275        0.585542
LJ          -1.94133       -0.835308         1.20833
LJ           2.36978        -0.88462        -2.49872
LJ           2.19664       -0.773307         -1.1323
LJ          -1.51831      -0.0365053        -1.48402
LJ         -0.933473        -2.17349        0.457812
LJ          0.958082       -0.231893        0.472117
LJ          0.596547          1.4973        -1.39462
LJ         -0.931375        -2.54975        -2.47973
LJ           2.54274         1.14344      -0.0764081
LJ          0.987903        -1.39116        0.323283
LJ           1.06218        -2.54192        -1.22822
LJ        -0.0964728       0.0854515          1.0306
LJ         -0.937875         2.28289         1.63253
LJ           2.08883          1.9848         2.28022
LJ          0.633165         2.38509        -2.51692
LJ          0.170253         2.06949         1.70057
LJ           1.08462        -1.74324         2.51901
LJ          -1.61492         1.32534        0.402431
LJ         -0.957337         0.76703        -1.28569
LJ          0.306074         1.16161         0.12717
LJ        -0.0519977       -0.886679       -0.268984
LJ           1.51223       -0.461619        -1.90589
LJ          -1.92058        -2.42821          1.4679
LJ           1.48429        0.698671        -1.46568
LJ        -0.0404298        -2.12387         1.45449
LJ           1.52925       -0.679345         2.09448
LJ           2.45097        0.051908        -1.85814
LJ           1.83724        0.988771        -2.37867
LJ         -0.481456         1.75406       -0.945222
LJ          -1.72041        -1.19793        -1.67069
