108
#Comment!
LJ         -0.652036         1.68211         1.53561
LJ           1.51372           1.234        -1.43529
LJ           -1.8685        0.890409        -2.24522
LJ         -0.313904         2.17479        0.392017
LJ          -1.16402        -1.14569        0.522073
LJ           -2.1788        -2.23768        -2.00286
LJ           2.01978       -0.191259         1.07724
LJ           1.14525        0.415241        0.517857
LJ            1.9804        -2.24826        0.557431
LJ          0.369026         1.16948         1.07125
LJ            1.7326        -0.78983        -1.15203
LJ          -1.76849       -0.794951         1.30288
LJ          -2.36654        -1.73044         1.01249
LJ           1.08949       -0.411883       -0.309165
LJ           2.14107        -0.18867      -0.0489375
LJ          0.171546         1.86842       -0.639079
LJ           0.27614        -1.66809         1.96505
LJ            1.4054        0.849148         1.50577
LJ           1.57243        -1.38349        -2.30251
LJ          -2.36964         1.38233         1.35668
LJ         -0.352715       -0.875688        -1.52703
LJ          0.703057         1.70285        -1.76305
LJ           2.49064         2.11469       0.0967741
LJ           1.67195         2.53254        -1.63094
LJ          -0.38504       -0.864869      -0.0138341
LJ          -2.29699        -1.53916      0.00993745
LJ          0.183965        -1.73363        -1.61985
LJ        -0.0517648        -1.07642        0.966211
LJ          0.432976       -0.975096       -0.897087
LJ         -0.716474       -0.654152          1.7703
LJ         -0.920668        -1.75419        -1.38794
LJ           2.41853         1.85501        -1.75304
LJ         -0.119114        -1.90516        0.429227
LJ           1.40897         0.74994       -0.446251
LJ          -1.02012         2.41424         2.18468
LJ          0.970966        -2.23485        0.256124
LJ           -1.7479        -1.19474        -1.85188
LJ          -0.78888         1.40762        -1.57931
LJ          -2.31984        -0.71779        -1.09969
LJ           -2.0726       -0.437168        0.407279
LJ           1.03991       0.0451424        -1.42497
LJ          -1.29543         2.37331         -1.7535
LJ          -1.98681         2.00098        -2.54478
LJ         -0.482652        0.521681         1.42007
LJ          0.450125      -0.0762886         1.54256
LJ           1.48703         1.40178        -2.50525
LJ          0.767393        -0.75394        -1.94317
LJ         -0.878257       -0.216958        0.750145
LJ           1.20112       -0.707858        0.768303
LJ          0.638932        -1.29106        0.159772
LJ         -0.166412       -0.743813         2.56471
LJ          0.956253        -1.69524         1.14063
LJ           1.97109         1.23904        0.575551
LJ          -1.55515        0.751636       -0.841141
LJ          -2.07371         1.68967       -0.674224
LJ           1.26909          1.9736       -0.592764
LJ          0.045068         2.50534        -2.44242
LJ          -2.04979         1.13699        0.280624
LJ          0.852297         1.75326          1.8358
LJ        -0.0362585        0.491962        -2.06511
LJ          -1.78461        -2.48444       0.0296436
LJ           0.69457         1.87181        0.412607
LJ          -1.07825         1.89967        -0.55027
LJ          -2.09301         2.35389         1.21324
LJ          -1.17179        -1.33435       -0.508387
LJ           1.13037        -2.23859          2.2513
LJ           2.00429         2.21053          2.4417
LJ           2.30319        0.320508        -1.16205
LJ         -0.624777        -1.83903        -2.52603
LJ          0.485757        0.962161        -1.20331
LJ           2.04819        0.659511        -2.04651
LJ          -1.42806         1.68938        0.719424
LJ           1.30521        -1.86665       -0.818406
LJ          -1.75219         -1.6602         2.06007
LJ         -0.784936        -2.25787       -0.380444
LJ         -0.988531       -0.064166        -2.40064
LJ          -1.81757        -1.95486       -0.971239
LJ          0.954309        -0.86992         2.00371
LJ           0.26918        0.943707      -0.0479219
LJ          -1.15844        -2.54365         1.12548
LJ         -0.772184        -1.81632         1.56552
LJ         0.0327736       0.0399529        -0.79662
LJ          -2.56126         -1.2718        -2.44873
LJ            1.5429      -0.0203705           2.019
LJ          0.859327        0.629269        -2.45176
LJ         -0.498678        0.900436       -0.774364
LJ           2.46735        0.531616         2.06207
LJ           2.27725        -2.07923         1.88355
LJ          -2.47612       -0.453538         1.97738
LJ         -0.881847       0.0341178       -0.207061
LJ           -1.1895       -0.150929        -1.29921
LJ         0.0637056        -2.56437         1.36111
LJ          -1.12976         1.12383          2.2689
LJ         -0.841828        0.838797        0.468583
LJ          0.708753        -2.53164        -1.24489
LJ          -2.12708        0.444539         1.04982
LJ           0.17743        -1.93067       -0.497971
LJ           2.52768        -2.44923       -0.619453
LJ           1.97635          2.1126         1.20485
LJ        -0.0974969          1.3932         2.55199
LJ           2.10855          -1.116         1.47722
LJ          -2.15168       -0.141211        -2.18285
LJ         -0.320675         2.46569        -1.39735
LJ           2.23745        -1.56891         -1.4189
LJ          -1.53321        0.120523         1.97667
LJ           1.90223       -0.380546        -2.15243
LJ            1.7972        -1.29914        0.123616
LJ          0.223775       -0.138953        0.378699
