108
#Comment!
LJ           2.54199        -2.55481         2.47837
LJ          -1.80524         -1.7306         2.47802
LJ          -2.52489        -1.69764           -1.63
LJ          -1.77728        -2.37975        -1.75307
LJ         -0.873114         2.48031         2.53546
LJ         0.0437213        -1.98787        -2.55714
LJ         -0.899698        -1.52774        -1.55419
LJ          0.110142         2.30235        -1.68488
LJ          0.994411         2.34405        -2.38067
LJ           1.81934        -1.69985        -2.56347
LJ           1.00419        -1.81835        -1.69579
LJ           1.95573        -2.50803        -1.50422
LJ           2.51808       -0.838594         2.54521
LJ          -1.77214       0.0630286         -2.5347
LJ          -2.45508        0.191069        -1.79215
LJ          -1.64624       -0.515455        -1.41998
LJ          -1.16366       -0.892305        -2.47406
LJ          -0.11412       -0.243404        -2.43823
LJ         -0.841546        0.104038        -1.77792
LJ         -0.112796       -0.992841         -1.8079
LJ          0.957449        -1.07501        -2.45503
LJ           1.67631       0.0603832        -2.55661
LJ          0.802336      -0.0921548        -1.57299
LJ           1.73093       -0.856537        -1.73755
LJ          -2.46062         1.05824         2.36489
LJ          -1.75342         1.80779        -2.55361
LJ          -2.52088         1.70966        -1.63468
LJ          -1.49676        0.870043         -1.7171
LJ         -0.729072         1.09342        -2.50709
LJ          0.119638          1.8281         2.50047
LJ         -0.715109         1.79647        -1.77545
LJ         0.0916136        0.879554        -1.83985
LJ          0.881214        0.805813        -2.46334
LJ           1.78797         1.81643         2.42581
LJ          0.942585         1.65927        -1.59206
LJ           1.81809        0.788871        -1.74789
LJ           -2.5499         2.42925       -0.750581
LJ          -1.48449        -1.90756       -0.714796
LJ          -2.45619        -1.74705        -0.15507
LJ          -1.68659         2.48579      -0.0758649
LJ         -0.672762        -2.47974       -0.986944
LJ         0.0278249        -1.67592       -0.871607
LJ         -0.542481        -1.80233        0.037807
LJ         -0.209018          2.3466        0.111018
LJ          0.838103         -2.5192       -0.896603
LJ           1.72985        -1.70008       -0.846073
LJ          0.648713        -2.00389        0.143422
LJ           1.63474        -2.36387      0.00835506
LJ          -2.41289       -0.950991       -0.738346
LJ          -1.91019       0.0835832       -0.641743
LJ           2.37816        0.062772       -0.014576
LJ          -1.62954       -0.863659         0.02779
LJ         -0.611212       -0.801421       -0.797978
LJ         0.0391667        0.174256       -0.872304
LJ         -0.818887      -0.0432994      -0.0842751
LJ         0.0424218       -0.804227         0.23967
LJ          0.843154       -0.845679       -0.715503
LJ           1.85788       -0.142967       -0.870504
LJ          0.817924       0.0297767       -0.113867
LJ           1.71471       -0.861142       -0.129258
LJ          -2.46759        0.947777       -0.961384
LJ          -1.61812         1.73067        -1.03896
LJ           2.50114         1.65573       0.0718293
LJ          -1.97174        0.892601       0.0856081
LJ         -0.893545        0.727057       -0.896095
LJ         -0.107405         1.52624       -0.775175
LJ         -0.892144         1.46003      -0.0370884
LJ         0.0647103        0.944543        0.156239
LJ          0.794457         1.01817       -0.660154
LJ           1.74029         1.61972        -0.88685
LJ          0.808152           1.971        0.029795
LJ           1.75387         0.84245       -0.143444
LJ           2.52097        -2.51127        0.779551
LJ          -1.51641        -1.73781        0.709047
LJ           2.51418        -1.46554         1.68587
LJ          -1.90803         2.47855         1.56669
LJ         -0.774215        -2.46076         1.09188
LJ          0.121918        -1.55539        0.918374
LJ         -0.847457        -1.65431          1.7245
LJ           0.11833        -2.41685         1.69414
LJ           1.02376         2.51492        0.885655
LJ           1.90713        -1.56118        0.677817
LJ          0.909015         -1.7654         1.75789
LJ           1.61245        -2.52931         1.77205
LJ            2.4596       -0.642054         1.02431
LJ          -1.82018       -0.012038         0.78182
LJ           2.45687       0.0439036         1.91695
LJ          -1.68704       -0.965004         1.51231
LJ         -0.730897       -0.904617         1.02133
LJ         0.0630647      -0.0525672        0.953149
LJ         -0.871759         0.15339         2.12801
LJ          0.145889       -0.981654         1.71827
LJ            1.0042       -0.875711        0.797575
LJ           1.64139       -0.145002        0.603404
LJ          0.715425      -0.0463333         1.86278
LJ            1.5564       -0.884416         1.66103
LJ           2.48661        0.622363         0.88818
LJ          -1.44298         1.92947        0.727876
LJ           2.46735         1.56341         1.52602
LJ          -1.59394        0.915563         1.57711
LJ         -0.926571        0.672054        0.843394
LJ          0.125339          1.5462        0.853619
LJ         -0.788948         1.63712         1.51482
LJ        -0.0338842        0.931334         1.55359
LJ          0.809492         0.65594         0.91573
LJ           1.70147         1.71188         0.75919
LJ          0.867564         1.59567         1.75187
LJ           1.75681        0.708476         1.71364
