108
#Comment!
LJ           2.54692        -2.49301         2.56382
LJ          -1.75767        -1.70134         2.40903
LJ            2.5589        -1.76666         -1.7734
LJ           -1.7919          2.5334         -1.5999
LJ          -0.84845         2.49963        -2.49286
LJ        0.00162301        -2.04295        -2.53605
LJ          -1.21637        -1.50272        -1.72345
LJ         0.0146395         2.20109        -1.79709
LJ          0.871243         2.54712         2.48392
LJ           1.78255        -1.70536         -2.4817
LJ          0.824223        -1.88745        -1.77256
LJ           1.84775         2.53093        -1.74082
LJ           2.51662       -0.935677         2.54974
LJ           -1.8348        0.033419         2.54753
LJ           2.48167         0.13078        -1.97381
LJ          -1.79259       -0.546007        -1.65406
LJ          -1.19582       -0.753721        -2.43318
LJ        0.00982333       -0.246707        -2.46897
LJ         -0.736326       0.0190569        -1.81445
LJ         -0.135449        -1.15888        -1.86984
LJ          0.881053        -1.22765        -2.49516
LJ           1.73473       0.0246428         2.49483
LJ          0.913679       0.0672769        -1.77553
LJ           1.67902       -0.649944        -1.73726
LJ          -2.52447          0.9548         2.43046
LJ          -1.70508          1.9291         2.44903
LJ          -2.41484         1.63872        -1.62127
LJ            -1.612        0.772728        -1.81825
LJ           -0.6226         1.00009         2.48275
LJ          0.170827         1.72691         2.46076
LJ           -1.0143         1.64447        -1.79001
LJ         0.0660168         1.04988        -1.80523
LJ           0.93673         0.83329         2.45995
LJ           1.82291         1.86408          2.5076
LJ          0.885502         1.84897        -1.61769
LJ           1.58469        0.982786        -1.69186
LJ           2.46752         2.35798       -0.740012
LJ          -1.44399        -1.69697       -0.764403
LJ          -2.48898        -1.92893      -0.0864074
LJ            -1.629         2.49437      0.00666466
LJ         -0.828171         2.56207        -1.02002
LJ          0.157574        -1.68668       -0.947442
LJ         -0.654318        -1.84682      0.00606544
LJ         -0.207463         2.39099       0.0957273
LJ          0.830275        -2.43419       -0.939972
LJ           1.84962        -1.76216       -0.938106
LJ          0.779287        -2.01455        0.208455
LJ           1.69056        -2.41558      -0.0343098
LJ          -2.53969       -0.942217       -0.711019
LJ          -1.85608        0.182061       -0.813655
LJ          -2.49463       0.0934369        0.034097
LJ          -1.78206       -0.927887       0.0628024
LJ         -0.577866       -0.849085       -0.715275
LJ         -0.109254        0.343635       -0.942363
LJ         -0.662131      -0.0231691     -0.00236374
LJ         0.0776343       -0.813847        0.315824
LJ          0.769305       -0.985075       -0.614277
LJ           1.99814       -0.153498       -0.715032
LJ           0.71715       0.0144986      -0.0413012
LJ           1.71117        -1.12816       -0.124326
LJ           2.51942        0.984719       -0.880459
LJ           -1.5396         1.84998       -0.780613
LJ           2.41886         1.70617      -0.0323594
LJ           -1.9087         1.13562        0.183868
LJ          -1.04607        0.770286       -0.914343
LJ          0.173629         1.81936       -0.850397
LJ         -0.734304         1.58546       -0.112472
LJ         0.0895585        0.890272      -0.0776663
LJ          0.755441         1.00551       -0.793771
LJ           1.67728         1.72238       -0.864348
LJ          0.743662         2.05338      -0.0308767
LJ           1.76721        0.843406       -0.159547
LJ           2.36889         2.26749        0.787322
LJ          -1.38766         -1.8723        0.649207
LJ            2.4997        -1.54773         1.70984
LJ          -2.00758        -2.36842          1.4792
LJ          -0.58222         2.47578          1.1312
LJ          0.089186        -1.58782        0.954929
LJ         -0.922221        -1.88335          1.7839
LJ         0.0889634        -2.30794         1.71391
LJ          0.828195         2.34827        0.950839
LJ           1.98323         -1.6295        0.727428
LJ          0.968376        -1.77245         1.75393
LJ           1.63095         2.55813         1.64007
LJ           2.47771       -0.686237        0.937128
LJ          -1.78245       0.0583293        0.827353
LJ           2.51077     -0.00767131         1.75336
LJ          -1.89069       -0.745317          1.7351
LJ         -0.744856       -0.893159         1.01646
LJ         0.0247255       -0.164276         1.05994
LJ         -0.914742        0.201181         1.93193
LJ           0.22174          -1.007           1.855
LJ           1.10296        -1.00784        0.676082
LJ           1.57919       -0.119829        0.770625
LJ          0.846959       -0.053885         1.91673
LJ           1.57159       -0.846698           1.874
LJ           2.34662        0.863653        0.838425
LJ          -1.44154         1.92551        0.854352
LJ           2.43077         1.59794         1.56946
LJ          -1.83668        0.980605         1.60934
LJ         -0.903403        0.665745        0.938418
LJ          0.194238         1.49905         0.72677
LJ         -0.801087         1.59461         1.62789
LJ         0.0150561        0.791028         1.55368
LJ           1.08925        0.766966        0.942508
LJ           1.55606           1.681        0.586372
LJ          0.850874         1.54331         1.64716
LJ           1.67759        0.782711         1.75885
