108
#Comment!
LJ          -2.52415        -2.46422         2.39073
LJ          -1.71232        -1.68333         2.51525
LJ          -2.41138        -1.51475        -1.77827
LJ          -1.75827         2.52042        -1.63408
LJ         -0.825026         2.51484        -2.47477
LJ         -0.111224        -1.95849        -2.46809
LJ          -1.10172        -1.53609        -1.79386
LJ        -0.0401012         2.20139        -1.79748
LJ          0.780544         2.49892         2.41802
LJ           1.77524        -1.73361        -2.54678
LJ          0.726092        -1.86135        -1.78009
LJ           2.02501         2.46761        -1.72088
LJ           2.48679        -0.78035         2.52464
LJ          -1.73919       0.0515204        -2.54694
LJ            2.4761       0.0471617         -1.8473
LJ           -1.7408       -0.532028        -1.64882
LJ           -1.0876       -0.733098        -2.47212
LJ         -0.116137       -0.172639          -2.479
LJ         -0.916696       0.0185152        -1.79841
LJ         -0.110723        -1.06961        -1.82271
LJ          0.850404         -1.1465        -2.54253
LJ           1.69032     9.22681e-05         2.50029
LJ          0.882096       0.0967948        -1.81987
LJ           1.67775       -0.634226        -1.74027
LJ           2.55519        0.935012         2.53521
LJ          -1.72262         1.88788         2.43372
LJ          -2.35622         1.58647         -1.6046
LJ          -1.60614        0.763616        -1.76912
LJ         -0.596448        0.895061         2.56355
LJ         0.0894447         1.73424         2.29601
LJ          -1.04642         1.66128        -1.72002
LJ         0.0554023         1.12063        -1.86184
LJ          0.796076        0.910925         2.50116
LJ           1.71629         1.81709         2.41482
LJ          0.944882         1.93034        -1.86698
LJ           1.56641         1.02754        -1.66878
LJ           2.50761          2.4455       -0.746746
LJ          -1.46577        -1.72376       -0.859705
LJ           -2.3268        -1.85385       -0.206374
LJ          -1.76029         2.44869      -0.0602315
LJ            -0.761         2.52404       -0.998684
LJ           0.19532        -1.69292       -0.790642
LJ         -0.720531        -1.94004        -0.17791
LJ          -0.17702         2.30321      0.00222793
LJ            0.8321        -2.49223       -0.917525
LJ           1.89094        -1.80628        -1.07583
LJ          0.713275        -1.87956         0.29695
LJ           1.67024        -2.49187      -0.0958834
LJ          -2.43247       -0.905178       -0.714964
LJ          -1.92687       0.0400756       -0.800954
LJ          -2.51768         0.22707    -0.000940797
LJ          -1.79367       -0.800535        0.135576
LJ           -0.5969       -0.897328       -0.710929
LJ         -0.103971        0.338429       -0.996538
LJ         -0.692334        0.135739      -0.0707496
LJ         -0.131275       -0.702409        0.166208
LJ            0.9768       -0.963418       -0.706345
LJ           1.88613       -0.067292       -0.596254
LJ          0.703033       0.0603608       0.0908487
LJ           1.81884        -1.16963      -0.0979901
LJ          -2.49478        0.951093       -0.777515
LJ          -1.65685         1.82457        -0.80656
LJ           2.49139         1.66483      -0.0389674
LJ          -1.85746         1.14914        0.339141
LJ          -1.11609        0.770759       -0.817414
LJ         0.0892463         1.63582        -1.01179
LJ         -0.876193         1.45603      -0.0812123
LJ       -0.00135224        0.935923       -0.252334
LJ          0.946597        0.965851         -0.7887
LJ           1.66684         1.75189       -0.795107
LJ          0.746011         1.98896      -0.0158734
LJ           1.67251        0.890203      -0.0636319
LJ           2.48137         2.31768        0.719961
LJ           -1.3349        -1.76584        0.767206
LJ           2.52685        -1.53267         1.75269
LJ          -2.08218        -2.38495         1.44072
LJ          -0.81057         2.51732         1.03542
LJ          0.104865        -1.50185        0.976711
LJ         -0.951102        -1.85805         1.86949
LJ         0.0464853        -2.35691         1.70201
LJ          0.825491         2.38212         1.00902
LJ           1.92833        -1.64055         0.84618
LJ            1.0072        -1.79586          1.7697
LJ           1.74469        -2.39381         1.63886
LJ           2.48988        -0.64157         0.85501
LJ          -1.60136       0.0566612        0.830258
LJ           2.44408       0.0581477         1.73413
LJ          -1.74376       -0.760061         1.72776
LJ         -0.733959        -1.03863         1.00601
LJ          0.150388       -0.126319         1.05879
LJ         -0.946036        0.100494         1.99041
LJ          0.146075       -0.927314         1.86018
LJ           1.00752        -1.03731        0.788418
LJ           1.59904       -0.132985        0.604292
LJ          0.670485     -0.00907465         2.05483
LJ           1.51344       -0.796081         1.78334
LJ           2.24484        0.816787        0.817012
LJ          -1.64546         1.88003        0.962504
LJ           2.46754         1.57881         1.46834
LJ          -1.80545        0.895992          1.5759
LJ         -0.831213        0.739145        0.788479
LJ          0.245913         1.41744        0.742558
LJ         -0.919147         1.43968         1.58344
LJ           0.17336        0.877143         1.61014
LJ           1.11984        0.744337         1.00485
LJ           1.52624         1.68552        0.642503
LJ          0.913296         1.50767         1.67888
LJ           1.65894        0.823295         1.86362
