108
#Comment!
LJ           2.54675        -2.40792         2.52409
LJ          -1.71899        -1.63255         2.42978
LJ          -2.54955        -1.69445        -1.72258
LJ          -1.78932        -2.45947        -1.69834
LJ         -0.805263         2.53522          2.4752
LJ         0.0528844        -2.00051        -2.46858
LJ          -1.02869        -1.47083        -1.60479
LJ         0.0251452         2.34319        -1.73876
LJ          0.970905         2.43766         2.55365
LJ           1.73601        -1.80597         2.49624
LJ          0.976444        -1.79733        -1.76389
LJ           1.92557        -2.53457        -1.67665
LJ           2.44362       -0.804392         2.53819
LJ          -1.93131     -0.00859047         2.53195
LJ           2.49597        0.113808        -1.96527
LJ          -1.70832       -0.494607        -1.50887
LJ          -1.12226       -0.796863        -2.44046
LJ       -0.00204855       -0.182663        -2.46833
LJ         -0.762674        0.014712        -1.76502
LJ         -0.101688         -1.1484        -1.90974
LJ          0.909801        -1.10869         -2.4959
LJ           1.61441     -0.00687094        -2.49561
LJ          0.812486        0.100506        -1.70326
LJ           1.66173       -0.665731        -1.71836
LJ          -2.41301         0.99378          2.4961
LJ           -1.6811         1.91154        -2.53072
LJ          -2.52733         1.74117        -1.63137
LJ          -1.55627         0.80727        -1.85291
LJ         -0.658196         1.06524         2.48523
LJ          0.153775         1.80335         2.43918
LJ         -0.848999         1.62989        -1.73122
LJ         0.0277492         1.04979        -1.82624
LJ           0.97398        0.894129        -2.52972
LJ           1.92495         1.80609         2.50219
LJ          0.963768         1.85169        -1.64126
LJ           1.68482        0.909869        -1.68971
LJ           2.38754          2.4023        -0.77219
LJ          -1.49554        -1.76766       -0.780711
LJ          -2.46439        -1.83546      -0.0726736
LJ          -1.59541         2.53451      -0.0323744
LJ         -0.857184         2.55251         -1.1086
LJ          0.151506        -1.72554       -0.934372
LJ         -0.544443        -1.78971      -0.0237775
LJ         -0.268743         2.41982       0.0449154
LJ          0.874335         -2.5266       -0.879311
LJ           1.73334        -1.71796       -0.978791
LJ          0.657876        -1.99896        0.112362
LJ           1.67741        -2.38938      -0.0496587
LJ          -2.47863        -0.90681       -0.671115
LJ          -1.92042       0.0388354       -0.731244
LJ             2.534       0.0906497       0.0595785
LJ          -1.67952       -0.944621        0.004068
LJ         -0.571371       -0.867762       -0.730414
LJ        -0.0709479        0.185677        -1.00424
LJ         -0.820913      -0.0845374       -0.109659
LJ         0.0844453       -0.746177        0.265662
LJ          0.864296       -0.976118       -0.640531
LJ           2.03817      0.00212117       -0.876099
LJ          0.715944       0.0295611      -0.0473253
LJ           1.69157       -0.973196       -0.126565
LJ          -2.45177         1.00573       -0.923439
LJ          -1.51691           1.777       -0.843139
LJ           2.36482         1.77632       0.0275606
LJ          -1.96762        0.965867        0.118823
LJ           -1.0566        0.697302       -0.992764
LJ         0.0489308         1.83658       -0.834484
LJ         -0.795223         1.47546      -0.0840137
LJ        -0.0397119        0.847679       0.0327133
LJ          0.739375        0.971016       -0.675658
LJ           1.63581         1.62385       -0.869521
LJ          0.803503         1.95033      -0.0710975
LJ            1.6717        0.853553        -0.18128
LJ           2.48362         2.36605        0.895311
LJ          -1.40406        -1.77557        0.669335
LJ           2.53869        -1.53776         1.81574
LJ          -2.06342        -2.48288         1.68686
LJ         -0.692624         2.53259          1.1005
LJ          0.151927        -1.65223        0.932166
LJ          -0.87403        -1.76536         1.70178
LJ         0.0642367        -2.33694         1.73991
LJ          0.916343         2.32593        0.932069
LJ           1.93108        -1.53338        0.727532
LJ          0.959243        -1.76238         1.71859
LJ            1.7148        -2.52449          1.7038
LJ           2.48875       -0.623949        0.938697
LJ          -1.70066       0.0231218         0.80742
LJ           2.50834       0.0266295         1.79549
LJ          -1.83669       -0.771224         1.67832
LJ         -0.723553       -0.889039         1.07095
LJ        0.00964323     -0.00340829        0.958583
LJ         -0.849296        0.150412         2.05611
LJ          0.227558       -0.949235         1.85513
LJ             1.013        -1.03985        0.759963
LJ           1.59793       -0.164256          0.7691
LJ          0.899889       0.0663931         1.88311
LJ           1.55956       -0.879132         1.76384
LJ            2.3642        0.784737        0.905779
LJ          -1.49643         1.96805        0.781457
LJ           2.44012         1.64589         1.55952
LJ          -1.79152        0.910225         1.53274
LJ         -0.871974        0.633308        0.884299
LJ          0.263074         1.46397        0.783845
LJ         -0.813301         1.67481         1.56718
LJ        -0.0320903        0.848806         1.63079
LJ          0.999974        0.770549        0.836706
LJ           1.57261         1.67708        0.568405
LJ          0.857348         1.56416         1.73967
LJ            1.9408        0.815253         1.77592
