108
#Comment!
LJ           2.55964          -2.304         2.26823
LJ           -1.7992        -1.63159          2.4888
LJ          -2.26194         -1.5751        -1.63661
LJ          -1.75388        -2.54496        -1.64466
LJ         -0.681703         2.42436         2.49984
LJ          0.063259        -1.86754        -2.47324
LJ          -1.19438        -1.50598        -1.76106
LJ         -0.033712         2.22934        -1.80738
LJ          0.806863        -2.55489         2.49012
LJ           1.78192        -1.56127         2.46966
LJ          0.830453        -1.91032        -1.67993
LJ           1.94408         2.38501        -1.82518
LJ            2.5088       -0.860689         2.35186
LJ           -1.7735       0.0986674          2.5219
LJ           2.39823        0.129031        -1.76153
LJ           -1.8843       -0.575251        -1.63008
LJ          -1.00777       -0.825448        -2.38964
LJ        -0.0215219       -0.301368        -2.39679
LJ          -1.09275       0.0657975        -1.75924
LJ        -0.0708429        -1.08607        -1.69559
LJ          0.830535        -1.02366         -2.5525
LJ           1.66712       0.0216073         2.53314
LJ          0.936615        0.127321          -1.741
LJ           1.60986       -0.761997        -1.74484
LJ          -2.49449        0.917662         -2.4741
LJ          -1.69031         1.91915         2.41712
LJ          -2.50784         1.63145        -1.61114
LJ          -1.73236        0.894002        -1.75936
LJ         -0.537713        0.990335        -2.52095
LJ          0.118115         1.64445         2.37767
LJ          -1.08944         1.65935        -1.79843
LJ          0.157217         1.08748        -1.81628
LJ          0.854057        0.917395         2.55025
LJ           1.78335          1.7457         2.39224
LJ          0.946753         1.82621        -1.91962
LJ           1.71416            1.16        -1.66067
LJ           2.49097         2.30492       -0.747945
LJ          -1.53104        -1.71797       -0.759513
LJ          -2.34198        -1.78943      -0.0833215
LJ          -1.74569         2.38199       0.0721929
LJ         -0.698294        -2.53865        -1.05774
LJ          0.080281        -1.60226       -0.810269
LJ         -0.777186         -2.0758       -0.153823
LJ         -0.163475         2.29872       0.0841944
LJ          0.860831        -2.49487       -0.915968
LJ           1.92251        -1.69298        -1.03462
LJ          0.837599        -1.82208        0.375176
LJ            1.7061         2.55299       -0.126988
LJ          -2.34995       -0.943662       -0.764443
LJ          -1.86753       0.0316403       -0.719766
LJ          -2.46844        0.189914        0.110715
LJ          -1.65646       -0.680627        0.144889
LJ         -0.685728       -0.879388       -0.812223
LJ         -0.170712       0.0714898        -1.04617
LJ          -0.65797       0.0439751       -0.112207
LJ       -0.00410328       -0.658866       0.0279037
LJ           1.02565        -1.19075       -0.808874
LJ           1.90497       -0.207219       -0.545544
LJ          0.873678       0.0850616        0.138007
LJ           1.99088        -1.08998      -0.0926935
LJ           2.50671        0.963198       -0.769317
LJ          -1.57141         1.78097       -0.875715
LJ           2.37379         1.68999      -0.0320893
LJ          -1.84053          1.0372         0.23607
LJ          -1.01181        0.679582        -0.87599
LJ          0.146353         1.71422       -0.933806
LJ         -0.794569         1.60089       -0.237024
LJ        -0.0405808        0.932233       -0.178084
LJ          0.952781        0.844198       -0.791695
LJ           1.63997         1.73542       -0.766477
LJ          0.778746         1.85695       -0.140114
LJ           1.77868        0.710868      -0.0730572
LJ           2.40907         2.38827        0.679086
LJ          -1.25051        -1.81226        0.806557
LJ            2.4968        -1.43722          1.5164
LJ          -1.95281        -2.35755         1.43035
LJ         -0.806181         2.47495        0.916646
LJ         0.0728413        -1.43542        0.947288
LJ         -0.821655        -1.89176         1.87274
LJ          0.053404        -2.38204         1.77698
LJ          0.667663         2.42149         1.06411
LJ            1.7801        -1.67767        0.927141
LJ          0.946681        -1.76586         1.71872
LJ           1.76163        -2.48032         1.65693
LJ          -2.42682       -0.719756        0.743311
LJ          -1.53702       0.0322431        0.811152
LJ           2.45203       0.0438438         1.73568
LJ          -1.75104       -0.748488         1.73017
LJ         -0.877826       -0.983982         1.03886
LJ          0.163877       -0.254324        0.925134
LJ         -0.935195        0.222516         1.91156
LJ          0.195009       -0.934954         1.78227
LJ          0.914229       -0.828224         0.81479
LJ           1.75107       -0.107996        0.653353
LJ          0.602887       0.0231489         1.97895
LJ           1.46302       -0.791599         1.73745
LJ           2.23613        0.856002        0.809159
LJ          -1.63581         1.87974        0.994404
LJ           2.44466         1.70508         1.54822
LJ          -1.84792        0.882442          1.4592
LJ         -0.779403        0.771505        0.658197
LJ          0.283102         1.42837        0.816618
LJ         -0.963299         1.38728         1.55083
LJ         0.0232399        0.890956         1.64284
LJ            1.1705        0.676563        0.968664
LJ           1.49012         1.72373        0.586377
LJ           1.01181         1.56617         1.69437
LJ           1.71937        0.861152         1.89086
