108
#Comment!
LJ           2.46961        -2.52869         2.55085
LJ          -1.67191        -1.83007         2.54538
LJ           2.55904         -1.7121        -1.61094
LJ          -1.88422         2.50521        -1.80073
LJ         -0.873206         2.54936         2.39069
LJ         -0.183404        -1.86382        -2.52065
LJ         -0.912649          -1.525        -1.66874
LJ          0.120545         2.36289        -1.72276
LJ          0.860275         2.52116        -2.39049
LJ           1.67537        -1.69479        -2.56084
LJ          0.793309        -1.51584        -1.54415
LJ           1.89983        -2.46236        -1.61104
LJ           2.46531       -0.855393        -2.53307
LJ          -1.65174        0.161656         2.47901
LJ          -2.49788        0.184488        -1.83207
LJ          -1.85259       -0.829795        -1.52573
LJ           -1.1017       -0.971489         2.53709
LJ        -0.0232146      -0.0680677        -2.55578
LJ         -0.839882        0.154397        -1.76502
LJ         0.0647318        -0.81174        -1.75349
LJ          0.924935        -1.01601        -2.53882
LJ           1.70298        0.182134         2.52548
LJ          0.704645        0.187766        -1.62821
LJ           1.59403        -0.82687        -1.77514
LJ          -2.50126        0.983505         2.47217
LJ          -1.79787         1.88401         2.49683
LJ          -2.56291          1.6208        -1.81278
LJ          -1.67009        0.908382        -1.76421
LJ         -0.662725        0.987611          2.2758
LJ          0.117304         1.70047         2.36846
LJ         -0.813848         1.63018        -1.68346
LJ        -0.0737984        0.867088         -1.7094
LJ             0.742        0.893156        -2.44034
LJ           1.79681         1.88299        -2.53773
LJ          0.965428         1.78043        -1.52261
LJ           1.78413        0.831467        -1.69808
LJ          -2.45917         2.56366        -0.85269
LJ          -1.54924        -1.74814       -0.621426
LJ          -2.55583        -1.78637      -0.0412309
LJ          -1.75163         2.42249      0.00862003
LJ         -0.736651         2.49942        -0.82203
LJ         0.0312578        -1.68958       -0.834134
LJ         -0.796111        -1.73952         0.12948
LJ         -0.215251         2.36576      -0.0269042
LJ           1.02532        -2.50097       -0.906643
LJ           1.65169        -1.68787       -0.815444
LJ          0.675307        -1.87802       0.0539053
LJ           1.68367        -2.40826      -0.0904691
LJ          -2.55492        -0.87737       -0.773071
LJ          -1.87706         0.18455       -0.730183
LJ           2.56161      -0.0318807       0.0113303
LJ          -1.74634       -0.715889      -0.0644795
LJ         -0.853807       -0.750867       -0.812293
LJ        0.00149065       0.0622164       -0.813215
LJ           -0.8511     -0.00878638       -0.010666
LJ         -0.102297       -0.721393      -0.0892566
LJ          0.754942       -0.845204       -0.821694
LJ           1.84537       -0.105382       -0.853622
LJ          0.880782       0.0382082       -0.110834
LJ           1.78037       -0.973318      -0.0430212
LJ          -2.51256         1.09901       -0.786614
LJ          -1.64267         1.75947        -1.00545
LJ           2.55785         1.68083       0.0952144
LJ          -1.89088        0.931661         0.08959
LJ         -0.905432        0.820511       -0.840183
LJ        -0.0238251         1.72799       -0.857735
LJ         -0.933676         1.59152       -0.205317
LJ        -0.0405528         1.04235       -0.056199
LJ            0.7508        0.950279       -0.793683
LJ           1.94393         1.78903       -0.924404
LJ          0.781198         1.94013       -0.117605
LJ           1.75962        0.870899      -0.0774695
LJ            2.4805         2.51099         1.00452
LJ          -1.50395        -1.78687        0.991605
LJ           2.47007        -1.56652         1.75901
LJ          -1.91814         2.42831         1.68502
LJ         -0.819331         2.52563        0.778892
LJ           0.10354        -1.71928        0.869582
LJ         -0.924122        -1.68763         1.78775
LJ         0.0688843        -2.52298         1.75709
LJ           1.13533        -2.50025        0.991671
LJ           1.91291        -1.56263        0.874979
LJ          0.827839        -1.65589         1.68842
LJ           1.59491        -2.51291         1.82581
LJ           2.51657        -0.72209        0.897699
LJ          -1.86978       0.0428957        0.910267
LJ          -2.56395       0.0146354         1.89448
LJ          -1.77711       -0.835208          1.6395
LJ         -0.690929       -0.841394        0.779033
LJ         0.0110538       -0.109904        0.836459
LJ         -0.779656        0.103978         1.80823
LJ         0.0390559       -0.921575         1.57652
LJ           0.88519       -0.873812        0.919169
LJ           1.55961        0.030861        0.615523
LJ          0.787911      -0.0368788         1.88895
LJ           1.76727       -0.859484         1.70025
LJ           2.42773        0.708859        0.773456
LJ          -1.50827         1.81784        0.808516
LJ           2.50441         1.70886         1.73096
LJ          -1.61157        0.720426         1.64959
LJ         -0.913697        0.647288        0.792528
LJ        -0.0516795         1.71195        0.830337
LJ         -0.811013         1.74454         1.44406
LJ         0.0215324        0.864727         1.58454
LJ           0.87129        0.909312          0.9832
LJ           1.81814         1.71009        0.850195
LJ          0.996951         1.75599            1.88
LJ           1.66562        0.951127         1.65284
