108
#Comment!
LJ           2.54094        -2.45834         2.52277
LJ          -1.68803        -1.65473         2.43333
LJ          -2.55389        -1.65929         -1.6549
LJ          -1.71613        -2.36676        -1.81003
LJ         -0.838553         2.46781         2.48871
LJ         0.0527381        -2.04822         -2.4667
LJ          -1.14632        -1.44528        -1.60617
LJ         0.0712209         2.26394        -1.63747
LJ          0.907673         2.40944        -2.51406
LJ           1.84131        -1.72595         2.50544
LJ           1.00738        -1.78223        -1.68415
LJ           1.89983        -2.56108        -1.53892
LJ           2.41395       -0.786756         2.53138
LJ          -1.73354       0.0953579         2.52164
LJ          -2.53069        0.156021        -1.86254
LJ          -1.67818       -0.494945         -1.5256
LJ           -1.1472        -0.87132        -2.42451
LJ         0.0238772       -0.246751        -2.41135
LJ         -0.821411     -0.00367078        -1.69086
LJ         -0.107556        -1.01195         -1.8766
LJ          0.939313        -1.13358        -2.46063
LJ           1.65888       0.0773922        -2.53511
LJ          0.757579    -0.000369986        -1.73201
LJ           1.62875       -0.755906        -1.73445
LJ          -2.41325         1.10792         2.45306
LJ          -1.77027         1.84493          2.5125
LJ          -2.48948         1.63507        -1.62833
LJ          -1.49933        0.873454        -1.73957
LJ         -0.638703         1.12565        -2.55009
LJ         0.0763701         1.78546         2.52528
LJ          -0.81909         1.73387        -1.64314
LJ         0.0669347         1.05777        -1.70695
LJ           1.01898        0.826355        -2.52366
LJ           1.85042         1.87702         2.49643
LJ          0.878841         1.75225        -1.64653
LJ           1.78659        0.902845        -1.81467
LJ           2.51025         2.35262       -0.609385
LJ          -1.56652        -1.89594        -0.79548
LJ          -2.42975        -1.74713       -0.130539
LJ          -1.76587          2.4722      -0.0671594
LJ         -0.673584        -2.52833       -0.993892
LJ         0.0979539         -1.7727        -0.90586
LJ         -0.471188        -1.77036        0.039521
LJ         -0.320787         2.36413        0.195019
LJ          0.766382        -2.52717       -0.930291
LJ           1.71191        -1.61619       -0.973091
LJ          0.610343        -2.11453       0.0700475
LJ           1.65538         -2.3002       0.0469601
LJ           -2.3848       -0.876036       -0.733478
LJ          -1.83431       0.0404144       -0.595881
LJ           2.44129       0.0638696       0.0141607
LJ          -1.58565       -0.914229         0.05081
LJ         -0.584718       -0.861599       -0.783525
LJ        -0.0350064        0.317982       -0.973655
LJ         -0.876927      -0.0408528       -0.101109
LJ         0.0578813       -0.840277        0.249969
LJ          0.835041       -0.977795       -0.754763
LJ           1.91839       -0.138197       -0.882851
LJ          0.782721       0.0304791      -0.0328973
LJ           1.68727       -0.889162       -0.212304
LJ          -2.41882        0.913429       -0.917748
LJ          -1.61764         1.71156        -0.89149
LJ           2.50018         1.64185        0.101017
LJ          -1.93225        0.991957      -0.0360573
LJ          -1.05564        0.717125       -0.809124
LJ        0.00962137         1.64166       -0.798309
LJ         -0.823024         1.55582       -0.137573
LJ        -0.0714553        0.876051        0.120221
LJ          0.797808        0.890081       -0.679309
LJ           1.65567         1.62583       -0.970966
LJ           0.86217         2.01203     -0.00589484
LJ           1.74308        0.825802        -0.20996
LJ           2.44581         2.47159        0.847614
LJ          -1.42524        -1.71538        0.608113
LJ           2.43296        -1.55317         1.72582
LJ          -1.97607          2.4796         1.64353
LJ         -0.694545        -2.43388         1.10057
LJ          0.124615        -1.60606        0.840551
LJ         -0.890897        -1.72365          1.6804
LJ         0.0920296        -2.33893         1.74578
LJ          0.986637         2.41082        0.867973
LJ           1.99051        -1.51557        0.648813
LJ          0.997529        -1.80584         1.66741
LJ           1.68333         2.54561         1.67299
LJ           2.54477       -0.635811        0.984233
LJ           -1.7142      -0.0515917        0.930979
LJ           2.52999        0.037822         1.82986
LJ          -1.74904       -0.976183         1.58308
LJ         -0.686362       -0.895979        0.928462
LJ         0.0942385      0.00994549         1.10321
LJ         -0.860633        0.171869         2.03992
LJ         0.0886113       -0.896202         1.86941
LJ           1.03735       -0.968608        0.741726
LJ            1.6641       -0.119363        0.672455
LJ          0.762905      -0.0392354         1.85766
LJ           1.64103        -0.82234          1.7377
LJ            2.5404        0.804061        0.955367
LJ          -1.46216         1.86787        0.747252
LJ           2.42174          1.6683         1.54158
LJ          -1.65932        0.963337         1.56876
LJ         -0.920875        0.641231        0.813957
LJ          0.245412         1.46175          0.8306
LJ         -0.859525         1.57458         1.57965
LJ        -0.0287708         0.84569         1.59701
LJ          0.962396        0.675763        0.817721
LJ           1.66787         1.73229        0.746113
LJ          0.891111         1.52976         1.82868
LJ           1.74651        0.790404         1.80265
