108
#Comment!
LJ          0.571418      -0.0550137        -1.78984
LJ          0.395726        -1.43984        -1.38187
LJ           2.13589         1.28198         1.07998
LJ          -2.17995        -2.21853         -2.2688
LJ          0.486422        -2.51886       0.0902181
LJ          0.859395         2.15375        -1.81739
LJ           1.14857        -0.59517         1.34878
LJ           2.43755        -1.07271       -0.826412
LJ          0.608293        0.504729       -0.936367
LJ          0.595445        -2.17861         1.02655
LJ           1.71628         -1.0997       0.0996571
LJ           1.48207         2.26549        0.815872
LJ         0.0011306        -1.49355        0.200935
LJ          -1.22737         2.54724        -2.55862
LJ          -2.13539         2.09264         1.11023
LJ         -0.492566         1.96582        -1.21401
LJ         -0.776676        -2.22401        0.013167
LJ           1.36783       -0.130606       -0.645335
LJ          -2.46569         1.66161       -0.052005
LJ          -2.13312        0.574243     0.000261771
LJ          -2.48163         0.33249         -1.6612
LJ         -0.252368          2.4314        0.865906
LJ           0.38162       -0.730577       -0.704128
LJ          -1.63882         2.26298       0.0422201
LJ          -1.46213       -0.014059        0.682733
LJ          0.958461        0.394553         2.31034
LJ           1.59921         -1.7306        0.892149
LJ         -0.522883        -1.41729         2.12584
LJ           1.77022         1.06592       -0.260557
LJ           2.06425        -1.97971       -0.667093
LJ           2.05214       -0.718197         2.47197
LJ          0.632612         1.03934        -1.80768
LJ         -0.264854        0.993889        -1.39021
LJ           2.39686        -1.75285         2.17616
LJ           1.07241        -2.18354        -1.08014
LJ          -1.17256         2.50043         1.49457
LJ          0.962554         2.47082          2.0614
LJ        0.00441066         2.33806        -2.19889
LJ          0.505648         1.87348         1.30596
LJ          0.764028         1.62775        0.269341
LJ          0.923919         2.03167       -0.685581
LJ          0.446693        0.424243         0.15735
LJ        0.00765168        0.471341         1.58781
LJ          -1.87845        0.537647         2.41999
LJ           1.71921       0.0547684        0.328194
LJ           2.12054        0.148129         1.40226
LJ          -1.47683         -2.0653        0.758429
LJ          0.246577         1.41397         2.31696
LJ          0.437647       -0.550395        0.592129
LJ          -2.20029          2.3184         2.06004
LJ         -0.449284       -0.403622        -1.12011
LJ           -2.4334         1.09564         -0.9571
LJ         -0.478009       -0.580215        0.990679
LJ         -0.596604        -1.75334         1.11857
LJ            1.8839         1.92466        -1.21343
LJ          -2.04494         1.79631        -1.94629
LJ          -1.91439        0.808086         1.17639
LJ          -1.22296        -2.32054        -1.18651
LJ          -1.62135        -0.35347       -0.546062
LJ          0.822538       -0.675022         2.47875
LJ          0.945871        -1.49509       -0.293935
LJ          -2.45888        -1.22281        -2.05315
LJ         -0.705474         1.50195        -2.20396
LJ           2.51486        -2.00366           1.212
LJ       -0.00263151         1.41146       -0.504904
LJ           -2.2835       -0.695252        0.356444
LJ           2.12734         0.27508        -2.52347
LJ          -1.44893       -0.211741        -1.62099
LJ         -0.113077        0.508621        -2.40409
LJ         -0.458309        -1.93611        -1.73972
LJ          -1.38761        -1.11583         2.54486
LJ          -1.96255       -0.377943         1.95681
LJ           2.02749        -2.00122        -1.85637
LJ          -1.06154        0.390394         1.73906
LJ          -1.03655       -0.252383        -2.54118
LJ         -0.488139        -1.60598       -0.745217
LJ        -0.0997827       -0.425123         2.16217
LJ           1.25344         1.42945         2.31709
LJ           1.55108        0.756047        -1.35753
LJ           -2.4008         2.53596        -1.21793
LJ           2.38279        -1.00334         1.36949
LJ           2.33063       0.0813022       -0.738246
LJ           2.09128         1.37666        -2.03172
LJ          -0.49078         0.59418        0.501019
LJ          -1.31249         1.15821       -0.278507
LJ         -0.563037         1.53306         1.44874
LJ         -0.694215        0.330864       -0.583979
LJ          -1.76114        -1.80448         1.93003
LJ           1.08389        0.851612         1.32069
LJ          -1.45677         1.89894       -0.906482
LJ          -2.56445        -2.51179        0.199713
LJ          -1.08056        -1.14109        0.253539
LJ           1.98682         2.36828         2.47046
LJ           1.87767       -0.371535        -1.50945
LJ          0.308206          -1.187         1.35288
LJ          -1.48732         1.47707         1.87507
LJ          -1.44535         0.96931        -1.44321
LJ         -0.190789         2.44519          1.9831
LJ          0.428352        -1.81263         2.30209
LJ           1.07828        -1.74585        -2.04552
LJ           1.35991        -1.40005         1.89402
LJ          -1.94698        -1.75688       -0.356477
LJ          -1.19311         1.46611        0.749972
LJ          -1.59442        -1.18591        -1.41076
LJ           2.32922         1.08898         2.12011
LJ          -1.28516        -1.06546         1.35143
LJ           1.73285         2.19161       -0.119016
LJ          -0.38104       -0.889182        -1.93159
