108
#Comment!
LJ           2.40053         2.53087         2.48684
LJ          -1.71429        -1.93499        -2.53656
LJ          -2.51663        -1.71902        -1.80837
LJ           -1.8119         2.48412        -1.69122
LJ         -0.907216         2.39324         2.47793
LJ          -0.14553        -1.81491        -2.47708
LJ          -0.80383        -1.63002        -1.59414
LJ        -0.0208365         2.53008        -1.64994
LJ          0.881992         2.52974        -2.51021
LJ           1.65826        -1.80016        -2.53424
LJ          0.790188        -1.50337        -1.61762
LJ           1.88491        -2.42469          -1.672
LJ           2.47783       -0.902317         2.49245
LJ          -1.61165       0.0556358         2.55543
LJ          -2.50559        0.134037        -1.82463
LJ          -1.80677        -0.97389        -1.70959
LJ          -1.14943       -0.848172         2.51457
LJ         0.0143034       -0.116419         2.50514
LJ         -0.781908       0.0818363        -1.69674
LJ         0.0224988       -0.808875        -1.65748
LJ          0.849021       -0.889447         2.56131
LJ           1.79975        0.140167         2.55018
LJ          0.714548        0.184441        -1.60286
LJ           1.68166       -0.814393        -1.71237
LJ          -2.53779        0.861514         2.52214
LJ          -1.77762         1.78712         2.51931
LJ          -2.54692         1.66225        -1.79816
LJ          -1.76969        0.894149        -1.72654
LJ         -0.661673          1.0471         2.30088
LJ          0.161817          1.7516         2.42441
LJ         -0.845085          1.6478        -1.57918
LJ         -0.100288        0.941077        -1.79942
LJ          0.752157         0.92363        -2.34185
LJ           1.78989         1.74188        -2.51333
LJ          0.932502         1.81455         -1.6045
LJ           1.77877        0.840957        -1.72105
LJ          -2.48037        -2.44302        -0.79887
LJ          -1.45747        -1.72322       -0.741617
LJ           2.51307        -1.83301      -0.0347913
LJ          -1.57259         2.49178      -0.0179347
LJ         -0.786929        -2.53031       -0.764739
LJ        -0.0546838        -1.73342       -0.990213
LJ         -0.843518        -1.73816        0.150783
LJ         -0.159128         2.40447      0.00934816
LJ          0.828819          2.5004       -0.821208
LJ           1.57043        -1.80505       -0.805463
LJ          0.718236        -1.80725        0.148856
LJ           1.62136        -2.47688      -0.0727492
LJ           -2.4764       -0.923685       -0.787069
LJ          -2.00301        0.197491       -0.815664
LJ           2.49814       0.0168031       -0.042711
LJ          -1.62545       -0.878592      -0.0700927
LJ         -0.919481       -0.733895       -0.802846
LJ        -0.0507101     -0.00336897       -0.730915
LJ         -0.855037      0.00877985       -0.054671
LJ          -0.04483       -0.660635      -0.0271999
LJ          0.952612       -0.820934         -0.7321
LJ           1.73275       -0.150454       -0.834961
LJ          0.923249      -0.0605878      -0.0606899
LJ           1.69379        -1.02158       -0.139831
LJ           2.56101         1.05602       -0.848959
LJ          -1.72305         1.75179        -1.00067
LJ           2.55102         1.79441        0.162154
LJ          -1.78078        0.909958       0.0969217
LJ         -0.776628         0.70752       -0.828213
LJ         -0.121607         1.69265       -0.933444
LJ         -0.923515         1.69962       -0.171631
LJ         -0.122671        0.995616      -0.0726995
LJ          0.676013        0.940975       -0.816946
LJ           1.75782         1.90653        -0.89328
LJ          0.660069         1.80879      -0.0493073
LJ           1.59494        0.786362       0.0668319
LJ           2.52467         2.49072        0.862528
LJ          -1.60803        -1.72241        0.925436
LJ           2.42244        -1.69354         1.70465
LJ          -1.83724          2.5163         1.66801
LJ         -0.787128         2.48217        0.793289
LJ       -0.00030562        -1.71028        0.831373
LJ         -0.882059         -1.7367         1.75306
LJ          0.175992        -2.50249          1.8405
LJ           1.04376         2.52194         1.02192
LJ           1.74617        -1.77166        0.845046
LJ          0.923252         -1.6222         1.62816
LJ           1.69448        -2.50103         1.81747
LJ           2.50772       -0.630562        0.875478
LJ          -1.81704       0.0103306        0.887485
LJ          -2.45812     -0.00017659         1.95263
LJ          -1.80503       -0.826407         1.62044
LJ         -0.680233        -0.89647         0.79264
LJ         0.0716489      -0.0178124        0.783266
LJ         -0.638207        0.076299         1.76558
LJ         0.0245313       -0.908424          1.5967
LJ          0.751624       -0.868951        0.869056
LJ           1.60783      0.00730306        0.710717
LJ           0.79297       -0.201714         1.80687
LJ           1.68101        -0.92508         1.73551
LJ            2.3589        0.930526        0.844834
LJ          -1.80605         1.74009        0.815527
LJ          -2.53981         1.69229          1.8281
LJ          -1.77314        0.726145         1.65708
LJ         -0.848315        0.713779        0.860659
LJ        -0.0659624         1.63426         0.87447
LJ         -0.865729         1.71201         1.63824
LJ         0.0274751        0.824552         1.59207
LJ          0.813949        0.774842        0.872936
LJ           1.76465         1.80764        0.831041
LJ          0.863397         1.59461           1.671
LJ           1.67982         1.06271         1.64276
