108
#Comment!
LJ            2.3548         2.54448         2.54077
LJ          -1.64723        -1.86609         2.50557
LJ          -2.54534         -1.6825         -1.8074
LJ          -1.85331         2.51007        -1.75287
LJ         -0.913606          2.4944         2.50573
LJ         -0.138285        -1.90687        -2.42216
LJ         -0.856468        -1.57086        -1.57246
LJ        -0.0169323         2.48576        -1.76875
LJ          0.878665         2.49653        -2.42432
LJ            1.6556           -1.78        -2.50221
LJ          0.813915        -1.49647        -1.53802
LJ           1.93022        -2.46583        -1.64122
LJ           2.43877       -0.939011         2.53525
LJ          -1.65137       0.0805694        -2.55039
LJ          -2.44776        0.135304        -1.79172
LJ          -1.83468       -0.872108        -1.62109
LJ           -1.1848       -0.913389         2.47706
LJ        -0.0688537      -0.0372141         2.50793
LJ         -0.738084        0.158342        -1.68725
LJ          0.118318       -0.784659        -1.77701
LJ          0.925241       -0.929668        -2.50717
LJ           1.74196       0.0773669         2.55837
LJ          0.747016        0.175764        -1.64357
LJ           1.62329       -0.843792        -1.78159
LJ          -2.53181        0.867047         2.51218
LJ          -1.78443         1.85379         2.42333
LJ          -2.50208          1.6879        -1.83265
LJ          -1.72388        0.984188        -1.73586
LJ         -0.641635         1.02045         2.32518
LJ          0.157655         1.72851          2.3919
LJ         -0.817688         1.69028        -1.69979
LJ        -0.0926898        0.956478        -1.74337
LJ          0.816868        0.849898        -2.39947
LJ           1.78309         1.79949        -2.50556
LJ          0.971046         1.74419        -1.60838
LJ           1.72084        0.778845        -1.66337
LJ          -2.47848        -2.55144       -0.818514
LJ          -1.52456        -1.77593       -0.696413
LJ           2.45482         -1.8139      -0.0666094
LJ          -1.76814         2.51039      -0.0658343
LJ         -0.818497         2.48652       -0.836498
LJ         -0.040537        -1.71118       -0.852817
LJ         -0.835877        -1.80949       0.0763138
LJ         -0.126636         2.36865        0.032923
LJ           0.91969         2.45677       -0.853459
LJ           1.55325         -1.6996       -0.853734
LJ          0.761597        -1.79795        0.132898
LJ            1.6634        -2.46147      -0.0595037
LJ          -2.42358       -0.976449       -0.796592
LJ          -1.89496        0.114259       -0.806599
LJ            2.4882        0.104382       -0.063202
LJ          -1.73028       -0.793975      -0.0765556
LJ         -0.841229       -0.709243       -0.796073
LJ        -0.0351253       0.0869876       -0.752557
LJ         -0.907378     -0.00298323       0.0122249
LJ        -0.0486547       -0.719112      -0.0910308
LJ          0.906851       -0.810927       -0.826315
LJ           1.82611      -0.0988558       -0.816903
LJ          0.952192      -0.0350335      -0.0515384
LJ           1.65038        -1.05348       -0.138567
LJ          -2.51576         1.07969       -0.732785
LJ          -1.65422         1.73448       -0.983745
LJ           2.53707         1.72859        0.174894
LJ          -1.83562          0.9022       0.0228788
LJ         -0.787887        0.736715       -0.875292
LJ        -0.0212498         1.70618       -0.930191
LJ         -0.917919         1.66348        -0.15737
LJ        -0.0978229          1.0766      -0.0418323
LJ          0.691933        0.920212        -0.78539
LJ           1.81563         1.89718       -0.903203
LJ          0.684289         1.79306      -0.0723941
LJ           1.66276        0.884691      -0.0269524
LJ            2.5063         2.51279        0.937805
LJ          -1.53202        -1.76425         0.90122
LJ           2.45338        -1.67458         1.66836
LJ          -1.84064        -2.54857          1.6347
LJ         -0.856232         2.52016        0.832667
LJ        -0.0279438        -1.65535        0.803247
LJ         -0.849994        -1.67014         1.72177
LJ          0.201922        -2.47608         1.80513
LJ           1.09685        -2.55619        0.959393
LJ           1.83573        -1.71742        0.800953
LJ          0.883106        -1.58841         1.58222
LJ           1.66658        -2.50671         1.80429
LJ           2.43823       -0.669372        0.823347
LJ          -1.84565      -0.0170219        0.957772
LJ          -2.50196      -0.0379156         1.96737
LJ          -1.87095       -0.870078          1.6847
LJ         -0.668778       -0.829065        0.732726
LJ         0.0870766      -0.0776716        0.821951
LJ         -0.731673       0.0722406         1.70074
LJ        -0.0668429       -0.903389          1.6659
LJ           0.77178       -0.917786        0.821432
LJ           1.57769      0.00134824          0.7884
LJ          0.784196      -0.0995514         1.84661
LJ           1.74762       -0.834765         1.67111
LJ           2.42123        0.781611        0.783434
LJ          -1.75038         1.76721         0.78952
LJ           2.54904          1.7124         1.72935
LJ          -1.76096         0.74846         1.63212
LJ         -0.940381         0.72534        0.806824
LJ         0.0507745         1.63261        0.892409
LJ         -0.879443         1.68642         1.57276
LJ           0.02407        0.883258         1.55206
LJ          0.928439         0.79696        0.968443
LJ           1.71942         1.71904         0.83081
LJ          0.950703         1.64066         1.74144
LJ           1.65068           1.033         1.71399
