108
#Comment!
LJ           2.30066        -1.49914         1.08723
LJ         -0.160468        -1.17653       -0.726801
LJ          0.608121        -1.32155        -1.57674
LJ          -1.66248         1.53216        -1.05042
LJ          0.925525        0.138354         2.54552
LJ           1.81728        0.566719       -0.291586
LJ          0.381659        0.604499        -1.67105
LJ           -1.2651        -2.54793         -1.8478
LJ          -2.01824        -1.67834        -2.45153
LJ           1.84076        -2.19387       -0.656118
LJ           2.28569         1.42955         1.70153
LJ          -1.50882         2.01365        0.623076
LJ            1.3843       -0.627348        0.831029
LJ          -0.14943       -0.803005         1.93945
LJ          -1.35455        -2.43765         2.10924
LJ         -0.452743         1.85488        0.564095
LJ          -0.92418       -0.068583        0.139971
LJ          -2.15541          0.1041        -1.84966
LJ          -2.00617       -0.948004         1.77887
LJ          -2.43838         -2.3979         2.01367
LJ           2.03622        0.398786        -2.15459
LJ          -1.34314        0.789149        -0.23172
LJ          -2.36799         2.46003        0.962279
LJ           2.26455       -0.758102       0.0877498
LJ           2.14641         1.66347        0.480353
LJ             1.096      0.00841391        -1.25966
LJ          -2.54066       -0.855514         -1.8283
LJ         -0.150505        -2.19604        -1.54453
LJ         -0.556689          1.3077         -0.9377
LJ          0.416698         2.17904        -1.21975
LJ         -0.466092         1.76556        -1.87718
LJ         -0.301193        0.798001        0.145993
LJ         -0.996873       0.0906473         1.98978
LJ          -1.34674        -2.31334       0.0493305
LJ         -0.831716         2.01918         1.51338
LJ          0.658206         1.48929         0.46481
LJ          -2.17098       -0.620302       -0.733216
LJ          -1.95212       -0.876423        0.727598
LJ         -0.894456         1.43528         2.32855
LJ           0.65225        0.321257        0.290397
LJ          0.106051         1.76955         2.18142
LJ          -1.56515        0.963771        -2.00131
LJ           1.17082        -2.07312         1.44224
LJ          -1.68753       0.0631624         1.19386
LJ           1.57326       -0.561169         -2.0894
LJ           1.36615         1.46297         2.27508
LJ           2.40188         2.51872       -0.041695
LJ         -0.489388        -1.39842        0.436647
LJ          -1.45075        0.474812        -1.18474
LJ           1.24746       -0.461631        -0.13556
LJ          0.805669        -1.86206       -0.602033
LJ          0.405349          1.0018       -0.685465
LJ           1.20578        -2.30643         -1.4682
LJ         -0.971784       -0.799359         1.20768
LJ           2.26904         1.91025       -0.885458
LJ          0.972712         2.40644       0.0763887
LJ           1.48071       -0.628748         1.86249
LJ         -0.373119       0.0380732         1.15887
LJ           2.14126       -0.133593        -1.15109
LJ           2.38675        0.881081        -1.32392
LJ          0.142302        -1.68806        -2.47386
LJ          -2.29798          2.2109        -1.92461
LJ          0.654731        -1.12331         1.36726
LJ           1.39652         0.92007        0.803848
LJ          -2.20128        -1.62066          0.1765
LJ         -0.851826        0.980438         1.19645
LJ          -2.22842        0.219453        0.055838
LJ           1.10725          1.9545         1.34026
LJ         -0.940735         2.29884       -0.900008
LJ           2.46303        -1.44759       -0.939905
LJ         -0.189621        -1.98087           1.693
LJ          0.755242       -0.907431         2.48409
LJ           1.17134         -1.8675         2.41039
LJ         -0.370031         -2.2998       -0.247664
LJ          -1.74037        -2.00613        -1.12123
LJ          -2.34907        0.814134        0.915824
LJ           2.36315       -0.230183         1.27486
LJ       -0.00897069       0.0766545       -0.758105
LJ          -1.17918       -0.524024        -1.51679
LJ         0.0469256         1.82308       -0.309329
LJ         -0.075179        0.367244         2.31694
LJ          -2.03353        0.402711         2.19449
LJ          0.605389         2.41934        -2.23625
LJ           1.17136         1.66847       -0.541071
LJ           1.92723        -1.61301        -1.82816
LJ          -1.70154         1.28785         1.62602
LJ          0.536891         1.09296         1.39333
LJ          -1.23559       -0.976367       -0.258519
LJ          -1.37492        -1.91904         1.06162
LJ          -2.39859         1.29965        -2.49768
LJ           1.78664        -2.52888        0.750223
LJ         -0.148183       -0.646741        -2.02524
LJ          0.131862       -0.467602        0.101708
LJ           1.71199        0.506862         1.80739
LJ         -0.475175        -2.40585        -2.48834
LJ           1.83006         2.28001        -2.43405
LJ         -0.847254        -1.45564        -1.57956
LJ           2.44524       -0.384675         2.39853
LJ           1.35509          1.4625        -1.53889
LJ           -0.6676        0.570984        -1.80974
LJ         -0.904864        -1.42899         2.51196
LJ          0.287944        -2.42228        0.920958
LJ          0.579803      0.00918497         1.38954
LJ           2.09058        -1.35278         2.20725
LJ           1.54588        -1.59471        0.157008
LJ          -2.24242         1.42493        -0.16112
LJ          -1.55594        -0.54436        -2.45096
LJ           1.47434       -0.926264        -1.01982
