108
#Comment!
LJ           2.49503        -2.54364         2.55799
LJ          -1.69464        -1.89908         2.56397
LJ          -2.45517        -1.66926        -1.73948
LJ           -1.8366         2.56374        -1.71768
LJ          -0.89605         2.37346         2.48519
LJ         -0.191905        -1.82776        -2.52002
LJ         -0.867675         -1.6511        -1.59256
LJ         0.0402271        -2.54629        -1.70112
LJ          0.880247         2.51387         2.55359
LJ           1.63662        -1.79831        -2.51011
LJ          0.880002        -1.53659        -1.64049
LJ           1.90114        -2.46349        -1.71734
LJ           2.42572       -0.862877         2.55751
LJ          -1.58251       0.0651608         2.55032
LJ           2.53368       0.0934672        -1.81022
LJ          -1.79998       -0.891815        -1.72021
LJ          -1.11005       -0.884321         2.53249
LJ         0.0230412       -0.139553         2.49759
LJ         -0.872096       0.0842754        -1.69575
LJ         0.0403853       -0.866083        -1.72795
LJ          0.916111        -1.00532        -2.54093
LJ           1.79572        0.113758        -2.54866
LJ          0.754696         0.21027         -1.6892
LJ            1.6679       -0.823443        -1.68603
LJ          -2.54659        0.852269         2.55249
LJ          -1.74801         1.73434        -2.56143
LJ          -2.52969          1.5607        -1.78002
LJ          -1.77288        0.944451        -1.63271
LJ         -0.717578        0.969061         2.28324
LJ          0.210852         1.75317         2.43155
LJ         -0.887536         1.64677        -1.58653
LJ        -0.0698107        0.854767        -1.89895
LJ          0.799521        0.916467         -2.3762
LJ           1.74354         1.75574        -2.45082
LJ           1.02156         1.84125        -1.60916
LJ           1.70948        0.867117        -1.71622
LJ          -2.48186        -2.45027       -0.815714
LJ          -1.47001         -1.6566       -0.748312
LJ           2.48885        -1.74904      -0.0111002
LJ           -1.6024         2.53748       0.0105018
LJ         -0.741572         2.55612       -0.837173
LJ        -0.0454301        -1.75817       -0.892267
LJ         -0.890292        -1.72907        0.140246
LJ         -0.106869         2.44858      -0.0346181
LJ          0.831212         2.54664       -0.878457
LJ           1.57099        -1.80757       -0.813193
LJ          0.730267        -1.76204        0.174986
LJ           1.63058        -2.53057      -0.0845328
LJ          -2.49044       -0.912698       -0.833053
LJ           -1.9703        0.218905       -0.773895
LJ           2.41608       0.0106785      -0.0679467
LJ          -1.70066       -0.888503      -0.0618659
LJ         -0.879776       -0.749324       -0.847206
LJ       -0.00889051      0.00647586       -0.804239
LJ         -0.893092      0.00110985      -0.0357976
LJ        -0.0454672       -0.702548       0.0171644
LJ          0.909292       -0.846964       -0.754974
LJ           1.67506       -0.182319       -0.832979
LJ          0.906394      -0.0427891       -0.125279
LJ           1.71387        -1.03949        -0.10125
LJ          -2.46822         1.05869       -0.864296
LJ          -1.72406         1.77596       -0.967935
LJ          -2.55304         1.77504       0.0957938
LJ          -1.71559        0.936301        0.151912
LJ         -0.879631        0.772175       -0.704996
LJ         -0.130122         1.74578       -0.988644
LJ         -0.892247         1.76049       -0.157074
LJ         -0.121477        0.970157     -0.00906775
LJ          0.665896         0.90928       -0.817944
LJ           1.72077         1.84228       -0.876167
LJ          0.697837         1.77793       -0.105202
LJ           1.67789        0.778017       0.0899249
LJ           2.50773         2.55079        0.952433
LJ          -1.62392         -1.7509        0.954514
LJ           2.33872        -1.69012         1.74436
LJ          -1.85293         2.51054         1.65334
LJ         -0.837994         2.44701        0.789221
LJ         0.0540196        -1.70351        0.879678
LJ         -0.870409        -1.71893         1.72095
LJ         0.0816093        -2.46319         1.87062
LJ           1.06158         2.48966        0.988758
LJ           1.69964        -1.78112        0.837197
LJ          0.918205        -1.56321         1.68717
LJ           1.68354        -2.55564         1.79775
LJ           2.44022       -0.583363        0.910029
LJ           -1.7805      -0.0142154         0.83103
LJ          -2.49109      -0.0176575         1.99138
LJ          -1.77062       -0.900391         1.73558
LJ         -0.690289       -0.886906        0.825075
LJ         0.0725945      -0.0734562        0.827849
LJ         -0.660395       0.0663954         1.73959
LJ        -0.0315458       -0.863758         1.62293
LJ          0.732138       -0.952927        0.765223
LJ           1.66786      -0.0225224        0.780316
LJ           0.88818       -0.136023         1.76253
LJ           1.72272       -0.866299         1.73623
LJ           2.45739         0.93142        0.850621
LJ          -1.77785         1.73448        0.803504
LJ          -2.52991         1.70943          1.7737
LJ          -1.74467        0.763854         1.70916
LJ         -0.892826        0.638515        0.835152
LJ        -0.0391382         1.61999         0.89701
LJ         -0.825118         1.71976         1.65895
LJ         0.0166629        0.776334         1.55826
LJ          0.881858        0.788123        0.817849
LJ           1.78004         1.78317        0.791948
LJ          0.809113         1.60783         1.66407
LJ           1.65306          1.0356         1.60807
