108
#Comment!
LJ           2.54101         2.55679         2.48228
LJ          -1.79191        -1.69972         2.49564
LJ          -2.50795        -1.74558         -1.5962
LJ          -1.76979        -2.45911        -1.79602
LJ         -0.956648         2.41954         2.50906
LJ       0.000392469         -2.0134        -2.50445
LJ         -0.911079        -1.56455         -1.6321
LJ         0.0686241         2.28438        -1.68003
LJ          0.993223         2.45239        -2.31059
LJ           1.78284        -1.72818         2.49583
LJ          0.960285        -1.73625        -1.67152
LJ           2.04252        -2.48953        -1.47961
LJ           2.45308       -0.787192         -2.4852
LJ          -1.79072       0.0326118         2.55428
LJ          -2.53195        0.191373        -1.76312
LJ          -1.63666       -0.567008        -1.35146
LJ          -1.19316       -0.878498        -2.46336
LJ         -0.129398       -0.252709        -2.43853
LJ         -0.790909        0.125929        -1.83315
LJ        -0.0752428       -0.963334        -1.76008
LJ            1.0512        -1.11316        -2.46535
LJ           1.61059       0.0806967         2.54672
LJ          0.742634      -0.0644422        -1.53213
LJ           1.71506       -0.828777        -1.70146
LJ          -2.48225         1.04324         2.31507
LJ          -1.79104         1.80414         2.53609
LJ          -2.52896         1.68496        -1.73732
LJ          -1.67925        0.962122        -1.86272
LJ         -0.710522          1.0791        -2.52431
LJ         0.0716365         1.85453         2.56033
LJ         -0.767834         1.70589        -1.73937
LJ         0.0479814        0.856306         -1.8798
LJ          0.855807        0.811702        -2.43769
LJ           1.76899         1.86405         2.42923
LJ          0.934795         1.62182        -1.55478
LJ            1.8268        0.803166        -1.75885
LJ          -2.48314         2.44097       -0.716145
LJ          -1.46034        -1.80877       -0.702998
LJ           2.54532        -1.76373       -0.202534
LJ          -1.67331         2.43557      -0.0795175
LJ         -0.719004         2.50969       -0.930068
LJ         0.0326246        -1.72788       -0.944343
LJ         -0.601103        -1.79296        0.108173
LJ         -0.190908         2.31004       0.0996316
LJ          0.878115        -2.46233       -0.935466
LJ           1.78265        -1.62927       -0.844277
LJ          0.693852        -1.95423         0.10285
LJ           1.64357        -2.36101      -0.0569548
LJ          -2.53997       -0.885219       -0.769294
LJ          -1.91293        0.133562       -0.682266
LJ           2.41527      -0.0291986      -0.0201692
LJ          -1.62537       -0.912088       0.0260249
LJ          -0.64803       -0.822488       -0.822886
LJ       0.000215144        0.190037       -0.924558
LJ         -0.774622      -0.0678813      -0.0431715
LJ         0.0708969       -0.796709        0.164574
LJ          0.785104       -0.854573       -0.777361
LJ           1.82737        -0.14251       -0.874318
LJ          0.736855       0.0451076       -0.158288
LJ           1.70308       -0.915527      -0.0643526
LJ          -2.39026         1.00286       -0.957154
LJ          -1.65864          1.7045        -1.04204
LJ           2.52043         1.58829       0.0430729
LJ           -1.9235        0.816045       0.0711924
LJ         -0.986435        0.728973       -0.873181
LJ        -0.0499272         1.54092       -0.830696
LJ         -0.857712         1.47233      -0.0652171
LJ         0.0194619        0.981164       0.0629607
LJ          0.828039         1.10494       -0.718295
LJ           1.74678         1.71219       -0.954594
LJ          0.872087         1.97886       0.0167575
LJ           1.82343        0.836898       -0.126775
LJ           2.48936        -2.49151        0.838332
LJ          -1.48482        -1.69749         0.69953
LJ           2.55133        -1.47601          1.6778
LJ          -1.96072         2.51369         1.55369
LJ         -0.743525        -2.51779         1.05335
LJ          0.140699        -1.75718        0.914603
LJ         -0.918061        -1.65753         1.75064
LJ          0.087066          -2.415         1.73868
LJ           1.00312         2.55418        0.944657
LJ           1.83209        -1.51769        0.751242
LJ          0.903431        -1.69295         1.66866
LJ           1.60474        -2.52607         1.81098
LJ            2.5176       -0.567357          1.0653
LJ          -1.83231      -0.0070459        0.774047
LJ           2.52099        0.100198         1.90169
LJ          -1.62338       -0.906675         1.46801
LJ         -0.789601       -0.888241        0.957644
LJ          0.109408      -0.0634874         1.02564
LJ         -0.879918        0.118663         2.08164
LJ          0.141028       -0.956331         1.67983
LJ          0.971621       -0.830958        0.810554
LJ           1.60079      -0.0727839        0.597181
LJ           0.70707       -0.106416         1.91568
LJ            1.6787       -0.835073         1.69816
LJ           2.47177        0.639805        0.781352
LJ          -1.45163         1.92636        0.761293
LJ          -2.52691         1.59222         1.48017
LJ          -1.57922        0.918546         1.64326
LJ         -0.858027        0.745931        0.683742
LJ          0.195028         1.59835        0.908132
LJ         -0.735687         1.68102         1.52828
LJ         0.0221618        0.919118         1.58478
LJ          0.837173         0.61402        0.896704
LJ           1.72426         1.64961        0.723771
LJ          0.877106         1.61546         1.71495
LJ           1.67761         0.79357         1.65732
