108
#Comment!
LJ          -2.44696        -2.45444          2.4837
LJ          -1.85101        -1.47852         2.50755
LJ          -2.36512        -1.54799         -1.8258
LJ          -1.50232        -2.47494        -1.80176
LJ         -0.856303         2.38202        -2.54583
LJ         -0.155849         -1.6079         2.48524
LJ          -1.02495        -1.54116        -1.82505
LJ         0.0738907          2.4881        -1.89415
LJ          0.919145        -2.45247        -2.56196
LJ           1.70525        -1.65104         2.44584
LJ           1.17515        -1.79872        -1.72202
LJ           1.89876         2.40426        -1.58761
LJ           2.50035       -0.612535         2.53124
LJ          -1.84059      -0.0319995         2.30251
LJ          -2.45881      -0.0412749        -1.80538
LJ           -1.5375       -0.579235        -1.60787
LJ          -1.10106       -0.742629         -2.5116
LJ        -0.0392717       -0.228249         -2.4293
LJ         -0.801255       0.0913784        -1.85641
LJ         0.0755951        -1.00449        -1.73093
LJ            0.7721        -0.94601         2.51722
LJ           1.74191      -0.0990484        -2.40142
LJ            0.7529        0.157239          -1.679
LJ           1.52853       -0.767902        -1.58315
LJ           2.56238        0.960851        -2.42853
LJ          -1.74118          2.0342         2.39679
LJ          -2.46939            1.71        -1.47605
LJ          -1.56825        0.723927        -2.04572
LJ          -0.48776        0.750619         2.54304
LJ          0.141146         1.67856         2.41483
LJ          -1.21101         1.70889         -1.6379
LJ        -0.0143123         1.07967        -1.68894
LJ            1.1199        0.987007         2.54621
LJ           1.78944         1.79904         2.56052
LJ          0.977033         1.82257        -1.86682
LJ           1.69927        0.828252        -1.67454
LJ           2.51156         2.43353       -0.703285
LJ          -1.47064        -1.70047       -0.847587
LJ          -2.38473        -1.63909      -0.0980445
LJ          -1.61263         2.51478        0.109853
LJ         -0.614993        -2.46612        -1.07757
LJ         0.0804169        -1.78511       -0.761809
LJ         -0.743454         -1.7504      -0.0683986
LJ        -0.0528129         2.35945        0.109926
LJ          0.709765         2.56213       -0.855096
LJ           1.90213        -1.62714       -0.948274
LJ          0.765813        -1.89268        0.153945
LJ           1.62726        -2.46751       0.0327279
LJ          -2.44283       -0.834788       -0.833751
LJ          -1.91119        0.114634       -0.970289
LJ          -2.38554        0.126828       0.0289827
LJ          -1.67569       -0.785449     -0.00312679
LJ         -0.813021        -0.79168       -0.820715
LJ         -0.182057        0.046969       -0.987435
LJ         -0.691696      -0.0876857        0.125939
LJ        -0.0386094       -0.819254        0.154945
LJ          0.937935        -1.21712       -0.726757
LJ           1.87303        -0.20014       -0.658549
LJ          0.770534       0.0444905       0.0831546
LJ           1.95621        -1.06783      -0.0198203
LJ           2.51779        0.820591       -0.802314
LJ          -1.79155         1.73071       -0.720211
LJ           2.45117         1.59962       0.0406489
LJ          -1.85193           1.082        0.186874
LJ          -1.05462        0.711324       -0.962794
LJ          0.184784         1.71749       -0.909838
LJ         -0.837429         1.68493       -0.145383
LJ         0.0539119        0.838005       -0.133842
LJ          0.889961        0.925401       -0.889418
LJ           1.73424         1.69215       -0.836403
LJ          0.956301         1.70213       -0.106891
LJ           1.57735          0.8746        0.117757
LJ          -2.52348         2.48594        0.607468
LJ          -1.51847        -1.85285        0.855343
LJ          -2.48367        -1.47045         1.62071
LJ          -1.93027        -2.33469         1.65975
LJ         -0.861586         2.39785         1.04804
LJ        -0.0200801         -1.5054         1.06669
LJ          -1.02105        -1.70011         1.80747
LJ          0.121486        -2.30237         1.76251
LJ          0.835884         2.38963        0.946168
LJ           1.69599        -1.46767         1.04026
LJ          0.866776        -1.62115         1.75826
LJ           1.83826        -2.47113          1.6119
LJ          -2.43566       -0.836899        0.725448
LJ           -1.5754       0.0645322        0.783929
LJ           2.44016      0.00296545         1.60335
LJ          -1.68783       -0.856545          1.5915
LJ         -0.889987       -0.847772        0.974074
LJ          0.165901       -0.125405        0.897402
LJ          -0.99015       0.0121195         1.78559
LJ          0.231431       -0.764823         1.71044
LJ          0.876196       -0.856861        0.621486
LJ           1.81744       -0.300865        0.753004
LJ          0.821407       0.0045799         1.77473
LJ           1.50915       -0.711252         1.81617
LJ           2.34191         0.93873        0.997717
LJ           -1.8096         1.82827         1.09546
LJ           2.55582         1.93411         1.68122
LJ            -1.844        0.795954         1.62628
LJ         -0.960272        0.893021        0.656214
LJ          0.381675         1.48457        0.754913
LJ         -0.774562         1.38631          1.7075
LJ          0.123344        0.823926         1.50526
LJ           1.18323        0.701078         1.01892
LJ           1.51767         1.70145        0.746918
LJ            1.0382         1.66548          1.7041
LJ           1.86145         1.13047         1.83918
