108
#Comment!
LJ         -0.790956         2.48517        0.453563
LJ          -2.22409        -1.47097       -0.638468
LJ        -0.0190283        -1.00229         1.47404
LJ          0.939674        -2.19833       -0.871193
LJ         -0.541234        -2.11264         1.36804
LJ           2.10124       -0.234933        0.523063
LJ          0.920961        0.936251       -0.264542
LJ           1.08474        -1.34082        -2.11813
LJ           1.79559        -2.34716         1.12675
LJ          0.753723        -1.22241       -0.651765
LJ          -1.69418        0.087257         2.07122
LJ          -1.01504         1.47688         2.56396
LJ          0.373957        0.395606         1.92417
LJ           2.24712          1.7763         0.85869
LJ          -2.16866          1.8383       -0.137372
LJ          -1.02679         1.41095       -0.561434
LJ          -1.39382        -1.96148         1.97591
LJ           1.38497         1.18593        -1.09414
LJ           1.07294       -0.188721         1.09502
LJ          0.120803         2.40314        -1.25903
LJ          0.696101        -1.55061        0.330213
LJ         -0.939987        0.876659        -1.73141
LJ         0.0522118         2.41682        -2.33654
LJ          -1.30839       -0.982524       -0.887156
LJ          0.474428        -2.14647         1.16144
LJ          -1.03356       -0.889086         1.86913
LJ          -2.51128        -2.28243        -2.29213
LJ          -0.87715        0.111508        -1.03494
LJ          -1.76093        0.585668       -0.900946
LJ         -0.232579        -1.63126         -0.8045
LJ         -0.376595      -0.0899437        -2.25112
LJ          -1.62502       -0.727721         1.18145
LJ          -2.08781       -0.968167         2.36885
LJ            1.7174         1.07663         1.84024
LJ           1.73611        -1.10614         1.22197
LJ           -1.2469         1.23563        0.476052
LJ           1.09568        -2.50896        0.175404
LJ          0.858803        -1.34479         1.91235
LJ          -1.89716        -2.40566          -1.243
LJ          0.310038        0.374323        0.561399
LJ         -0.796511        0.255051        0.345119
LJ           1.90734        -2.50173       -0.535145
LJ          -0.99962        -1.43871        -2.40518
LJ            1.0332         2.37135         1.75018
LJ            1.9422       -0.820406         2.49464
LJ          0.868416         1.64805          2.3898
LJ           1.43583        0.655248        0.763512
LJ          -1.88255         2.20905        0.931439
LJ          -2.28759       -0.441807       -0.897367
LJ         -0.252243        -1.79117         2.25023
LJ          -1.20093        -1.66354       -0.107037
LJ           -2.0481        -1.13777        0.284691
LJ          0.085048        0.185551        -0.47299
LJ           1.76174        -1.83019         2.32113
LJ          0.151473        0.996988        -2.12296
LJ          0.464383         1.10411         1.17628
LJ           1.90009        -1.22331     -0.00797106
LJ          -1.51031        -1.85801        0.947858
LJ           2.22095        0.257689       -0.750337
LJ          0.848673         1.71341        -1.70335
LJ           1.98945         2.12873         2.43045
LJ           1.69122       -0.788962        -1.02755
LJ         -0.985124         2.55995       -0.552397
LJ        -0.0950602         1.70508         2.15651
LJ           1.99219         -1.8156        -1.43205
LJ         -0.767544         1.89428        -1.52143
LJ           1.84827         1.67287       -0.168784
LJ          -1.17007           2.014         1.66343
LJ           2.34725        0.759179        0.186163
LJ         -0.698434       -0.715358       -0.181686
LJ          -1.79987       -0.122399      -0.0619015
LJ          -1.84389          2.2255         2.33341
LJ         -0.998423         -2.5381        -2.35852
LJ         -0.566832         1.13653         1.13322
LJ          0.386521       -0.628707        0.041786
LJ           2.55104       -0.334075         1.69304
LJ          -2.53602        -2.31373         1.81298
LJ           1.04756       0.0300011        -2.15792
LJ          -1.93622        -1.26648        -1.69976
LJ         -0.127203         1.68723        0.340472
LJ           1.52209       0.0187338         2.13354
LJ          -1.98577        0.505538        -2.03932
LJ         -0.438151       -0.803854        -1.53356
LJ         0.0542382         1.28868       -0.908782
LJ          0.113206        -2.38993       -0.199048
LJ          -2.02746         1.52985        -2.00682
LJ           2.43613        0.631956         2.34957
LJ            1.8433         1.04004        -2.03981
LJ         -0.289071        -1.54171         0.59177
LJ          -1.30628       -0.337538        -1.91926
LJ            1.2013         1.66482        0.720205
LJ         -0.811583        0.669049         2.04998
LJ           -2.4353        -1.42315         1.40945
LJ           2.52783         0.67092         1.23542
LJ          0.934325         2.01591       -0.644981
LJ         -0.959514        -1.94613        -1.42876
LJ          0.803222        0.361744        -1.15801
LJ           0.12853        -1.72098        -1.85573
LJ           1.23725      -0.0899897       -0.269282
LJ          -2.08445           1.351         1.85263
LJ          -2.54015         1.22047        -1.14149
LJ          -2.42585        -2.35368         0.38357
LJ          0.186099       -0.812517         2.48588
LJ           1.37843         2.56175        -1.96212
LJ         -0.515874       -0.111524          1.2679
LJ          -1.69829         0.27994        0.899006
LJ          0.658879       -0.695701        -1.52068
LJ           2.18849      0.00483318        -1.88634
