108
#Comment!
LJ           -2.3991        -2.41442         2.50901
LJ          -1.75581        -1.58469         2.52934
LJ          -2.35601        -1.57584        -1.76696
LJ          -1.51404        -2.46895        -1.82707
LJ         -0.815034         2.43708         2.56448
LJ         -0.171649        -1.59783         2.44825
LJ         -0.960111        -1.59592        -1.80964
LJ         0.0252432         2.46545        -1.91421
LJ          0.857642        -2.42697         2.55781
LJ           1.74397        -1.63406         2.45197
LJ           1.14048        -1.83817        -1.70446
LJ           1.90994         2.39854        -1.59113
LJ           2.48897       -0.688122         2.50697
LJ          -1.82888      -0.0671155         2.37831
LJ          -2.49933      -0.0750913        -1.86438
LJ          -1.61255       -0.601428        -1.64196
LJ          -1.06049       -0.684863        -2.52937
LJ        -0.0272855       -0.255467        -2.42125
LJ         -0.831882      -0.0125675        -1.77236
LJ          0.139188        -1.00583        -1.72976
LJ          0.824315        -0.97287        -2.56256
LJ           1.74161        -0.10249        -2.39967
LJ          0.778858        0.213884        -1.64623
LJ           1.54136       -0.787132        -1.62545
LJ          -2.50642        0.984178         -2.4606
LJ          -1.82569         1.91734         2.29693
LJ          -2.49656         1.67915        -1.50962
LJ          -1.70316        0.745741        -1.98824
LJ         -0.475305        0.705945         2.56078
LJ          0.106055         1.68695         2.35048
LJ          -1.19236         1.59455        -1.66556
LJ        -0.0372177         1.05807        -1.70001
LJ           1.14855        0.942582         2.55574
LJ           1.79081         1.78411        -2.53094
LJ           1.01849         1.83063        -1.93999
LJ           1.65809        0.829288        -1.70056
LJ          -2.55445         2.46001       -0.764176
LJ          -1.43552        -1.70638       -0.815783
LJ           -2.3711        -1.71633      -0.0668131
LJ          -1.54596         2.53887        0.161361
LJ         -0.626618        -2.49438        -1.12027
LJ         0.0681448        -1.75846       -0.732075
LJ         -0.755528        -1.77589      -0.0716125
LJ        -0.0615185         2.31027        0.143736
LJ          0.652246        -2.56386       -0.888163
LJ           1.95656        -1.61059       -0.959029
LJ          0.762965         -1.9208        0.232931
LJ           1.65323        -2.45014      0.00373461
LJ          -2.47302       -0.879437       -0.871934
LJ          -1.94412        0.119867       -0.883306
LJ           -2.4416         0.11502      0.00054818
LJ          -1.72661       -0.711649    -0.000446818
LJ         -0.810175       -0.838064       -0.825806
LJ         -0.184594       0.0110341       -0.969413
LJ         -0.693236      -0.0382749       0.0509627
LJ         0.0273677       -0.791545       0.0917929
LJ          0.961554         -1.2187       -0.783252
LJ           1.82232       -0.177206       -0.674364
LJ          0.838449        0.102334        0.117213
LJ            1.9458        -1.07621      -0.0210398
LJ           2.54608        0.923253       -0.766003
LJ          -1.77333         1.68927       -0.797575
LJ           2.43349         1.49875       0.0850662
LJ          -1.82048         1.07108        0.201393
LJ          -1.07252         0.71272        -1.00562
LJ          0.153337         1.70987        -0.86814
LJ         -0.836281         1.71136       -0.161434
LJ           0.10409        0.867683       -0.109473
LJ          0.911546        0.960187       -0.873834
LJ           1.77733         1.67964       -0.789244
LJ          0.997109         1.61816       -0.136695
LJ           1.58503        0.789067       0.0673715
LJ          -2.48057         2.42641        0.594005
LJ          -1.44924        -1.83265        0.874403
LJ          -2.49354        -1.51169         1.59234
LJ          -1.98666        -2.34907         1.58559
LJ         -0.847823         2.38652        0.962809
LJ        -0.0282372        -1.48628        0.995829
LJ         -0.984612        -1.67085         1.85726
LJ          0.158772        -2.31764         1.73513
LJ          0.813399         2.42583        0.929547
LJ           1.67709        -1.46717        0.976953
LJ          0.915131        -1.61495         1.77504
LJ           1.82564        -2.44826         1.62266
LJ          -2.48715       -0.882649        0.747969
LJ           -1.5977      -0.0368986        0.776361
LJ           2.43353      -0.0284702         1.65586
LJ          -1.63916       -0.804998         1.59177
LJ         -0.892821       -0.887391         1.03341
LJ           0.16743      -0.0909004        0.862209
LJ         -0.993239      -0.0467772         1.79129
LJ           0.21415       -0.791375         1.71781
LJ           0.89851        -0.92617          0.6469
LJ           1.83603       -0.334988        0.834669
LJ          0.842223       0.0472348         1.77473
LJ           1.55813       -0.794009         1.85643
LJ           2.32425        0.951202        0.975231
LJ          -1.80079         1.85867          1.1174
LJ           2.53287         1.93661         1.61004
LJ          -1.85942        0.829372         1.58529
LJ         -0.929018        0.889239        0.601099
LJ           0.37731         1.48489        0.808323
LJ          -0.83215         1.43302         1.64772
LJ         0.0600194        0.916854         1.52551
LJ           1.18631        0.749836         0.98289
LJ           1.52887         1.72416        0.785033
LJ            1.0842         1.67322         1.70487
LJ           1.89228         1.04362          1.8705
