108
#Comment!
LJ          -2.52649        -2.27981         2.36917
LJ          -1.64946        -1.64989         2.51171
LJ          -2.29141        -1.57348        -1.69263
LJ          -1.75049        -2.48542        -1.67974
LJ         -0.687109         2.34142          2.4808
LJ       -0.00184714        -1.88576        -2.52839
LJ          -1.15275        -1.55703        -1.73735
LJ         -0.077351         2.27807        -1.86602
LJ          0.855928        -2.53828         2.56323
LJ           1.70714        -1.66164         2.51295
LJ          0.853067        -1.88518         -1.6719
LJ           1.93858         2.45064        -1.82228
LJ           2.53061       -0.888889         2.32619
LJ          -1.77153        0.067573        -2.55508
LJ           2.43677       0.0716388        -1.78097
LJ          -1.82752       -0.589589        -1.67641
LJ           -1.1641       -0.766743        -2.39282
LJ        -0.0169157       -0.214147        -2.42374
LJ          -1.02186       0.0193997         -1.7199
LJ        -0.0181056        -1.04042        -1.74302
LJ           0.91736       -0.978035        -2.51939
LJ           1.57377      -0.0348668         2.53554
LJ          0.968031        0.130877        -1.75492
LJ            1.6528       -0.718195        -1.67838
LJ          -2.47725        0.971319        -2.54076
LJ          -1.72561         1.94543         2.35484
LJ          -2.52597         1.61028        -1.60467
LJ          -1.73369        0.837173        -1.81689
LJ         -0.528673        0.906073         -2.5369
LJ          0.171592         1.63794          2.3844
LJ          -1.19096         1.62765        -1.81312
LJ           0.13353         1.15519        -1.83885
LJ          0.911837        0.874975         2.54889
LJ           1.75708         1.71749         2.51927
LJ          0.993621         1.80175        -1.91537
LJ           1.73171         1.08479        -1.62502
LJ           2.55156           2.397       -0.735972
LJ           -1.4872        -1.79435       -0.821289
LJ          -2.28838        -1.79356      -0.0830072
LJ          -1.78026          2.4784       0.0988137
LJ         -0.628872        -2.47729        -1.03683
LJ         0.0762311        -1.57993       -0.845721
LJ         -0.813102        -2.06583      -0.0562645
LJ         -0.156982         2.30741        0.100777
LJ          0.881096          -2.523        -0.84222
LJ           2.04065          -1.703       -0.964072
LJ          0.808211        -1.82745        0.338117
LJ           1.70968          2.4831      -0.0215322
LJ           -2.3589       -0.952494       -0.738677
LJ          -1.91379       0.0039641       -0.779073
LJ          -2.47482       0.0812555        0.100962
LJ          -1.59396       -0.641072       0.0577312
LJ         -0.737884       -0.821314       -0.767133
LJ         -0.120556       0.0804515        -1.05221
LJ         -0.742701      0.00328265      -0.0878158
LJ       -0.00852188       -0.643636       0.0267854
LJ           1.04019        -1.24237       -0.843645
LJ            1.9247       -0.102335       -0.587245
LJ          0.878517       0.0526161        0.139463
LJ           1.98354        -1.04024     -0.00696793
LJ           2.49759        0.948436       -0.822994
LJ          -1.62536         1.73978       -0.862727
LJ           2.33885         1.66519      -0.0609646
LJ          -1.85068         1.00864         0.24091
LJ          -1.03107        0.666126       -0.834301
LJ         0.0627817         1.67256       -0.932692
LJ         -0.835355         1.51133        -0.27844
LJ        -0.0818636        0.898677        -0.23215
LJ           1.13757        0.825607       -0.806681
LJ           1.63795         1.71654       -0.760612
LJ          0.727661         1.86059        -0.19897
LJ           1.74558        0.819041      -0.0532383
LJ           2.40601         2.42142        0.733452
LJ          -1.30543         -1.8208        0.757009
LJ          -2.55564        -1.45294         1.53681
LJ          -1.90844        -2.38433          1.4844
LJ         -0.785705         2.49737        0.914392
LJ         0.0209642         -1.5068        0.946251
LJ         -0.871339        -1.81051         1.89293
LJ         0.0778431        -2.38104         1.75946
LJ          0.676299         2.45646         1.04876
LJ           1.71169        -1.60204        0.907679
LJ          0.936668        -1.73484         1.63249
LJ           1.75553        -2.54084         1.57396
LJ          -2.48808       -0.741108        0.709958
LJ          -1.47114      -0.0247458        0.838047
LJ           2.42551     -0.00717706         1.69533
LJ          -1.78023       -0.726373           1.668
LJ          -0.91225       -0.982131         1.08887
LJ          0.204377       -0.235953        0.982872
LJ            -1.009        0.112237          1.8328
LJ          0.249631       -0.903586          1.7796
LJ          0.939792       -0.878903        0.710433
LJ           1.80382       -0.173363        0.687425
LJ          0.653708       0.0308536         1.99423
LJ           1.54756        -0.82891         1.68542
LJ           2.24239        0.839163        0.837915
LJ          -1.66122         1.88765          1.0154
LJ            2.4281         1.71418         1.57695
LJ          -1.85031        0.794784         1.42067
LJ         -0.774112        0.786529        0.573767
LJ          0.337257          1.5189        0.801788
LJ          -1.03632         1.49577         1.59484
LJ         0.0390795        0.894122         1.54205
LJ           1.16784          0.6751         1.01436
LJ           1.47384         1.72741        0.660196
LJ          0.997327         1.54529         1.67775
LJ           1.76389        0.940932         1.91111
