108
#Comment!
LJ           1.68618         -1.3307         0.13357
LJ           2.26145       -0.720557        0.727415
LJ          0.900714       -0.509679         2.10922
LJ           1.36568      -0.0846073        0.168516
LJ           2.26858        0.666442          1.1592
LJ          -2.49598         2.44241       -0.233762
LJ           2.00499        0.410428        -1.74743
LJ           2.44743        0.392241        0.242617
LJ           1.08082         1.92114         1.92193
LJ         -0.955317        0.359052        -2.26141
LJ          0.333562       -0.454416         -2.0751
LJ          0.235058         1.10041         1.77811
LJ          0.707044        -1.42437       -0.519545
LJ           2.36903         2.35759         1.78334
LJ          -2.45654       -0.135895         1.64315
LJ          0.439999       -0.378701       -0.610029
LJ         -0.346975          2.3602         2.41801
LJ          -1.60026        0.302963          1.1109
LJ         -0.158377         -1.8059        0.515516
LJ          -1.73362        0.308426       -0.435598
LJ            2.0957         1.26432         2.19101
LJ         -0.747259          2.3911        -1.08129
LJ          -0.28162         1.35741       -0.509938
LJ         -0.294178        0.304407         -1.0944
LJ          0.529801        -2.42339        -1.99979
LJ          -2.11989         2.36268        0.880037
LJ           1.64856        -1.83277        -1.76498
LJ           1.72902        -1.18665       -0.990472
LJ           1.16331         2.35725         0.96084
LJ          -1.86799         -2.1282        -2.43537
LJ            1.2992        -2.16565           1.783
LJ            2.2158        -1.84616         2.28963
LJ          -2.18405        -0.57155        -1.43255
LJ         -0.237235        -1.66559        -1.99812
LJ         -0.604089        -1.14539        -0.20457
LJ          -1.36734        -1.72108        0.622456
LJ           2.06806         1.89093        0.862773
LJ         0.0421289     -0.00693712          2.1823
LJ           1.14754        -1.36018        -2.52474
LJ           1.60317        0.943701        0.436037
LJ           1.29718         2.36516        -1.40938
LJ          -1.72763        -0.48971        0.482686
LJ           1.01942        0.261894        -1.47953
LJ          -1.77439         1.02207        -2.33738
LJ           2.03028        -1.88028         1.13613
LJ          -1.09966        -1.71925        -1.36005
LJ        0.00942446        0.724419        -2.18762
LJ           1.56516      -0.0125331         1.45036
LJ           1.06116        -1.18509         1.14366
LJ          0.432481        -1.96146         2.16744
LJ          -2.36949        -1.02523        -2.49322
LJ        -0.0691963         1.29778        0.600494
LJ          -2.46884         2.31058        -2.14109
LJ          0.385352         2.20049       -0.933461
LJ           1.99656        0.299081         2.28225
LJ            -1.719         2.24503         -1.2187
LJ         -0.981387          2.2757        0.723121
LJ          -0.22202        -1.00636        -1.23765
LJ           1.92278        -2.08543       -0.700159
LJ           1.83154         1.57934        -1.99077
LJ          -1.46047        -2.20901         1.68208
LJ        -0.0238159       -0.855869         1.67983
LJ          -1.11094         1.07526        0.556426
LJ          -2.07529       0.0656466         2.52804
LJ           2.51735       -0.751605       -0.288564
LJ           2.36474        0.227257       -0.865705
LJ         -0.526263       0.0965526     -0.00580773
LJ          0.621226        0.256183         1.14786
LJ          -0.19369         -1.9885       -0.571569
LJ           -1.7287        0.237112        -1.43225
LJ        0.00294813         2.08072         1.24342
LJ          -1.25412         1.29677        -1.07301
LJ           1.62066         2.49791        -2.42137
LJ           2.49454         1.34933       -0.111731
LJ          -2.28986        -1.87172        -1.32414
LJ         -0.602068       -0.755712        0.677926
LJ         -0.681244         1.39071         2.49626
LJ          -1.01765          -0.349       -0.970793
LJ          -1.42539        -0.94637         1.43976
LJ          -0.28474         2.31277       0.0548873
LJ         -0.868699       -0.740656        -2.19053
LJ          0.511511        0.549672       -0.149965
LJ          -2.33877        -1.61837        0.124705
LJ          0.843421         1.32107        0.951818
LJ           -2.2919         1.34341        -1.12653
LJ           -1.7631         2.05608          2.0169
LJ           1.52437        -0.60742        -1.89416
LJ          0.899028        0.499472         2.54449
LJ          0.398534       -0.722652        0.494555
LJ          0.938777        -2.34613      -0.0717445
LJ          -2.26332        -1.48585         1.65136
LJ         -0.520354        0.146878         1.40063
LJ          -1.21792         2.03066        -2.06955
LJ         -0.804183         -1.7028         2.28042
LJ          -1.68225        -1.23658       -0.636252
LJ          -2.03496         1.42233        0.989879
LJ           1.46564         1.34229       -0.961478
LJ          0.796583         1.67811        -2.25222
LJ           1.78328        -1.01572         1.86956
LJ          -1.18216       -0.312659         2.11157
LJ          0.504775          1.2242        -1.22538
LJ           1.02292         1.69823      0.00723249
LJ          -1.32109        -2.34832       -0.307145
LJ          -1.68266         1.84024      -0.0782605
LJ           2.25791         2.09721        -1.21267
LJ         -0.852242         1.47265         1.39894
LJ          0.722546        -1.35325        -1.56503
LJ         -0.181881         1.91903        -1.77103
