108
#Comment!
LJ          -2.51259        -2.28927         2.55487
LJ          -1.70582        -1.45625         2.55538
LJ          -2.39055        -1.49509        -1.76145
LJ          -1.74466        -2.48244        -1.75586
LJ         -0.809227         2.37215        -2.42126
LJ         -0.162791        -1.47399         2.40679
LJ         -0.896184        -1.41044        -1.93126
LJ         0.0883592        -2.45754        -1.96082
LJ           1.01054        -2.46667        -2.47275
LJ           1.64933        -1.55305         2.45508
LJ           1.06315        -1.74801        -1.76051
LJ            1.9801         2.56065        -1.62107
LJ           2.55413       -0.760519        -2.44261
LJ          -1.88413      -0.0387525         2.27835
LJ           2.55243       0.0515545        -1.58742
LJ          -1.59695       -0.509323        -1.59123
LJ         -0.790092       -0.630427          2.5484
LJ          0.219271      -0.0378088        -2.34583
LJ          -0.72619       0.0937782        -1.75426
LJ          0.128849       -0.883511        -1.52731
LJ          0.716422       -0.964784        -2.47991
LJ           1.68687       0.0730419        -2.41805
LJ          0.833863        0.287599        -1.60969
LJ            1.5165       -0.680243        -1.58106
LJ           -2.5585        0.921976        -2.37287
LJ           -1.8338         1.95149         2.41828
LJ          -2.52338         1.70715        -1.58839
LJ          -1.60078        0.603475        -2.13829
LJ         -0.535324        0.831442         2.49872
LJ         0.0599546         1.78813         2.44262
LJ          -1.27577         1.67961        -1.63293
LJ        -0.0952626        0.984573        -1.58236
LJ          0.980099        0.977276        -2.53507
LJ           1.71931         1.96821        -2.52827
LJ          0.965178          1.8315        -1.88865
LJ           1.69316         1.07162           -1.81
LJ           2.55249        -2.53117       -0.717893
LJ          -1.37525        -1.62347       -0.766496
LJ           -2.2354        -1.60561     -0.00424155
LJ          -1.69769         2.46266        0.244879
LJ         -0.731521        -2.52918        -1.07145
LJ          0.121434        -1.88409       -0.679869
LJ         -0.716974        -1.82655    -0.000696742
LJ         0.0287741         2.37192        0.167916
LJ          0.974093        -2.44289       -0.917924
LJ           1.83903        -1.57042       -0.943983
LJ          0.762531        -1.96451        0.220312
LJ           1.74919        -2.53335       0.0269065
LJ          -2.31138       -0.779975       -0.815844
LJ           -1.9049        0.213142       -0.958466
LJ          -2.38726       -0.031572       -0.042645
LJ          -1.57373        -0.64206       -0.119982
LJ         -0.727427       -0.718446       -0.856172
LJ         0.0308494      -0.0792046       -0.920739
LJ         -0.670824       -0.117735      0.00633912
LJ         0.0190338        -1.05554       0.0939289
LJ           1.03928        -1.09576       -0.602438
LJ           1.87718       -0.249822       -0.637717
LJ           0.75984       0.0689234       0.0312483
LJ           1.90756        -1.01369        0.124195
LJ             2.361        0.828672       -0.737358
LJ          -1.76826         1.67373       -0.736324
LJ           2.44919         1.63957      -0.0677016
LJ          -1.72275        0.956844        0.133206
LJ         -0.952353        0.789452        -0.99652
LJ         0.0673228         1.76382       -0.870142
LJ         -0.762343         1.66743       -0.113553
LJ          0.119848        0.917559       -0.190953
LJ           0.82931         1.02603       -0.990316
LJ           1.66169         1.74081       -0.793482
LJ          0.835976         1.81942       -0.164079
LJ           1.69294        0.801665       0.0598495
LJ           2.44418         2.43361        0.722782
LJ          -1.41704        -1.83022        0.862019
LJ           2.46478        -1.50528         1.62974
LJ          -1.92459        -2.38237         1.68041
LJ         -0.803385         2.45703        0.955328
LJ        -0.0736467        -1.50987         1.10773
LJ         -0.903005        -1.64066         1.76744
LJ       -0.00484093        -2.32485         1.78557
LJ          0.718492         2.46055        0.877241
LJ           1.62792        -1.63398        0.971762
LJ          0.729375        -1.52655         1.70123
LJ           1.68817        -2.55757         1.49215
LJ          -2.39123        -0.81159        0.855759
LJ          -1.78029        0.184725        0.806959
LJ           2.32541        0.047473         1.71363
LJ          -1.63927       -0.810514         1.67064
LJ         -0.904189        -0.89454        0.905356
LJ          0.123172      -0.0552173        0.875635
LJ           -0.9686      -0.0686209         1.65152
LJ         0.0330044       -0.735935         1.79624
LJ          0.987415       -0.884362        0.446912
LJ           1.72997       -0.195608        0.829153
LJ          0.885146      -0.0426031         1.76053
LJ            1.5419       -0.799274         1.73445
LJ           2.30906        0.932638         1.05615
LJ           -1.8831         1.60498        0.990602
LJ           2.45185         1.91642         1.61808
LJ          -1.71511        0.839346         1.59176
LJ         -0.933008        0.892291        0.829786
LJ          0.291089         1.45202        0.738623
LJ         -0.692199         1.45659         1.67568
LJ         0.0843025        0.635865         1.66035
LJ           1.11533        0.702708         1.07052
LJ           1.58186         1.76066        0.758381
LJ          0.873308         1.80493         1.61974
LJ           1.81743        0.985078         1.93597
