108
#Comment!
LJ          0.402415        -1.85617        -1.15487
LJ           2.30659       -0.769084        0.490391
LJ         -0.134614         1.78378        0.232863
LJ          -1.42096        -1.82441         2.03429
LJ          -2.35906        -0.55034         1.67034
LJ          0.589575        -1.99188         1.84036
LJ         -0.531554           0.201      0.00123739
LJ          0.307897        -1.30604        -2.41166
LJ         -0.215595        0.217094        -1.14865
LJ          0.515376         2.50179        -2.55415
LJ         0.0690855        -2.29115         0.38618
LJ          -0.33744        -1.03776         1.69185
LJ           -1.0836        -2.49018      -0.0764802
LJ          -1.79121        0.851085         1.97857
LJ           1.51212       -0.393132         2.09865
LJ           1.26736        -1.46851        -1.23219
LJ           1.79233         1.60957       -0.213053
LJ          0.851794         0.59512        -1.08221
LJ          -1.01865         2.27729         2.17738
LJ          0.933083         1.55634        -2.46343
LJ           1.23948        -1.37967         2.43346
LJ          0.508618         2.12343        -1.58658
LJ          0.423246       -0.363504        -2.51555
LJ            1.7898      -0.0550107         1.12798
LJ           2.00121        -2.27681        -1.59979
LJ           1.85808         2.14058         1.19938
LJ           1.43209         2.52463         2.03227
LJ         -0.711484        0.778061        -2.33814
LJ         -0.249814         1.62563         2.48957
LJ           1.62715        -1.10928       -0.109616
LJ          -1.21788        0.653493         1.12291
LJ           -1.0938        -2.31708         1.00551
LJ          0.985662         2.50738       -0.657259
LJ          -1.73982         1.33458       -0.939361
LJ          -2.28813        -1.40902        -0.23652
LJ          -2.51886         1.33026         1.60193
LJ         -0.344312        -2.10596         2.08488
LJ           2.52239       -0.194308        -2.52489
LJ        -0.0929132         2.47319       -0.614279
LJ        -0.0150188        0.730718        0.697478
LJ         -0.447788        -1.63703       -0.354177
LJ          -1.25028       -0.467093         1.33118
LJ         -0.966406        -2.32749        -1.29748
LJ          -2.28777         2.33847         1.59526
LJ           1.13703        -1.69225        0.796217
LJ           1.91814        -1.97003       -0.448674
LJ          -1.82846        -1.30435        -2.26715
LJ          0.747008         2.46524         1.10082
LJ          -2.03052        -2.21972        0.432485
LJ         -0.359107        0.193205         1.93467
LJ          -2.31004        0.391813         1.07512
LJ           2.17878        -1.67326        0.714989
LJ          0.489492        0.582026         2.22648
LJ          -1.47846         1.85178         1.21029
LJ           0.98043         1.52736        0.585105
LJ         -0.785548       -0.313381        -1.92261
LJ          -1.91875         1.83741         2.49037
LJ         -0.511586         1.96624        -1.67566
LJ         -0.793582        -1.26845        -2.36083
LJ          -1.83155       -0.288562       -0.589211
LJ           2.49532        -1.74433         1.73868
LJ          -1.99855        -1.31344         1.05038
LJ          0.254856         1.28421         1.53363
LJ           1.17139       -0.295205       -0.556513
LJ          -1.43839        0.680446       0.0717535
LJ          -0.50299         -1.0826        -1.25445
LJ         -0.219088        -1.34067        0.633019
LJ           1.16335        0.653995        -2.03669
LJ          -1.31651        -1.00711        0.262886
LJ           2.15753         1.14839        -1.10872
LJ           2.42781         0.84864        -2.55942
LJ           1.81173        -1.03268         1.41435
LJ           2.56215         0.85356       0.0223607
LJ           1.53727         -2.5254        0.332137
LJ          0.179074         1.01837        -1.88151
LJ           2.53759         1.92331        0.503477
LJ          0.540162       -0.711572        -1.34171
LJ           1.88935        0.131439        0.132204
LJ          -1.79442       -0.270258         -1.7148
LJ          -1.91075       -0.220647        0.412232
LJ            2.2529       -0.330458       -0.769036
LJ          -0.31056       -0.317137        0.931846
LJ          -2.48366         2.21554        -0.71198
LJ           1.85457       0.0558029        -1.68574
LJ         -0.160824         1.18531       -0.671813
LJ         -0.186636        -2.16759        -1.92761
LJ           2.33506        -1.11976        -1.41004
LJ          0.682905       -0.793437         1.47241
LJ            -1.586         -2.4484        -2.08245
LJ          -1.25943         0.41517        -1.01385
LJ          0.736488       -0.639865        0.318258
LJ          -2.08024        -1.91736        -1.45145
LJ          -2.51889        -2.28712        -2.53066
LJ           1.84714         1.16596        0.734639
LJ           2.29436        -1.19295        -2.47133
LJ          0.980772        0.611619         1.19656
LJ            1.5733         1.81142        -1.64745
LJ          0.879241        0.540585       0.0405523
LJ          0.571324        -1.40788       -0.299154
LJ           -1.7297        0.716874        -1.98757
LJ         -0.172766         2.18974         1.38111
LJ          -1.65955         1.72342        0.183233
LJ          0.762454         1.52708       -0.400959
LJ           1.55666        0.816451         2.03176
LJ          -1.40364       -0.284057          2.4393
LJ           2.03391         1.84387         2.56381
LJ          -2.36658         1.94292        -1.76207
LJ          -1.62662        -1.05816        -1.18322
