108
#Comment!
LJ          -2.39011         -2.4169         2.51018
LJ          -1.75622        -1.58815         2.51949
LJ          -2.36547        -1.56845         -1.7611
LJ          -1.51642        -2.46972        -1.82389
LJ         -0.818023         2.43106         2.56181
LJ         -0.167829        -1.59427         2.44342
LJ         -0.963979        -1.59679         -1.8084
LJ         0.0245219         2.46002        -1.91394
LJ           0.85719        -2.42228         2.55554
LJ             1.737        -1.63579         2.44078
LJ           1.13199        -1.83982        -1.71134
LJ           1.90457         2.39622        -1.58636
LJ            2.4888       -0.694273         2.51243
LJ          -1.82126       -0.054434         2.38248
LJ          -2.50274      -0.0851946        -1.86446
LJ          -1.61229       -0.605556        -1.64591
LJ          -1.05505       -0.679623        -2.52397
LJ        -0.0237527        -0.25668        -2.41971
LJ         -0.831802     -0.00923658        -1.77548
LJ          0.135259        -1.00741        -1.73351
LJ          0.824458       -0.971494        -2.55694
LJ            1.7362        -0.10429        -2.39491
LJ          0.785742        0.204486        -1.64598
LJ           1.54559       -0.785979        -1.62233
LJ          -2.50895        0.984498        -2.46494
LJ          -1.82442         1.92353         2.29441
LJ          -2.49651         1.68236        -1.50463
LJ          -1.69799        0.744464        -1.98607
LJ         -0.470172         0.70473         2.55713
LJ          0.104943         1.68265         2.35042
LJ          -1.18898         1.59375        -1.66419
LJ        -0.0330864         1.05972        -1.70443
LJ           1.14975        0.943096         2.55615
LJ           1.79058         1.78084        -2.53594
LJ           1.02323          1.8384        -1.94147
LJ           1.64813        0.832182        -1.70504
LJ          -2.55034         2.45936       -0.770085
LJ          -1.43578        -1.70233       -0.817195
LJ          -2.37292        -1.71512      -0.0609052
LJ          -1.54206          2.5483        0.160071
LJ         -0.629916        -2.49537        -1.12306
LJ         0.0686233        -1.75793       -0.723703
LJ         -0.759077        -1.77186      -0.0691126
LJ        -0.0646601         2.31138        0.144149
LJ          0.650554        -2.56138       -0.885052
LJ           1.95657        -1.62003       -0.959583
LJ          0.758921        -1.92453        0.229707
LJ           1.64742        -2.44678      0.00233315
LJ          -2.47997       -0.881048       -0.877359
LJ          -1.94334        0.120276       -0.890936
LJ          -2.44762         0.12043     9.19836e-05
LJ          -1.72721       -0.714264      0.00228048
LJ         -0.814224       -0.836309       -0.830298
LJ         -0.185455      0.00875328       -0.965814
LJ         -0.694309      -0.0363175       0.0554441
LJ         0.0314435       -0.796976       0.0974404
LJ          0.966458        -1.22264        -0.78194
LJ           1.81443       -0.176146       -0.670762
LJ          0.838193        0.107406        0.114536
LJ           1.95079        -1.07805      -0.0229186
LJ           2.54605        0.923524       -0.764718
LJ          -1.77125         1.69138        -0.79763
LJ           2.42935         1.50538       0.0813108
LJ          -1.81758         1.07103        0.197514
LJ          -1.07559        0.709334        -1.01339
LJ          0.146425         1.71455       -0.875261
LJ         -0.829789          1.7111       -0.166301
LJ          0.104896        0.862054       -0.111998
LJ          0.911324         0.96199       -0.875866
LJ           1.77268         1.67949       -0.780319
LJ            1.0008         1.61646       -0.138406
LJ           1.58979        0.792062        0.077518
LJ          -2.48045         2.43092        0.594821
LJ          -1.44224        -1.84051        0.880561
LJ          -2.48972        -1.51706         1.59785
LJ          -1.98528        -2.34889          1.5824
LJ         -0.842059         2.38394        0.963459
LJ        -0.0323506         -1.4902         1.00172
LJ         -0.975768        -1.67018         1.85617
LJ          0.162042        -2.31475         1.73544
LJ          0.816223          2.4255        0.935863
LJ           1.67693        -1.46286        0.975971
LJ          0.916053        -1.61977         1.77545
LJ           1.82525        -2.44607         1.62933
LJ          -2.48582       -0.891044        0.747666
LJ          -1.59872      -0.0374455         0.78293
LJ           2.43111      -0.0240325         1.66465
LJ          -1.62706       -0.805931         1.59273
LJ         -0.894421        -0.88928         1.03494
LJ          0.165222      -0.0965204        0.853037
LJ          -1.00087      -0.0449228         1.78808
LJ          0.219328       -0.788964         1.72106
LJ          0.895982        -0.92684        0.648335
LJ           1.83667        -0.32826        0.826614
LJ          0.848172       0.0435349         1.76962
LJ           1.55855       -0.802441         1.85916
LJ           2.32428        0.951438        0.972913
LJ          -1.80035         1.86156         1.11651
LJ           2.53253         1.94115         1.60411
LJ          -1.85257        0.834173         1.58869
LJ         -0.935282        0.886566        0.608264
LJ          0.382604         1.48504        0.802897
LJ         -0.829123         1.43521         1.64606
LJ         0.0674223        0.917915         1.53404
LJ           1.18616        0.748843        0.983612
LJ           1.53204         1.71396        0.786621
LJ           1.08796         1.67315         1.70629
LJ           1.89107         1.04037         1.87609
