108
#Comment!
LJ          -2.48384        -2.40356        -2.56025
LJ          -1.76011        -1.46834         2.50803
LJ          -2.23251        -1.51941        -1.75357
LJ          -1.62038        -2.37276        -1.84779
LJ         -0.782315         2.29486        -2.44516
LJ        -0.0920371          -1.571         2.46253
LJ         -0.949125        -1.54314        -1.96918
LJ         0.0507726         2.53218        -1.88129
LJ           1.03294        -2.32805        -2.39149
LJ           1.69929        -1.58669         2.43662
LJ           1.19879        -1.68657        -1.64715
LJ           1.90632         2.47671        -1.58585
LJ           2.39624       -0.631902        -2.55755
LJ          -1.78576      -0.0633281         2.29612
LJ          -2.48766      -0.0993616        -1.73125
LJ          -1.48932       -0.685373        -1.74561
LJ          -0.93076       -0.718158        -2.55403
LJ         0.0581968       -0.161133        -2.47839
LJ         -0.823957       0.0926711        -1.75636
LJ          0.163387       -0.968155        -1.67559
LJ          0.785277       -0.934569        -2.48016
LJ           1.64062       0.0241355        -2.41635
LJ           0.79965        0.168175        -1.70561
LJ           1.60008       -0.613282         -1.5535
LJ          -2.54012        0.853435        -2.42857
LJ          -1.83698         1.97796         2.40181
LJ          -2.48724         1.70562        -1.60568
LJ          -1.56533        0.783545        -2.03935
LJ          -0.51592        0.697228         2.52671
LJ         0.0357119          1.7568         2.34215
LJ          -1.31049         1.73735        -1.74267
LJ         0.0565857        0.977577        -1.69195
LJ           1.08601         1.05891        -2.50362
LJ           1.69025         1.88611         2.52368
LJ          0.964444         1.90754         -1.8653
LJ           1.84043        0.902433         -1.7655
LJ          -2.51433         2.55687       -0.724219
LJ          -1.43972         -1.6684       -0.918031
LJ          -2.31774        -1.65929       -0.141234
LJ          -1.61927         2.34405       0.0929758
LJ         -0.684437        -2.44725        -1.01028
LJ         0.0789262        -1.79495        -0.67226
LJ         -0.693161        -1.77723       0.0144045
LJ         0.0198123          2.3565        0.135656
LJ          0.771721         2.46601       -0.904109
LJ           1.93137        -1.59585       -0.934911
LJ          0.798403        -1.84644        0.212036
LJ           1.74761         -2.4498       0.0581769
LJ           -2.3666        -0.79365        -0.87292
LJ          -1.81122        0.133183       -0.956607
LJ          -2.41812       0.0257522      -0.0144264
LJ          -1.61159       -0.697231      -0.0344568
LJ         -0.745716        -0.76817       -0.728596
LJ        -0.0529404        0.114262        -1.02418
LJ         -0.664005      -0.0410658        0.154881
LJ         -0.070306       -0.903068        0.185061
LJ            1.0187        -1.09285       -0.788561
LJ           1.80414       -0.252893       -0.610681
LJ          0.804498        0.101029        0.164551
LJ           1.96574        -1.05991      0.00208815
LJ            2.4592        0.781593       -0.789512
LJ          -1.83865         1.72521       -0.685943
LJ           2.51823         1.71389      -0.0533481
LJ          -1.77775        0.922872        0.106606
LJ          -1.05105        0.827298       -0.997385
LJ         0.0474827         1.68189       -0.816857
LJ         -0.772381         1.67908       -0.141316
LJ         0.0613829        0.873841       -0.169638
LJ          0.865259        0.951777       -0.903061
LJ           1.60884          1.7264       -0.846599
LJ          0.947073         1.70532      -0.0978781
LJ           1.61165        0.793621       0.0960957
LJ           2.50038         2.42521        0.669387
LJ          -1.44818        -1.84143        0.795821
LJ           2.54591        -1.41096         1.59505
LJ          -1.94607        -2.34867         1.63216
LJ         -0.882819         2.43147        0.993546
LJ        -0.0174332         -1.4709         1.11924
LJ         -0.979248        -1.69679         1.78128
LJ         0.0407736        -2.30032         1.72947
LJ          0.733282         2.40286        0.905249
LJ           1.69089          -1.527         1.09293
LJ          0.775368        -1.68604         1.76578
LJ           1.72912        -2.52785         1.45815
LJ          -2.36656       -0.781801        0.736264
LJ          -1.61872        0.088331        0.771453
LJ            2.4225       0.0238208         1.63372
LJ          -1.73935       -0.894455         1.58844
LJ         -0.820321        -0.83039         1.01523
LJ           0.13522       -0.201322        0.857997
LJ         -0.933444     -0.00565424         1.83781
LJ          0.199071       -0.750267           1.771
LJ          0.968704       -0.893708        0.582113
LJ           1.71498       -0.352091        0.783061
LJ          0.831956       0.0270443          1.7183
LJ           1.48452       -0.789091         1.76587
LJ            2.4213        0.937348         1.08673
LJ          -1.87845         1.65722        0.979832
LJ           2.42415         1.88401         1.52625
LJ          -1.73133        0.861596         1.70455
LJ          -0.86189        0.952388        0.789034
LJ          0.376459           1.391        0.727807
LJ         -0.682477         1.47893         1.72938
LJ         0.0981482        0.802229         1.68268
LJ           1.16531        0.581817         1.02897
LJ           1.54175         1.80109         0.69665
LJ          0.955748         1.70641          1.7222
LJ           1.86432         1.05838           1.906
