108
#Comment!
LJ         -0.110355        -2.03454        -1.90052
LJ           1.96459      -0.0506704        0.720565
LJ       -0.00714716         1.14515        0.238266
LJ          -2.36187         2.38683         1.75092
LJ          -2.25118        -1.72619        -2.27525
LJ           1.20125         -2.3409         1.38227
LJ          -1.44276        0.155622       -0.122571
LJ         -0.571926        0.167027         1.79282
LJ          -0.58089        -1.42176        -1.10816
LJ          0.885191        -2.29099        -2.30751
LJ          -1.32378        -2.33585       -0.500209
LJ         -0.252097         1.12918        -1.89363
LJ         -0.687263         1.71177       -0.676515
LJ          -1.17811        0.950921        -2.39598
LJ           2.25377       -0.927237        -1.84004
LJ           1.08414       -0.657732       0.0662055
LJ          0.990748         1.68148        -1.12855
LJ         0.0955646        0.159839        -2.12363
LJ          -1.56475         1.90435         2.12988
LJ          0.883634        0.961831        -1.99074
LJ          0.453695        -1.09321        -1.99825
LJ         -0.726035         2.24042        -2.09068
LJ         -0.977776       0.0289172        -2.00524
LJ           0.10335        0.639256         1.08877
LJ           1.59589        0.860743        -1.08109
LJ           2.19923          1.8654        0.523783
LJ            2.0485        -2.25491         2.41174
LJ          -1.05006       -0.829602       -0.323174
LJ          0.800417         1.48769         1.69737
LJ           0.67824        -1.48621        0.804832
LJ          -1.36086        0.574401         1.30327
LJ         -0.873708         2.31665         0.45378
LJ         -0.409927        -2.40298       -0.985275
LJ          -2.41587        -0.32759      -0.0358365
LJ          -2.05165        -1.57871         1.50988
LJ          -2.29654         1.04036         1.81404
LJ           -1.8422        -2.44355        0.898757
LJ           2.10523      -0.0973854         1.75764
LJ          -1.28877        -1.95335        -1.70723
LJ        -0.0241936       -0.457045         1.04942
LJ         -0.799099        -1.38699         1.15376
LJ           -1.2107       -0.526706        0.740208
LJ          -1.87618         2.16138        -1.01019
LJ           1.63859         2.26119       -0.538598
LJ           1.43645        -1.78295      -0.0839585
LJ          0.453031        -1.52928       -0.482402
LJ         -0.746712       -0.988034        -2.01918
LJ           1.79914         1.51311         1.52059
LJ           1.72527       -0.964944       -0.834295
LJ          -2.07812        0.639984       -0.629108
LJ          0.993574       -0.451001         1.20994
LJ          -1.84259        -1.48493        0.343349
LJ         -0.552785         1.37526         1.98213
LJ          -2.00913         2.20316         -2.0805
LJ          -0.48189        -1.98044      0.00819405
LJ          -1.58073        -2.21855          2.3098
LJ           2.35901         1.61211        -1.58464
LJ         -0.547963        0.423335        -0.99265
LJ          -1.80458       -0.565679         1.71439
LJ          -2.41209         0.62087        0.665608
LJ           2.07908         -2.2346        0.838251
LJ           2.55373       -0.992475         2.29321
LJ           1.23101        0.625548         1.16915
LJ           1.73957      0.00226884       -0.537906
LJ           -1.9112         1.45111        0.955094
LJ           0.49112        -1.61483         2.09598
LJ         -0.652236        -1.33925         2.14504
LJ          0.433827         1.83898        -2.44731
LJ          -2.46348         -2.4888       -0.235997
LJ          0.620942        0.285588       -0.722641
LJ           -2.4908        0.587161        -1.72922
LJ           1.70275        -1.18429        0.875359
LJ           1.73755        0.922682        0.170702
LJ          0.697793        -2.38888        0.162071
LJ          -1.37261         1.20613        -1.35074
LJ          0.807966         1.17755       -0.279463
LJ          0.284474          0.6851         2.12745
LJ         -0.105157        -1.05892        0.190384
LJ            -1.665       -0.692883        -2.36163
LJ          -2.36197        0.122541          2.4759
LJ           2.37215        -1.33996       0.0251184
LJ          0.177921       -0.631776         2.06303
LJ          -1.90296         1.70674      -0.0732707
LJ           1.07219       0.0321652         2.51136
LJ            0.1406         1.12172       -0.919659
LJ         -0.168727         2.54884         2.20864
LJ          -1.45304       -0.275149        -1.19918
LJ           1.36994        -1.18582         1.78851
LJ           1.88225        -2.52853        -1.67263
LJ         -0.407235        0.115269        0.142506
LJ        -0.0852597        -2.23498          1.0685
LJ           1.42047         1.88837        -2.29633
LJ           1.39093        -1.37681        -2.30043
LJ          0.943057          1.5951        0.656865
LJ           1.39128       -0.114167        -1.60756
LJ          -1.05402         1.11833        0.489256
LJ          0.247778         2.20043         -1.4424
LJ           0.75603        0.324022        0.292492
LJ          0.154063       -0.650164       -0.770856
LJ          -2.53568       -0.178452         -1.0288
LJ         -0.931775         2.40606         1.48144
LJ           2.30884         1.36722       -0.556696
LJ        -0.0128547         1.80579         1.01629
LJ           1.61391        0.894833         2.29829
LJ          -1.85974         -1.2652       -0.851632
LJ            2.3195         1.62361         2.46905
LJ           1.02588        -2.25103        -1.00118
LJ          -2.37678        -2.05634        -1.24902
