108
#Comment!
LJ          -1.13535        -1.94211       -0.771649
LJ           1.83717      -0.0979357       -0.215392
LJ         -0.684036      -0.0814461        0.498144
LJ          -2.32552        -1.62986         1.13889
LJ           1.33173         2.09818        0.772644
LJ          -2.51403      -0.0803214       -0.843268
LJ           1.92494        -1.82534         2.53454
LJ          -1.79782         1.75012        0.743595
LJ           2.12761        -2.09314        -1.62047
LJ          -2.20359         2.53739        -1.14061
LJ           2.12345          2.5439       -0.373679
LJ           1.55543       -0.834631         1.87927
LJ          -2.34636        0.670678        -1.54711
LJ          0.833357         1.52164         1.81025
LJ            0.6381       0.0365717       -0.934093
LJ          0.209397         1.74471        -1.11574
LJ          -2.21852       -0.937384       0.0836703
LJ           1.27003        0.919121       -0.892483
LJ           2.54802         2.10311        -2.23945
LJ         -0.610011         1.30092       -0.138903
LJ          -1.56299         2.34709         2.53484
LJ          -2.52933       0.0354714         2.01409
LJ           2.24007         1.76474        0.366083
LJ           1.39903        0.212684         1.89276
LJ           1.31714       -0.827911        -2.26393
LJ         0.0465972        -2.35766       -0.720594
LJ         -0.365984         1.91748         2.00243
LJ           2.55553        0.788593         1.08272
LJ         -0.731734         1.15276        -1.11285
LJ           1.52002        0.153457        0.673407
LJ          0.454858       -0.231946        -1.83327
LJ          0.315018        -1.38599        -2.24611
LJ          -1.61482       -0.161074        0.702412
LJ            2.1984        -2.52074        0.926909
LJ           1.70946        -1.81356         1.45923
LJ          0.489791       -0.232172         2.02806
LJ           1.92803        -1.45981        0.240025
LJ            1.4805        -1.35918        -1.29562
LJ          -1.70914        -1.69053         2.43661
LJ          -2.09614        -2.00952       0.0617335
LJ          -1.38609         1.39183         1.74724
LJ          -1.01812        -1.45919        0.731964
LJ          -1.71039         2.29884       -0.266494
LJ          -1.18935        0.838804        0.599207
LJ           -0.3848         1.69032         0.80447
LJ           0.32709         1.98225      -0.0620735
LJ           2.48046        -1.48707       -0.734702
LJ          -0.57752         0.35936        -2.51067
LJ           1.44038        0.138386        -2.15793
LJ          0.274318        -2.19922         0.93656
LJ         -0.363066       -0.398276         -1.1306
LJ          0.157814         -1.2942       -0.102943
LJ          -1.06292         1.53797        -2.20246
LJ          -1.94889        -1.60575        -1.68378
LJ           0.87886        -1.17433        0.638914
LJ           1.07961        -2.06988        0.105003
LJ           1.20442       -0.969064       -0.256529
LJ          0.538195         1.32101        0.872679
LJ          -2.38414         1.77074         1.62059
LJ           2.34561        -1.04887        -1.87832
LJ         -0.551278        0.668766         1.39868
LJ           1.19197         -2.3035       -0.948789
LJ        -0.0991569       -0.648814        0.982579
LJ           1.83175         1.45957         1.37013
LJ           0.36872        -0.29971         0.11913
LJ         -0.782665         -1.7578          2.0314
LJ          -1.13127       -0.838721        -2.28324
LJ          0.259529        0.822293        -1.44464
LJ            1.2766         1.85651       -0.413175
LJ         -0.426997         0.38308        -0.46044
LJ           0.96031         1.14283        -2.13577
LJ           1.41159         1.13702        0.362993
LJ           -2.4507        -2.31011         1.97415
LJ         -0.673112         2.56465          1.2177
LJ          -1.93955         1.28253       -0.277581
LJ         -0.772224        -1.53796        -1.60049
LJ          0.452082       -0.986887         -1.1284
LJ          -1.37894        -1.09721         1.64954
LJ           2.42574       -0.585026         1.20971
LJ          0.415247        0.344896         1.03522
LJ          -1.80951      -0.0419406        -2.20349
LJ            1.9118         1.24695         2.38786
LJ           2.25983         1.31095       -0.590932
LJ         -0.971424         2.14321       -0.816118
LJ          -1.78219         1.43199        -1.43239
LJ          -1.81889        -2.46779         1.26397
LJ          -2.40864        0.216784        0.227059
LJ          0.238069        -2.42063         2.23956
LJ         -0.754515       -0.873725       -0.202784
LJ          0.209878         -1.3593         1.63983
LJ          -1.44692        0.225892         -0.3792
LJ           1.84735         2.24851         2.02601
LJ           1.08813        -2.52296         1.59471
LJ         -0.468774       -0.474405         1.88351
LJ         -0.178129         -2.3825        -1.80006
LJ          -1.38193       0.0492621         1.80514
LJ          -1.16771        0.216871        -1.40309
LJ          0.391184        0.781411       -0.238714
LJ         -0.820257        -2.36575        0.150179
LJ           1.56115         2.04704        -1.95949
LJ          -1.30237        -2.49064        -1.69445
LJ         0.0850464         1.69086        -2.20814
LJ          0.313511        0.729466         2.09395
LJ           1.04227        -2.12588        -1.97119
LJ           1.71413       -0.259662        -1.30653
LJ          -1.57043       -0.694008        -1.18458
LJ          -2.09225         1.00975         2.55705
LJ          -2.25942       -0.947009         2.34719
