108
#Comment!
LJ          0.512561        -1.64103         1.55872
LJ          -1.52679        -1.37131       -0.677992
LJ        0.00155558        -0.64816         1.62809
LJ           1.40944         1.29296        -1.11285
LJ          0.612238        0.182189         1.54006
LJ           2.31005         1.02671        0.873877
LJ           1.56068         0.21624       -0.887361
LJ           1.93025        -1.96031        -1.12971
LJ          -2.44382        -1.56907         1.42908
LJ          0.899651         1.51714       -0.259539
LJ          -2.37873         1.09719         1.94816
LJ          -1.88189         2.31938          1.9458
LJ          0.660619         0.38549       -0.106441
LJ          -1.20765         1.34785         1.75431
LJ          -1.64976        0.850289      -0.0993168
LJ          -1.89873       -0.461156       -0.931254
LJ         -0.396991        -0.67742        -2.39158
LJ          -1.44558        0.989258        -1.30227
LJ           1.83076        -1.54405         1.95902
LJ           1.28749        -2.02503        -2.36146
LJ           1.49622        0.462639         1.80458
LJ        -0.0991097         1.97747         1.54761
LJ              2.45         2.00591        -2.47536
LJ           2.46594         -1.1254       -0.217956
LJ           1.90895         2.51374         2.04911
LJ          0.975918       -0.639065        -1.96555
LJ          -2.17145        -2.23865       -0.539315
LJ         -0.635719        -1.02088        -1.06426
LJ          -2.01917      -0.0318409       0.0812258
LJ         0.0110182        -1.89962       -0.695483
LJ         -0.377022       0.0706426        -1.78558
LJ         -0.493469        0.857049         1.31656
LJ          -1.76295        0.233136         1.67024
LJ          -2.02972         1.84351        0.172477
LJ         -0.737176        -1.56934       0.0298141
LJ         0.0930353         2.29452       -0.216627
LJ           2.23765         -2.3015         0.21723
LJ           2.00209        -1.20425        0.783745
LJ         -0.248885         1.32748         2.49657
LJ          0.234435       -0.618855       -0.415843
LJ          0.463401         1.35752        0.695926
LJ          -2.12641         1.69283        -1.09938
LJ         -0.643421       -0.911188        0.806539
LJ           2.55681         2.08373        0.984961
LJ          -2.22746        -1.03051        -1.88271
LJ           1.63875         1.11473        -2.46311
LJ           1.76869        0.724325      -0.0128286
LJ          -1.37205        -1.44797         1.40264
LJ           2.19184        -0.26006        0.468349
LJ           1.77325        -1.26496        -1.76003
LJ          -1.12505          2.4967      -0.0711922
LJ          -1.03579       -0.387469      -0.0812534
LJ          0.458004        -1.19914        -1.38339
LJ           2.37188        0.193367         2.54804
LJ          0.906579         1.86223        -2.36815
LJ          0.402676          2.5502        0.879944
LJ           1.35049       -0.691746         1.32575
LJ          -1.91645       -0.771254        0.665991
LJ          -2.50067        0.466773       -0.639507
LJ           2.32725         1.04391        -1.56063
LJ         -0.922569       -0.332943         1.66188
LJ           2.04509         2.22677        -1.63677
LJ         -0.793778         2.51245        -1.12388
LJ           1.77912         1.50306         1.69059
LJ           1.07363         -1.0086        0.102503
LJ          0.099119         2.46264         2.52745
LJ          -1.81557         -1.8854        0.362427
LJ          0.874001         2.42786         1.80764
LJ         -0.460472        0.833224        0.134755
LJ            1.2292        -2.15377       -0.292097
LJ         -0.853528         1.38791       -0.616386
LJ         -0.750682         -1.5164         2.20492
LJ         -0.970612         2.38283        -2.12754
LJ         -0.660578         1.62398         0.66411
LJ           2.14415         1.87788        -0.28756
LJ          -1.14537        0.213721        0.794444
LJ           2.50067       -0.342911         1.42152
LJ          0.651468        0.733974        -1.92123
LJ          -1.30431       -0.351781        -1.79304
LJ         -0.584763        0.190605       -0.688319
LJ          0.608674         1.23343         1.89826
LJ          -1.84796        0.555933        -2.27879
LJ         -0.278126        -1.92774        -1.77483
LJ         0.0621752         1.04914       -0.897607
LJ          0.971165        -2.46134        -1.41894
LJ          -2.10573        -2.43286        -1.71981
LJ           1.39313         1.87333        0.517092
LJ            2.2332       -0.389609        -1.23225
LJ         -0.895958        -2.49084         2.01677
LJ          -1.76481         1.58907        -2.30992
LJ           1.53401        -2.03782        0.973017
LJ          0.147133        0.329691         2.40374
LJ          0.185611        -1.51465        0.519901
LJ           1.23112        0.512275        0.805925
LJ           0.24364          2.0368        -1.45962
LJ          -1.26378        -1.38842        -1.79192
LJ            1.4034       -0.895907       -0.801889
LJ          0.483268        -1.52577         -2.5135
LJ          0.480438      -0.0830953         -1.2406
LJ         -0.905869        0.484688         2.42066
LJ           -1.9159        -1.58425          2.3204
LJ          -1.46023         2.15353        0.928303
LJ           0.29481       -0.362647         0.70633
LJ           2.36453        -1.81323         -2.2791
LJ         -0.637751        -2.18073        0.899024
LJ          -1.80743         1.16639        0.938615
LJ          -1.90363       -0.555792         2.35135
LJ           1.51241       -0.504603         2.39136
