108
#Comment!
LJ           1.27691       -0.345997         1.07226
LJ          -2.35737        -1.30704         1.09627
LJ         -0.468797      -0.0394655         2.43473
LJ         0.0663605       -0.123794       -0.896598
LJ           1.29468        0.724626         1.63067
LJ           2.20961         2.19057       -0.368698
LJ           1.57667       0.0103939        -1.70464
LJ           1.93502        0.626859        0.554156
LJ           1.27279         1.54867         2.34475
LJ         -0.946358         1.03408         1.75531
LJ           1.18616        -0.63132       -0.577074
LJ           0.39317        0.167164         1.50955
LJ         -0.749061        -1.45547        -0.63594
LJ           1.35279         2.35729         1.67652
LJ           2.31429       -0.392197         1.59327
LJ         -0.661622      -0.0654757       0.0709383
LJ          -1.11738        -2.11412         2.31114
LJ          -2.33252        0.208614      0.00908977
LJ           0.27657        -2.50082         2.00475
LJ           2.22861       -0.176569       -0.861159
LJ           1.21596         2.42277        -2.31586
LJ         -0.921293         1.80664       -0.686157
LJ         -0.858607        0.498042         -1.0658
LJ          -1.52495         0.43148        -2.43943
LJ          0.993968        -1.40933        -1.21047
LJ          -2.33843         2.53609        0.566247
LJ           1.96644        -1.73735       -0.873129
LJ          0.265602       -0.231942        -1.94153
LJ          0.573368         2.26505        0.812318
LJ          -1.00934       -0.883902         2.38804
LJ           1.71113        -1.94203        -1.86294
LJ          -2.15365        -1.63974        -1.99635
LJ           2.27191        -1.05626        -1.52046
LJ         -0.217249        -2.31394       -0.731519
LJ          -1.88781        -2.17193       -0.333844
LJ          -0.47086         2.53326          1.0112
LJ           1.69918         1.63487        0.878988
LJ         -0.653669       -0.367725         1.18964
LJ           1.36621       -0.930709        -2.14711
LJ          0.493178       0.0233496        0.332041
LJ          0.841236        -2.10136        -0.50527
LJ          -1.69126          -1.225        0.158902
LJ         -0.787627       -0.541027        -1.62876
LJ          -1.90632         1.27536         2.05524
LJ           1.49975        -2.43606        0.658562
LJ          -1.30025        -2.42271        -1.11969
LJ         -0.644156          1.0315        -2.12796
LJ           1.61034     -0.00264983          2.2061
LJ            0.7323        -1.79855         1.13347
LJ           0.93335        -1.70569         2.51575
LJ          -1.92659       -0.408012         2.00742
LJ           0.33911         1.05825          2.0183
LJ           2.25493         2.04963        -2.29163
LJ        -0.0984166         1.94455       -0.068661
LJ          -1.99413        0.865184        0.935963
LJ          -2.04985         1.40862        -1.68021
LJ         -0.673079         2.12883         2.19182
LJ        0.00206912        -1.13522        -1.33176
LJ           1.30671        -1.42128        0.234362
LJ           1.12496         1.42284        -1.71163
LJ          -1.50258        -2.12028        0.702414
LJ         0.0406154        -1.15881        -2.38841
LJ          -1.41314          1.8095        0.595504
LJ          -2.49172        0.358403         2.42838
LJ            2.1236       -0.627609        0.261814
LJ            1.0653        0.509283       -0.896897
LJ          -1.06459         1.02066      -0.0840923
LJ          0.796435       -0.888233         1.84622
LJ         -0.872734         2.55003      -0.0216563
LJ          -2.37462        0.330881        -1.63292
LJ           1.99267        -2.21644          2.2767
LJ         -0.810432         2.12925        -1.84077
LJ           0.48888         1.80878       -0.955357
LJ          -2.55599         1.35925        0.170136
LJ           2.53927        -2.39433        -1.36728
LJ         -0.516878        -1.42538        0.538707
LJ          0.552741        -2.35342        -1.53903
LJ          -1.85355        -0.12817       -0.851433
LJ         -0.197253        -1.30813         1.78724
LJ         -0.257557        0.568378         0.69505
LJ          -1.81357       -0.551725        -2.08084
LJ         -0.247554        0.845783       -0.383341
LJ           2.38745        -1.67271      -0.0148608
LJ          0.633096         1.24601         0.87299
LJ           1.95149         1.01343        -2.13634
LJ           2.52706         2.23295         1.69681
LJ           2.38098       -0.797699        -2.52338
LJ           0.94842        0.513041        -2.40271
LJ          0.305738        -1.17195       -0.189401
LJ         0.0557949        -2.12468        0.227676
LJ          -2.18164        -2.02289         1.81666
LJ          0.183615       -0.737664        0.854745
LJ          -1.98685         2.43418         2.55472
LJ           -1.1961        -1.20483         1.38475
LJ          -1.76167        -1.23415        -1.05995
LJ           2.27955         1.08978         1.71417
LJ           1.56327         1.32517       -0.503316
LJ          0.210391         1.94662        -2.07986
LJ           1.63841        -1.58823          1.3833
LJ          -1.95716       -0.335271          1.0144
LJ          0.699631         1.07442       -0.140858
LJ           1.09345         2.10559      -0.0837437
LJ          -1.88562         1.90582       -0.763601
LJ          -2.05184        0.845367       -0.777878
LJ           1.67747         2.15937         -1.3158
LJ          -1.42571         2.28714         1.52871
LJ         -0.527557        -1.83149        -2.08451
LJ          0.137643        0.862922        -1.43427
