108
#Comment!
LJ          -1.26667         1.77987        0.967804
LJ           2.09099         2.13156        -1.47956
LJ          -1.53613         0.78998        -2.48101
LJ           -0.3704         2.28571        0.342741
LJ         -0.516828        -1.36963        0.693371
LJ          -2.48504         1.93218        -2.46715
LJ           2.38776       -0.357708         1.07493
LJ          0.502676       -0.358342         1.24115
LJ          -2.06043         2.38009        0.520024
LJ          0.914337        0.820122        0.968536
LJ            1.4762         -1.0509       -0.562473
LJ          -2.45577        -1.09347         1.86392
LJ          -2.21639        -1.67291        0.993186
LJ           1.55092       -0.386348        0.456987
LJ          -2.44928       -0.605822      -0.0401595
LJ          0.586989           2.003         0.48741
LJ         -0.197313       -0.966496         1.67983
LJ            1.2134        0.563562         2.00931
LJ           1.56751       -0.651458         -1.6025
LJ            -2.133         1.08536          1.8385
LJ         -0.864472      0.00668408         2.54491
LJ          0.506439        0.944817        -1.11196
LJ          -2.45045          1.1959        0.756326
LJ          -2.38351         -2.3254        -1.98204
LJ           0.42633       -0.327419        -1.76063
LJ          -2.17873        -1.50214      -0.0471381
LJ          0.703989        -1.34191        -1.85725
LJ          0.154406       -0.644557        0.118167
LJ           2.12598       -0.163209       -0.765375
LJ         -0.212927       -0.846283        -2.42763
LJ         -0.431032        -1.87404        -1.89781
LJ          -2.29462         1.55327        -1.24133
LJ         -0.259744        -2.13822         1.48726
LJ           2.51563        0.801546       -0.478184
LJ         -0.899151        -1.79153         2.17394
LJ           1.68951        -2.39486        0.428204
LJ          -1.67852        -1.50412        -2.44029
LJ         -0.314741         1.94364        -2.08728
LJ          -1.60791       -0.341042       -0.665223
LJ          -1.68852       -0.695204        0.994837
LJ           1.52991         1.13446        -1.28986
LJ          -1.51336         1.76185        -2.18842
LJ         -0.910781          2.0679         1.96828
LJ         -0.729204       -0.195248        0.606308
LJ          -1.10028        0.941608         1.59575
LJ           1.70343         1.63436        -2.30263
LJ          0.268314       0.0346077         2.37819
LJ         -0.752398       -0.633228       -0.389973
LJ          0.977044        -1.34281        0.349424
LJ          0.517185         -1.1402       -0.794832
LJ        -0.0838139        0.475761         1.52821
LJ           0.35601        -2.05766         0.61507
LJ           1.90368        0.712209        0.400046
LJ         -0.988052          1.5729        -1.19822
LJ          -1.94529         1.39635       -0.137363
LJ           2.22623         1.81715        -0.17325
LJ           0.88361         -2.5353        -2.46963
LJ           -1.3877        0.747532       -0.610899
LJ           1.03354         1.67052         1.90723
LJ          0.674152         1.06978        -2.20615
LJ          -1.10902        -1.88305       -0.157034
LJ          0.912863         2.55936         1.37069
LJ         -0.665712        -2.55137        -1.15945
LJ           -1.9934         2.08058         1.63963
LJ          -1.38896       -0.764386        -1.60756
LJ           1.91477        -2.46041         2.36621
LJ           2.09249         1.49139         1.77436
LJ          -2.26017        0.378312        -1.37484
LJ          0.177207         -1.8275         2.25625
LJ           1.17402         1.76432       -0.404779
LJ            2.5134        0.826969        -2.31475
LJ           -1.2073         2.13533       -0.153192
LJ          0.774315        -2.24339       -0.387768
LJ          -2.19822         -2.1722         2.08076
LJ         -0.120241        -1.89749       -0.302421
LJ          -0.23369        0.779808        -1.85053
LJ          -2.02248        -2.42103       -0.577327
LJ            1.2715        -1.35328         2.40699
LJ          0.931434        0.780703     -0.00831983
LJ          -1.32685        -2.14714         1.05319
LJ          -1.22527       -0.823022         1.99737
LJ         -0.364776        0.442254       -0.622996
LJ           2.19804        -1.29725        -2.25827
LJ             1.497       -0.653351         1.63109
LJ           1.67825        0.386332        -1.92404
LJ        -0.0228724         1.68983       -0.401338
LJ           2.14141        0.524829         1.62566
LJ           2.14202         2.24657         1.26662
LJ           2.24199       -0.247184        -2.48415
LJ         -0.737384         1.15664        0.228767
LJ          -1.24418        0.283139        -1.58804
LJ          0.100076         2.11505         1.90139
LJ         -0.034494         1.47225          1.0734
LJ       -0.00621238         0.38273        0.455552
LJ           1.23605        -2.10885        -1.53199
LJ          -1.61843        0.375621        0.737912
LJ         -0.414872       -0.936755        -1.37781
LJ           2.07081        -2.08235       -0.662989
LJ           1.51334         1.67845        0.692691
LJ        -0.0133492         1.17617         2.20843
LJ           1.82039        -1.69746         1.56525
LJ          -1.94452       -0.143761        -2.23869
LJ          0.703081         2.17028        -1.23394
LJ          -1.76497        -1.78823         -1.4006
LJ          -1.81074        0.120684         1.88313
LJ          -2.49705       -0.638861         -1.4375
LJ           2.00317        -1.29446        0.600655
LJ          0.794355      -0.0814927       -0.769369
