108
#Comment!
LJ           2.55183         2.47595        -2.51953
LJ          -1.72266        -1.79506        -2.55055
LJ           2.53158        -1.78975        -1.73019
LJ          -1.76398         2.51237        -1.66836
LJ         -0.949368         2.48499         2.45127
LJ        -0.0466936        -1.74446        -2.45821
LJ         -0.755744        -1.67371        -1.71138
LJ         -0.010424        -2.52955        -1.59604
LJ          0.896057        -2.55859         2.49915
LJ           1.71275        -1.84674        -2.47013
LJ          0.856797        -1.71749        -1.66121
LJ           1.73824        -2.55521        -1.68456
LJ           2.54125       -0.822289         2.54331
LJ          -1.62954       0.0332566        -2.55466
LJ           2.56106       0.0225503          -1.694
LJ          -1.61572       -0.908087        -1.72126
LJ         -0.911069       -0.803722         -2.5528
LJ         0.0874375      -0.0565856         2.54459
LJ         -0.829205        0.164144        -1.67328
LJ         -0.104451       -0.860284        -1.73155
LJ          0.870267       -0.933909        -2.46615
LJ           1.73442        0.113834        -2.55402
LJ          0.721862       0.0705147        -1.72188
LJ           1.63868       -0.861849        -1.63639
LJ          -2.53422        0.777289         2.53835
LJ           -1.7598         1.69337         2.51524
LJ          -2.52354         1.57908         -1.7359
LJ          -1.70632        0.840575        -1.68006
LJ         -0.769015        0.890311         2.41928
LJ         0.0501673         1.65957         2.47173
LJ         -0.814995         1.65957        -1.70571
LJ         0.0462201        0.880131        -1.84267
LJ          0.872217        0.896687        -2.53219
LJ           1.67189          1.6823         2.55676
LJ          0.981871         1.70719        -1.73602
LJ           1.67847         0.78479        -1.68656
LJ          -2.53996         2.52507       -0.833504
LJ          -1.60263        -1.69331       -0.847725
LJ          -2.52378         -1.8029      -0.0181327
LJ           -1.7211          2.5172      -0.0248603
LJ         -0.794938         2.54268       -0.786769
LJ         -0.007534        -1.60876       -0.857513
LJ         -0.853005        -1.69012       0.0218706
LJ         -0.122543         2.50157      -0.0602105
LJ          0.903689          2.5437       -0.732698
LJ           1.61082        -1.76876       -0.855612
LJ          0.827482        -1.83306        0.043255
LJ           1.67977        -2.48677       0.0358803
LJ           2.53846       -0.857537       -0.776767
LJ          -1.79258        0.083762       -0.952175
LJ           2.54187       0.0105589      -0.0633443
LJ          -1.70456       -0.917977       0.0145536
LJ         -0.771628       -0.863054        -0.77525
LJ         0.0591912       -0.180048       -0.830287
LJ         -0.923471      -0.0386087       0.0620303
LJ         0.0145432       -0.717713        0.157299
LJ          0.912409       -0.769264       -0.898187
LJ           1.72857        0.020481       -0.912853
LJ            0.8551      -0.0108089      -0.0916797
LJ           1.62091       -0.902281       -0.135961
LJ          -2.54696        0.900413       -0.844617
LJ          -1.72409         1.73309       -0.912918
LJ           2.51509         1.68173       0.0224735
LJ          -1.66558        0.976918        0.135089
LJ         -0.764874        0.822685       -0.745195
LJ         -0.126251         1.68806       -0.953755
LJ         -0.911777         1.72907     -0.00994836
LJ        -0.0631128         0.79847        0.173666
LJ          0.859437        0.911542       -0.802807
LJ           1.83268         1.76936       -0.792475
LJ          0.786102         1.79856       -0.132006
LJ           1.67136        0.838801       0.0247326
LJ          -2.46102        -2.49026        0.873511
LJ          -1.65508         -1.8009        0.871403
LJ            2.5458        -1.64548         1.66979
LJ          -1.83211        -2.54242         1.62981
LJ         -0.884948        -2.51037        0.783807
LJ         0.0486557        -1.72267        0.880854
LJ         -0.851835        -1.73302         1.79216
LJ          0.133511        -2.51034         1.74143
LJ          0.877226           2.368        0.904649
LJ           1.73808        -1.83723        0.857548
LJ          0.990811        -1.81249          1.5137
LJ           1.77911        -2.55769         1.73779
LJ            2.5526       -0.779668        0.930389
LJ          -1.68047      -0.0229018        0.838736
LJ          -2.53525      -0.0426138         1.79723
LJ          -1.72918       -0.817441         1.83079
LJ          -0.87458       -0.794256        0.795217
LJ          0.105153     -0.00393051        0.908706
LJ         -0.803849      -0.0309534         1.64692
LJ       -0.00685421       -0.897991         1.70266
LJ          0.855406        -0.91184        0.814963
LJ           1.62698      -0.0914038         0.79808
LJ           0.78443    -0.000896827          1.7317
LJ           1.79093       -0.752646         1.70979
LJ          -2.56022        0.907079        0.813094
LJ          -1.70048         1.61515        0.892028
LJ          -2.55649         1.69777         1.82042
LJ          -1.62953        0.824438         1.77465
LJ         -0.816745        0.820687        0.865522
LJ         0.0114364         1.62898        0.954248
LJ          -0.85071         1.72302         1.65547
LJ        -0.0231564        0.746191         1.69679
LJ          0.835825        0.733328        0.731999
LJ           1.63288         1.61684         0.83428
LJ          0.865475         1.59054         1.74563
LJ           1.76038        0.864839         1.67352
