108
#Comment!
LJ           2.50118        -2.48279           2.473
LJ          -1.77218        -1.80158         2.44845
LJ          -2.46449         -1.6842         -1.5507
LJ          -1.78742        -2.49566        -1.85772
LJ          -1.01423         2.46172         2.45714
LJ         -0.102088        -1.95387         2.56494
LJ         -0.895061         -1.5232        -1.65011
LJ         0.0834155         2.36993        -1.67256
LJ          0.973914          2.4568        -2.37714
LJ            1.7914        -1.69066         2.53724
LJ          0.927761        -1.65186        -1.60684
LJ           2.03149        -2.50411        -1.54891
LJ           2.48395       -0.814545        -2.49991
LJ          -1.84024       0.0413075         2.45447
LJ          -2.50704        0.128853        -1.72767
LJ          -1.65754       -0.623814        -1.37955
LJ          -1.17905        -0.89955        -2.49673
LJ         -0.134758       -0.232681        -2.54315
LJ          -0.83232        0.107743        -1.78488
LJ        -0.0512829       -0.942768        -1.76344
LJ            1.0073        -1.06517        -2.45215
LJ           1.66249       0.0846079         2.53602
LJ          0.756096      -0.0238799        -1.57981
LJ           1.78587       -0.810078        -1.72126
LJ           -2.5262         1.05357          2.3751
LJ          -1.80739         1.83202         2.52678
LJ           -2.5518         1.67008        -1.78385
LJ          -1.68642        0.953566        -1.88979
LJ         -0.726262         1.02435        -2.55728
LJ         0.0408333         1.82065         2.48173
LJ          -0.79534         1.66419        -1.78699
LJ         0.0333105        0.827705        -1.88721
LJ          0.859217        0.830433        -2.49819
LJ           1.84213         1.82202         2.45892
LJ          0.963886         1.73452        -1.53049
LJ           1.83606        0.785236        -1.74589
LJ          -2.43731         2.42945       -0.680725
LJ          -1.53805        -1.85277       -0.644231
LJ           2.47664        -1.74024      -0.0658516
LJ          -1.62497         2.39263         -0.1076
LJ          -0.79002         2.45071       -0.961026
LJ          0.024489        -1.67318       -0.895542
LJ         -0.682901         -1.8083       0.0528313
LJ          -0.19597         2.36168      -0.0313256
LJ          0.858334        -2.48648       -0.856381
LJ           1.81985        -1.65949       -0.888476
LJ          0.734582        -1.97407        0.113849
LJ           1.64959        -2.36561       -0.120024
LJ          -2.54336       -0.858133       -0.762853
LJ          -1.80201         0.17915       -0.735273
LJ           2.44932       -0.049585       0.0462819
LJ          -1.74081       -0.878901       0.0373191
LJ         -0.655605       -0.804472        -0.82466
LJ        -0.0148864         0.25395       -0.934589
LJ         -0.742552       -0.130586      -0.0818246
LJ         0.0555531       -0.794216        0.201877
LJ          0.818069       -0.854498       -0.752102
LJ           1.74393       -0.111499       -0.832301
LJ          0.789452      0.00920839       -0.117258
LJ           1.61523        -0.91545      -0.0883482
LJ          -2.41206        0.977406       -0.916213
LJ          -1.65365         1.72342        -1.10726
LJ          -2.54355         1.60372        0.103369
LJ          -1.90846         0.78678        0.110412
LJ          -1.01177        0.732461       -0.817716
LJ         -0.102567         1.54198       -0.826601
LJ         -0.777459          1.4907      -0.0580581
LJ         0.0866124         0.95536       0.0332254
LJ          0.818891         1.05683         -0.7091
LJ           1.77498         1.65796       -0.963758
LJ          0.831927         1.93128      0.00671646
LJ            1.7544        0.856794        -0.10585
LJ           2.38912        -2.53502        0.862163
LJ          -1.51234        -1.66951        0.741914
LJ           2.53698        -1.43711         1.77625
LJ          -2.01541         2.52243         1.55873
LJ         -0.722047        -2.49588         1.03463
LJ          0.164516        -1.78364         0.95284
LJ         -0.948289        -1.64321         1.73434
LJ         0.0676963        -2.38441         1.71525
LJ           1.09793         2.55664         0.91177
LJ           1.71038        -1.45807        0.783681
LJ          0.847383        -1.67473         1.70918
LJ            1.5204        -2.44738          1.8469
LJ           2.55229        -0.57588         1.07203
LJ          -1.80109       0.0379798        0.887228
LJ           2.55026        0.100867         1.86391
LJ          -1.68782       -0.897672         1.53045
LJ         -0.752238       -0.905743        0.915648
LJ          0.121254       -0.106986         1.03927
LJ         -0.848683        0.174373         2.07334
LJ          0.155936       -0.937763         1.62212
LJ          0.970211        -0.81634        0.853174
LJ            1.6263       -0.112173        0.542665
LJ          0.741091       -0.156446         1.89984
LJ           1.72463       -0.779445         1.74595
LJ           2.48014        0.726002        0.730392
LJ          -1.46704         1.90449        0.819715
LJ          -2.55342         1.58474         1.43802
LJ          -1.50739        0.890325          1.6442
LJ         -0.902012        0.748291        0.694205
LJ          0.116505         1.66445        0.931744
LJ         -0.790873         1.67964         1.47659
LJ         0.0325711         0.89802         1.64658
LJ          0.816206        0.627731        0.956455
LJ           1.82573         1.69548        0.779491
LJ          0.986092         1.65439         1.72092
LJ           1.70582        0.759874         1.57889
