108
#Comment!
LJ          -2.52777        -2.37147         2.40484
LJ          -1.74975        -1.65304         2.50846
LJ          -2.37933        -1.54389        -1.67921
LJ          -1.70996         2.53662         -1.6772
LJ         -0.794857         2.41323         -2.4839
LJ        -0.0438473         -1.8942        -2.46378
LJ          -1.06482        -1.52723        -1.77902
LJ        -0.0683694         2.22275         -1.8027
LJ          0.829368         2.53535          2.5069
LJ           1.74903         -1.6662        -2.55945
LJ          0.757247        -1.88211         -1.7384
LJ           2.02102           2.399        -1.75809
LJ           2.51933       -0.857437         2.48607
LJ          -1.75971       0.0604334        -2.54537
LJ           2.47714       0.0383029        -1.75703
LJ          -1.79396       -0.523643        -1.70214
LJ          -1.05358       -0.776079        -2.44969
LJ         -0.105919       -0.141576        -2.47615
LJ         -0.973347       0.0903212        -1.79989
LJ         -0.110049        -1.10891        -1.85569
LJ          0.870387         -1.0794         2.52243
LJ           1.70134     -0.00880068         2.50756
LJ          0.981966        0.075517        -1.87758
LJ           1.62264       -0.689544        -1.76841
LJ          -2.54676        0.919414         2.54574
LJ          -1.66523         1.88905         2.39999
LJ          -2.40332           1.608        -1.64676
LJ          -1.69402        0.814257        -1.75138
LJ         -0.481989        0.904989         2.56284
LJ         0.0699753           1.727         2.31995
LJ          -1.10754         1.68834        -1.80463
LJ          0.108011         1.11767        -1.78734
LJ          0.840513        0.892078         2.52286
LJ           1.69548         1.71436         2.37277
LJ          0.919582         1.90394        -1.88277
LJ           1.65629         1.09845        -1.66761
LJ          -2.56127         2.48261       -0.717019
LJ           -1.5376        -1.66627       -0.823487
LJ           -2.3837        -1.82075       -0.155999
LJ          -1.75503         2.43872      -0.0377817
LJ         -0.672987        -2.55955       -0.993838
LJ          0.166186        -1.69787       -0.781114
LJ         -0.725154        -1.95639       -0.232618
LJ           -0.2025         2.27647       0.0590965
LJ          0.813471         2.54526       -0.941295
LJ           1.82416        -1.86284        -1.01219
LJ          0.779095        -1.93794        0.249725
LJ           1.67426        -2.49793       -0.102894
LJ          -2.44103       -0.958581       -0.706606
LJ          -1.93972        -0.04949       -0.756136
LJ          -2.54937        0.195346       0.0505014
LJ          -1.79879       -0.737208        0.115054
LJ         -0.651359       -0.846573       -0.709893
LJ         -0.131246        0.227469        -1.05445
LJ         -0.627546        0.115022        -0.10468
LJ        -0.0812695       -0.705723        0.104268
LJ          0.957782        -1.05174       -0.788671
LJ           1.86283       -0.167973       -0.584666
LJ          0.734733       0.0836941       0.0902011
LJ           1.90833        -1.15498       -0.109438
LJ          -2.55803        0.966698       -0.807004
LJ          -1.66739         1.86611       -0.862716
LJ           2.46171         1.68865      -0.0443416
LJ          -1.90575         1.16258        0.375433
LJ          -1.11562        0.730136       -0.881324
LJ         0.0759515         1.64818       -0.953753
LJ         -0.824846         1.42166       -0.161945
LJ        0.00859937        0.912603       -0.202645
LJ          0.981572        0.913004       -0.698259
LJ           1.61075         1.77651       -0.713503
LJ          0.801164         2.02665      -0.0462897
LJ           1.71457        0.875753      -0.0780559
LJ            2.4466         2.36874        0.738913
LJ          -1.34426        -1.76962        0.697305
LJ           2.50339        -1.44888         1.69289
LJ          -2.02678        -2.36905         1.38232
LJ         -0.778551         2.53727        0.961436
LJ            0.1425        -1.49141        0.960868
LJ         -0.950727        -1.86043          1.8692
LJ         0.0133553        -2.32834          1.7175
LJ          0.741749         2.38941        0.985203
LJ           1.84702        -1.64801        0.868363
LJ          0.945179        -1.78715         1.78557
LJ           1.74794        -2.44814         1.70187
LJ           2.46728       -0.636176        0.837951
LJ          -1.57427       0.0574596        0.853573
LJ           2.53617       0.0412422         1.75609
LJ          -1.70996       -0.766369         1.78839
LJ         -0.779329        -1.03278         1.05122
LJ          0.202506      -0.0996771         1.04443
LJ         -0.947905        0.172542         1.99389
LJ          0.128465       -0.918948          1.8527
LJ            1.0368        -1.04072        0.850006
LJ           1.61678       -0.152786         0.58423
LJ           0.69747        0.010376         1.97388
LJ           1.57105       -0.779182         1.75341
LJ           2.21053        0.814155        0.873253
LJ           -1.5733         1.93304         1.03118
LJ           2.46869         1.66172         1.50235
LJ          -1.83759        0.903984         1.54407
LJ         -0.768851        0.747419        0.778036
LJ           0.25082         1.42819        0.806539
LJ         -0.846233         1.45238         1.58324
LJ          0.131474        0.865821         1.72794
LJ           1.16239        0.733371        0.956156
LJ            1.4546          1.7622        0.623388
LJ          0.930822          1.5204         1.64032
LJ            1.6405        0.771751         1.88365
