108
#Comment!
LJ          -2.06943         2.32304         1.42006
LJ          -2.04277          -1.678       -0.899306
LJ         -0.355829        -1.36163        0.644786
LJ          0.225605        -1.70788       -0.138346
LJ          -1.19989          1.0204        -2.48011
LJ          0.898668       -0.144228       0.0227646
LJ          0.960308        0.945399         1.34019
LJ          0.484417        0.462749        -2.56436
LJ         -0.236861         1.16819          1.8176
LJ          -1.61251         2.55002       -0.565822
LJ          -1.82607       -0.841253          1.0584
LJ           2.08236         1.89892         1.96273
LJ          0.680824         1.50271        -2.53295
LJ          0.601303         1.94864         1.44093
LJ           1.46688        0.168568        -2.26531
LJ            1.5762        -1.90971        0.379655
LJ          -2.49808        -1.82529         2.05087
LJ          0.381395         1.10131         -1.5662
LJ           1.12356        -2.44887          2.1566
LJ          -1.43181         1.44197       -0.760564
LJ           -2.0772        -1.21868       0.0579646
LJ         -0.793396        -2.46197        -1.09016
LJ          -2.33059         2.17454         -1.1552
LJ         -0.822588         -1.9996        -2.46551
LJ           2.16079        -2.50179         1.10845
LJ         -0.548149        -1.39024         1.62566
LJ           1.99281        -1.87432        -1.25723
LJ           -2.4241       -0.674203          1.8255
LJ          -1.49948         2.01237        0.366392
LJ          0.545513       -0.211272         1.38569
LJ          -1.93045        0.266071        -2.52652
LJ           1.43078       -0.421227        -0.82635
LJ           2.19825        -1.14175       -0.630552
LJ            1.4757         1.10226         2.29098
LJ           1.52822        -1.50477         1.40152
LJ          -1.33218        -1.70971        0.895598
LJ          -1.00253         2.42845          1.3206
LJ           1.71773        -1.35188         2.47406
LJ          0.811506       -0.941329        0.530776
LJ         -0.829676        0.685988       -0.621361
LJ        -0.0924165         1.36427       -0.359232
LJ          -0.38524         2.42178        0.150554
LJ           -1.4549         2.21399        -1.82238
LJ          0.463419       -0.651078        -2.20115
LJ          0.769355         2.41689        -2.04091
LJ           2.38407       0.0713692        -1.25887
LJ           2.34385       -0.245705        -2.43159
LJ           1.82987       -0.928226        0.220044
LJ          -2.54352        -1.53123        0.955548
LJ         -0.193312         2.43819         2.03307
LJ          -1.48251         2.41469         2.34402
LJ           2.51576       -0.190363       0.0103641
LJ         -0.998352        -1.80061       -0.122126
LJ           2.42972          0.8459        -2.05884
LJ           -2.0885        0.374427       -0.577815
LJ          0.250656         -1.8464        -2.34286
LJ           1.71595         2.26749         -1.2392
LJ          -2.23648        -2.28534        0.442749
LJ          0.800812        0.755404       -0.539066
LJ         -0.240347         2.33598        -2.11406
LJ          0.493173         -2.2153        -1.24315
LJ           0.21679        -2.21013        0.969464
LJ          -2.39625         1.97727        -2.25431
LJ          -1.46455        -1.56722         1.96953
LJ           1.70356       -0.753915        -1.77791
LJ            -1.803        0.832924        -1.64946
LJ         -0.571882         1.23892        0.552497
LJ           -1.9584        0.118605         1.43251
LJ          -2.40918         1.83704       -0.148881
LJ          -1.62017       -0.514369       -0.496048
LJ           1.89598        0.432809       -0.489615
LJ          -2.55328         1.15172        -1.07827
LJ          -2.32447          1.3577        0.946681
LJ         -0.400634       -0.122245         1.89715
LJ          -1.55934       -0.160778        -1.65516
LJ           1.51531         1.30377        -1.64168
LJ           1.81307        -2.33887          -2.331
LJ           1.03459        -1.53455        -1.75537
LJ           1.20008        -1.58584       -0.491251
LJ          -2.12032         1.26088         2.02591
LJ           1.17393        -0.61658         2.04747
LJ           1.68029         1.38384       -0.622129
LJ          -1.38771        -1.56211        -1.69631
LJ         -0.566363         1.33329         -1.5122
LJ           2.18802        -2.25731       -0.346642
LJ           1.97493        0.663939         0.51617
LJ           2.08792         0.74374         1.58836
LJ         -0.486357        0.317774        -2.34836
LJ          0.607376         2.44003       -0.161696
LJ          -2.46941        -1.23967        -2.10215
LJ          0.497602        -1.33035         1.56387
LJ           -1.2518         1.38606          1.3653
LJ           1.64137         1.69759         1.04603
LJ           1.62483       -0.131148         1.15814
LJ        -0.0446581          0.2799        0.274299
LJ          -2.27043        -2.17803        -1.82331
LJ         -0.701794       -0.716987        -2.18937
LJ         -0.356257        -1.48932        -1.23334
LJ         -0.513964       -0.738797        -0.46661
LJ          0.734862        0.130255        -1.49708
LJ          0.726243         1.81204       -0.978212
LJ           1.69231         2.19046        0.187361
LJ          -1.36405       -0.538776         2.16395
LJ          0.566017          1.3214        0.378158
LJ         -0.947283       -0.385611        0.443422
LJ          -1.59143        0.840105        0.376292
LJ           0.42602        -0.58371       -0.808251
LJ         -0.286612      -0.0735116        -1.30515
