108
#Comment!
LJ          -2.52975        -2.28892         2.52919
LJ          -1.69303        -1.47828         2.56064
LJ          -2.41189        -1.53586        -1.74109
LJ          -1.74979         -2.4933        -1.79485
LJ         -0.753976          2.3099        -2.42997
LJ         -0.145884        -1.47933         2.43525
LJ         -0.875107        -1.42164        -1.92893
LJ         0.0600489        -2.40049         -1.9317
LJ          0.969936        -2.46934        -2.49631
LJ           1.65797        -1.51313         2.43781
LJ           1.09613        -1.82861        -1.73158
LJ           1.94493        -2.56038        -1.59864
LJ            2.5253       -0.778291        -2.47698
LJ           -1.8299      -0.0150851         2.27782
LJ           2.54743       0.0795263        -1.60004
LJ          -1.61858       -0.535404        -1.57956
LJ         -0.740093       -0.638703        -2.56423
LJ          0.123471      0.00668164        -2.32413
LJ         -0.778686       0.0771585        -1.75835
LJ          0.105249       -0.910226        -1.53611
LJ          0.711573       -0.927156        -2.51263
LJ           1.70388       0.0659211        -2.44401
LJ          0.865077        0.253444        -1.58364
LJ           1.53878       -0.690495        -1.57267
LJ          -2.54265        0.897443        -2.37126
LJ          -1.82548         1.95973         2.45415
LJ          -2.52096         1.73729        -1.55578
LJ           -1.6247        0.643015        -2.08948
LJ         -0.570265        0.850214         2.50857
LJ         0.0613006         1.83062         2.43609
LJ          -1.28146         1.63835        -1.67192
LJ         -0.108532        0.963548        -1.57529
LJ          0.949898        0.994406        -2.51635
LJ           1.77022         1.95757        -2.56285
LJ          0.997486         1.84556        -1.88394
LJ           1.70169         1.11006        -1.80418
LJ            2.5615        -2.51614       -0.682049
LJ          -1.37129        -1.60609       -0.804962
LJ          -2.20112        -1.61852      -0.0203509
LJ          -1.69258         2.49594        0.256022
LJ         -0.722288        -2.53271        -1.05215
LJ         0.0719643        -1.90295       -0.721911
LJ         -0.713599        -1.85844      0.00801146
LJ        0.00375784         2.41184        0.137291
LJ           1.03092        -2.46894       -0.930332
LJ           1.89457        -1.55311       -0.929626
LJ          0.734346        -1.96668        0.134174
LJ           1.68879        -2.51859       0.0208413
LJ          -2.30524       -0.815695       -0.796115
LJ          -1.83971        0.247358       -0.987227
LJ          -2.40695      -0.0617014      -0.0217748
LJ           -1.5834       -0.608647       -0.152046
LJ          -0.73074       -0.720855       -0.829653
LJ         0.0626797      -0.0447022       -0.895305
LJ           -0.6431      -0.0663371      -0.0206025
LJ          0.014662        -1.07027        0.118628
LJ           1.01154        -1.13039       -0.562997
LJ           1.93684       -0.259989       -0.609178
LJ          0.749661        0.074113       0.0276209
LJ           1.90147       -0.991256        0.139422
LJ           2.34706          0.8303       -0.705522
LJ          -1.79377         1.63902       -0.697188
LJ           2.42544         1.64103      -0.0165014
LJ          -1.75258        0.939557        0.122102
LJ         -0.933077        0.826139       -0.981758
LJ       -0.00727767         1.75633       -0.836449
LJ         -0.808929         1.68594       -0.115818
LJ          0.173363        0.943973       -0.185381
LJ          0.839618        0.997844        -1.00087
LJ           1.67464         1.73625       -0.814885
LJ          0.821754         1.85623       -0.177228
LJ             1.714        0.789879       0.0662314
LJ           2.46905         2.37966        0.728391
LJ          -1.42165        -1.79908        0.849035
LJ           2.42168        -1.45393          1.6231
LJ          -1.95089         -2.4176         1.64326
LJ         -0.800662         2.41251         0.95477
LJ        -0.0721265        -1.56158         1.11455
LJ          -0.92787        -1.65781          1.7746
LJ        -0.0119653        -2.30252         1.82313
LJ          0.764036         2.45438        0.890969
LJ           1.63217        -1.61328        0.950291
LJ          0.763642        -1.52983         1.71386
LJ           1.65751        -2.53645         1.51334
LJ          -2.35552       -0.792615        0.888337
LJ          -1.82934        0.179016        0.796518
LJ           2.36782       0.0494307         1.70977
LJ          -1.62034       -0.813164         1.65332
LJ         -0.910306       -0.962653        0.867697
LJ         0.0906159      -0.0657905        0.912767
LJ         -0.982808      -0.0493141         1.62684
LJ         0.0574281       -0.644908         1.81097
LJ          0.965103       -0.884355         0.51074
LJ           1.69599       -0.178828        0.866314
LJ          0.889789      -0.0348108         1.77584
LJ           1.54806       -0.821202         1.70758
LJ           2.30516        0.918531          1.0837
LJ          -1.85357         1.61196         1.00745
LJ           2.45285         1.92298          1.5906
LJ          -1.68416        0.839793          1.5954
LJ         -0.924225        0.898429        0.849272
LJ          0.283419         1.42715        0.740614
LJ         -0.727581         1.44456         1.66886
LJ           0.13369        0.640537         1.65079
LJ           1.14375         0.69214         1.12526
LJ           1.57745         1.79183        0.764398
LJ          0.861075         1.82433         1.64015
LJ           1.81011        0.981096         1.90489
