108
#Comment!
LJ           2.32831         2.55245         2.49902
LJ          -1.66812        -1.86237         2.53358
LJ          -2.51248        -1.70643        -1.82722
LJ          -1.84182         2.50488        -1.75356
LJ         -0.942542         2.46362         2.54469
LJ         -0.108077        -1.90207         -2.3964
LJ         -0.864021        -1.59411         -1.5741
LJ      -0.000752627         2.48731        -1.74851
LJ          0.913706         2.51474        -2.44807
LJ           1.64435        -1.80607        -2.50361
LJ          0.821235        -1.50964        -1.52771
LJ           1.92591         -2.5078        -1.62566
LJ           2.44054       -0.890656         2.54528
LJ          -1.63705       0.0665774        -2.53889
LJ          -2.44502        0.125383        -1.79177
LJ          -1.81901       -0.910278        -1.64325
LJ          -1.22995       -0.886296         2.49233
LJ        -0.0482579      -0.0563482         2.54903
LJ           -0.7577        0.153262        -1.69384
LJ          0.133151       -0.789142         -1.7583
LJ          0.926875       -0.952563        -2.53429
LJ           1.75574       0.0970477        -2.55145
LJ          0.751714        0.169575        -1.64552
LJ           1.61443       -0.800356        -1.77707
LJ          -2.49753        0.887987         2.50672
LJ          -1.78325         1.83259         2.46137
LJ          -2.51025         1.67602        -1.81129
LJ          -1.70145         0.97193        -1.73145
LJ         -0.632058        0.983486          2.3025
LJ          0.156352         1.72092         2.40799
LJ         -0.815616         1.69705        -1.71058
LJ        -0.0984084        0.964287        -1.73007
LJ          0.779988         0.85517        -2.40027
LJ           1.79774         1.82079        -2.44536
LJ          0.967909         1.70622        -1.64057
LJ           1.71249         0.75334        -1.67169
LJ          -2.48725         -2.5422       -0.816287
LJ           -1.5109        -1.76736       -0.690043
LJ           2.46729        -1.80961      -0.0782826
LJ          -1.75718         2.49313      -0.0495336
LJ         -0.813542         2.48962       -0.837631
LJ        -0.0424178        -1.71285       -0.869819
LJ         -0.844365        -1.80649       0.0682056
LJ          -0.13061         2.32945       0.0258772
LJ          0.918982         2.46167       -0.871252
LJ           1.57492        -1.73804       -0.857994
LJ          0.737484        -1.80352        0.150226
LJ           1.64199        -2.47702      -0.0508425
LJ          -2.41963       -0.968326       -0.804593
LJ          -1.90371        0.133336        -0.76926
LJ           2.46863        0.115201      -0.0442731
LJ          -1.71031       -0.797807      -0.0827248
LJ          -0.85486       -0.692937       -0.766078
LJ        -0.0186469       0.0280701       -0.739547
LJ         -0.881246       0.0177962        0.007212
LJ        -0.0325541        -0.72432      -0.0601953
LJ          0.932789       -0.811258        -0.81695
LJ            1.8101      -0.0957259       -0.783212
LJ          0.964898      -0.0276899      -0.0747295
LJ           1.67482        -1.06892       -0.103976
LJ          -2.52698         1.06983       -0.748376
LJ          -1.66141            1.75       -0.968606
LJ           2.51479         1.76994        0.163554
LJ           -1.8589        0.884431       0.0275142
LJ         -0.792758        0.734488       -0.870756
LJ        -0.0359486         1.73473       -0.927575
LJ         -0.940349         1.62808       -0.175562
LJ         -0.115969         1.06791      -0.0448541
LJ          0.693599        0.934022       -0.800594
LJ           1.82318          1.8749       -0.917698
LJ          0.692409         1.77614      -0.0664727
LJ           1.65703        0.853485     -0.00393873
LJ           2.50836         2.52282         0.91407
LJ          -1.52449        -1.74562         0.89759
LJ           2.44505         -1.6806         1.66109
LJ          -1.85114         2.55955         1.63947
LJ         -0.828392         2.53941         0.81667
LJ        0.00319999        -1.66076        0.810322
LJ         -0.825298        -1.67991         1.71193
LJ          0.172529        -2.46816         1.77785
LJ           1.11796         2.56355        0.946066
LJ            1.8349        -1.73939        0.843257
LJ          0.878918        -1.58626         1.61426
LJ           1.66908        -2.49897         1.81308
LJ           2.44763       -0.668903        0.845928
LJ          -1.86152       0.0109105         0.93987
LJ          -2.47364      -0.0212608         1.96329
LJ          -1.86492       -0.841547         1.70372
LJ         -0.684575       -0.832866        0.743814
LJ          0.116491      -0.0634148        0.799972
LJ         -0.688731       0.0890371          1.6912
LJ        -0.0825508       -0.910128         1.71212
LJ           0.74383       -0.906173        0.837119
LJ            1.5696      -0.0165053        0.772764
LJ          0.784358      -0.0941823         1.83004
LJ           1.72503       -0.812895         1.66901
LJ           2.41256        0.793955        0.819112
LJ          -1.74743         1.77226        0.775384
LJ          -2.56269         1.71465         1.74282
LJ          -1.74303        0.772068         1.65311
LJ          -0.90945        0.718978        0.800594
LJ         0.0619915          1.6101        0.911371
LJ         -0.914331         1.68285         1.58102
LJ        -0.0103558         0.88144         1.53932
LJ          0.945262         0.80839        0.963466
LJ           1.75056         1.73359        0.846583
LJ          0.964343         1.64906         1.69225
LJ           1.66159         1.02581         1.72201
