108
#Comment!
LJ           2.38633        -2.51114        -2.53201
LJ          -1.68355        -1.82347         2.48517
LJ          -2.50226        -1.74145        -1.66761
LJ          -1.86019         2.50834        -1.74866
LJ         -0.852082        -2.54356         2.48672
LJ         -0.132797        -1.86695        -2.52169
LJ          -0.89632        -1.54913        -1.65877
LJ          0.069275         2.38934        -1.79484
LJ          0.909779         2.50818        -2.37287
LJ           1.72544        -1.70004        -2.50973
LJ          0.801008         -1.5242        -1.52279
LJ           1.93003        -2.47204        -1.60684
LJ            2.4606       -0.919515        -2.49109
LJ          -1.64865        0.109355         2.53307
LJ          -2.41396        0.125617         -1.8177
LJ           -1.8272       -0.906705        -1.59485
LJ          -1.02321       -0.920762         2.52876
LJ      -0.000650461      -0.0567453         2.53669
LJ         -0.780519         0.13038        -1.76843
LJ           0.10228       -0.825299        -1.76257
LJ            1.0375        -1.01124        -2.53099
LJ           1.78752        0.131094         2.47178
LJ          0.703547        0.152615        -1.60917
LJ           1.57892       -0.868964        -1.73385
LJ          -2.50427        0.923232         2.45664
LJ          -1.80365         1.87743         2.49334
LJ           2.55779         1.59648        -1.80262
LJ          -1.71714        0.875204        -1.77552
LJ         -0.630244          1.0186          2.2991
LJ          0.130702         1.65519         2.37593
LJ         -0.794601         1.63702        -1.71163
LJ        -0.0777813        0.858081        -1.73526
LJ          0.798152        0.843087         -2.4469
LJ           1.75632         1.80616         -2.5247
LJ          0.981948         1.72084        -1.52819
LJ            1.7428        0.848301        -1.74498
LJ          -2.45421         2.55047       -0.851668
LJ          -1.54863        -1.79806       -0.657557
LJ          -2.55603        -1.79482      -0.0876626
LJ          -1.76016         2.43136      0.00850886
LJ         -0.748114         2.52862       -0.816862
LJ        -0.0466473         -1.7289       -0.877907
LJ         -0.741959        -1.77906       0.0722918
LJ         -0.133427         2.37439      -0.0426382
LJ           1.00634        -2.56192       -0.897346
LJ           1.67641        -1.71993       -0.800232
LJ          0.764802        -1.86012        0.116651
LJ           1.65571        -2.42359       -0.085638
LJ          -2.52882       -0.977393       -0.785423
LJ          -1.90796         0.15112       -0.733472
LJ          -2.56337     -0.00412851       0.0226974
LJ          -1.73613       -0.736712      -0.0942284
LJ         -0.879544        -0.70838       -0.797899
LJ       -0.00233786       0.0751111       -0.727899
LJ         -0.844995      0.00254855         0.06907
LJ        -0.0993986       -0.746746       -0.103664
LJ          0.791314       -0.750118       -0.835558
LJ           1.86059       -0.123605       -0.882449
LJ          0.929568        0.038235       -0.134858
LJ            1.7488        -0.99022       -0.035227
LJ          -2.50184         1.14049       -0.681455
LJ          -1.64023         1.69273       -0.963275
LJ           2.50926         1.72703        0.134906
LJ           -1.8692        0.947741        0.064384
LJ         -0.872082        0.824116       -0.841542
LJ        -0.0197655         1.70768       -0.838304
LJ         -0.967732         1.63752       -0.216981
LJ        -0.0998523         1.00178      -0.0607182
LJ          0.704426        0.910947       -0.842675
LJ           1.94711          1.8137       -0.963569
LJ          0.731598          1.8966       -0.138614
LJ           1.76356        0.829048      -0.0984377
LJ            2.4581         2.48448        0.987383
LJ          -1.52908        -1.81211        0.990969
LJ           2.53938        -1.64964         1.71368
LJ           -1.8747         2.46334         1.59509
LJ         -0.820461          2.5454        0.812717
LJ         0.0814879        -1.69208        0.827406
LJ         -0.888077        -1.65286         1.77659
LJ          0.108486        -2.48247         1.73928
LJ           1.05733         2.55884        0.986995
LJ           1.94538        -1.61609        0.818152
LJ          0.878439        -1.66843         1.63775
LJ           1.62916        -2.51856         1.88978
LJ           2.48793       -0.709682         0.87434
LJ           -1.8684     -0.00726989        0.915499
LJ          -2.53457      0.00278785          1.8786
LJ          -1.86397       -0.853114          1.6535
LJ         -0.662067       -0.793409        0.752079
LJ        -0.0122381      -0.0629777        0.839238
LJ         -0.762083       0.0774063         1.81688
LJ         0.0408784       -0.943994         1.65381
LJ          0.869005       -0.939771        0.883373
LJ           1.59296      0.00644408        0.679442
LJ          0.786008      -0.0746666         1.82096
LJ           1.69493       -0.859386         1.64883
LJ           2.44953        0.763381        0.743238
LJ          -1.60056         1.79175        0.818006
LJ           2.50376         1.68219         1.69859
LJ          -1.68301        0.753531         1.63366
LJ         -0.894315        0.639822         0.83266
LJ         0.0303237         1.68956        0.820361
LJ         -0.795987         1.73831         1.47154
LJ         0.0328121        0.915197         1.53675
LJ          0.867856        0.851981         1.07353
LJ           1.74718         1.79899         0.81082
LJ           0.98222         1.73266          1.8858
LJ           1.71891        0.957296         1.64826
