108
#Comment!
LJ           2.54619        -2.38599         2.53078
LJ          -1.69705        -1.64343          2.4903
LJ           2.51672        -1.68381        -1.76088
LJ           -1.7317        -2.37616        -1.76794
LJ          -0.79042         2.54245         2.49791
LJ          0.036536         -2.0471        -2.44515
LJ          -1.09554        -1.42333        -1.60131
LJ         0.0525799          2.2047        -1.71058
LJ           1.00793          2.4225         -2.5579
LJ           1.71776        -1.79347         2.49949
LJ           1.02956        -1.79575        -1.69257
LJ           1.93386         2.45723        -1.58112
LJ           2.47276       -0.718626         2.53669
LJ          -1.85577       0.0280585         2.50684
LJ           2.49145        0.208891        -1.97388
LJ           -1.7626       -0.468802        -1.57365
LJ          -1.09697       -0.877257        -2.39825
LJ      -0.000784219       -0.214283        -2.46849
LJ         -0.754736    -0.000648068        -1.69012
LJ         -0.125876        -1.04665        -1.86883
LJ           1.01003        -1.13121        -2.44116
LJ           1.66524       0.0126461        -2.52835
LJ          0.792469      0.00658898        -1.77156
LJ           1.58884       -0.701273        -1.71157
LJ          -2.51778         1.06352         2.50783
LJ          -1.80736         1.97608        -2.55163
LJ          -2.51798         1.71203        -1.65777
LJ          -1.54633        0.899733        -1.78968
LJ         -0.665315          1.1491          2.4984
LJ         0.0970742         1.79631         2.47087
LJ         -0.818306         1.66103        -1.69775
LJ         0.0529038         1.07652        -1.74711
LJ          0.998719        0.909979        -2.53631
LJ           1.88815         1.81499         2.48326
LJ          0.922377         1.79262        -1.69663
LJ           1.72333        0.922389        -1.76228
LJ           2.43764         2.33817        -0.77313
LJ          -1.49037        -1.88228       -0.724863
LJ          -2.47477        -1.86497      -0.0407277
LJ             -1.73         2.49698      -0.0602006
LJ         -0.748174        -2.49126        -1.10629
LJ         0.0851331        -1.65663       -0.904894
LJ         -0.414949        -1.78411       0.0239833
LJ         -0.211166         2.36625       0.0540547
LJ          0.814912        -2.52896       -0.952394
LJ           1.70902        -1.71667        -0.94673
LJ          0.617961        -2.09877        0.123418
LJ           1.70857        -2.38726        0.016119
LJ          -2.46356        -0.88507       -0.633501
LJ          -1.84448       0.0771993       -0.711462
LJ           2.48639       0.0743979       0.0732825
LJ          -1.56896       -0.972595       0.0311196
LJ         -0.532811        -0.87887       -0.761859
LJ      -0.000908431        0.198603        -1.02382
LJ         -0.943981       -0.121407       -0.105969
LJ         0.0421143       -0.743809        0.256825
LJ          0.843571       -0.987365       -0.721583
LJ           2.01461       -0.072647       -0.900684
LJ           0.72293       0.0268643      -0.0746451
LJ           1.57953       -0.889469      -0.0996476
LJ          -2.43206        0.914707       -0.951347
LJ           -1.5785         1.71861       -0.769704
LJ           2.46016         1.79726       0.0903756
LJ          -1.91444         0.97395     -0.00359996
LJ          -1.10989         0.69893       -0.850015
LJ         0.0687265          1.7905       -0.799126
LJ         -0.792629         1.48487       -0.180567
LJ          -0.10178        0.851211        0.103929
LJ          0.739827         1.01361         -0.6761
LJ           1.62308         1.58418       -0.945694
LJ          0.894661         1.99204      -0.0694097
LJ           1.67739        0.869027       -0.250904
LJ           2.50134         2.47985        0.893129
LJ          -1.42543        -1.79348        0.637679
LJ           2.51569        -1.59887         1.83501
LJ          -2.03141         -2.5228         1.71488
LJ         -0.667835        -2.50868         1.06549
LJ          0.167248        -1.64604         1.00408
LJ         -0.912901        -1.67345         1.65016
LJ          0.103541        -2.30648         1.70074
LJ          0.961404         2.37917        0.919593
LJ           1.89921        -1.53558         0.69331
LJ           1.01038        -1.82331         1.69091
LJ           1.69842         2.56148         1.69566
LJ           2.54112       -0.651075        0.978227
LJ          -1.67463      -0.0525784        0.885421
LJ          -2.52391       0.0333111         1.84586
LJ          -1.76625       -0.838887         1.64769
LJ         -0.739077        -0.81372         1.05434
LJ         0.0529711       0.0261114        0.897003
LJ         -0.828523        0.211273         1.97897
LJ          0.220366       -0.923156         1.93993
LJ          0.967028        -1.06148        0.735176
LJ            1.6847        -0.16036        0.705547
LJ          0.856508     -0.00769013         1.84204
LJ           1.66832       -0.816215         1.74496
LJ           2.41666        0.854782        0.923125
LJ          -1.51323          1.9198        0.809942
LJ           2.49225         1.64859         1.63972
LJ          -1.67681        0.944942         1.52891
LJ         -0.919622        0.615247         0.87221
LJ          0.243151         1.45398        0.847261
LJ         -0.869975         1.58102          1.5235
LJ        -0.0343574        0.845925         1.63976
LJ           1.03859        0.710144        0.824891
LJ           1.60278          1.7379        0.589463
LJ          0.829872         1.57892          1.7445
LJ           1.81386        0.814275         1.80904
