108
#Comment!
LJ           2.47991        -2.47775         2.55769
LJ          -1.75125        -1.69907         2.43164
LJ             2.512        -1.76213        -1.76703
LJ          -1.75545         2.55508        -1.56119
LJ         -0.866215         2.49862        -2.53362
LJ         0.0428479        -2.04451        -2.45667
LJ          -1.20523        -1.46787        -1.72967
LJ        -0.0452838         2.22017          -1.807
LJ          0.865032         2.49871         2.46661
LJ           1.79244        -1.71162        -2.54366
LJ          0.884497        -1.84826        -1.76876
LJ           1.90218         2.54133        -1.69558
LJ           2.52072       -0.905095        -2.54985
LJ          -1.82498       0.0460949          2.5224
LJ           2.48979        0.129222        -1.98893
LJ          -1.80302       -0.568507         -1.6423
LJ          -1.21192       -0.793155        -2.43716
LJ       0.000438984       -0.231067         -2.4815
LJ         -0.704968      0.00980584         -1.8023
LJ         -0.158522        -1.13343        -1.86255
LJ          0.918568        -1.16184        -2.52127
LJ           1.72969       0.0313262         2.51672
LJ          0.937743       0.0711507        -1.81265
LJ           1.68965       -0.627365        -1.74078
LJ          -2.50995        0.930815         2.45566
LJ          -1.72431         1.98479         2.49499
LJ           -2.4625         1.64544        -1.61921
LJ          -1.57704        0.771335        -1.79056
LJ         -0.597203         1.06105         2.49874
LJ          0.197793         1.74727          2.4557
LJ         -0.968606         1.62436        -1.76176
LJ         0.0868825         1.03324        -1.80852
LJ          0.884976        0.846896         2.47242
LJ           1.86558         1.84096         2.50631
LJ          0.899612         1.84058        -1.63816
LJ           1.58894        0.963233        -1.64026
LJ           2.46402          2.3622       -0.745432
LJ          -1.49296        -1.70979       -0.758446
LJ          -2.43485        -1.91419      -0.0765103
LJ          -1.66639         2.54685      -0.0142761
LJ         -0.826006          -2.553        -1.03011
LJ          0.216325         -1.7405       -0.921576
LJ          -0.59699         -1.8609        0.033644
LJ         -0.180232         2.37288        0.105484
LJ          0.848238        -2.44856       -0.924022
LJ           1.84175        -1.73062       -0.931348
LJ          0.784504        -2.01732        0.229579
LJ           1.70151        -2.43703       0.0130754
LJ           2.55388       -0.931675       -0.680907
LJ          -1.88207        0.178626       -0.812543
LJ          -2.51634       0.0935081       0.0469731
LJ          -1.75144       -0.966257       0.0383252
LJ         -0.587865       -0.864552       -0.685634
LJ         -0.105507        0.333576       -0.954604
LJ         -0.706063         -0.0151      -0.0181438
LJ         0.0692814        -0.80575        0.261392
LJ          0.782765        -0.97773       -0.561714
LJ            1.9891       -0.160713       -0.799145
LJ          0.727825       -0.025353      -0.0135335
LJ           1.71344        -1.08735       -0.140813
LJ          -2.53514        0.970265       -0.886922
LJ          -1.54966         1.84343       -0.819799
LJ           2.38607         1.68492      0.00422479
LJ          -1.93735         1.09461        0.171806
LJ          -1.04347        0.738631       -0.957915
LJ            0.1744         1.86542       -0.889232
LJ         -0.760542         1.59831      -0.0828454
LJ         0.0550285        0.895391       -0.105433
LJ          0.744345         1.01287       -0.800895
LJ           1.63485         1.72089       -0.857294
LJ          0.759656         2.05142      -0.0290607
LJ           1.73824        0.838143       -0.133393
LJ           2.38182         2.30408        0.805755
LJ          -1.40545        -1.85837        0.680993
LJ           2.56337        -1.56365         1.71298
LJ          -1.99981         -2.3954         1.50678
LJ         -0.592035         2.51055         1.12771
LJ          0.084644        -1.61758        0.932672
LJ         -0.929516        -1.88319         1.74845
LJ         0.0804541        -2.31317         1.73147
LJ             0.811         2.31738        0.945913
LJ           2.00731        -1.62679        0.689529
LJ          0.993575        -1.78413          1.7204
LJ           1.66578         2.55564         1.69008
LJ           2.49038       -0.680266        0.943002
LJ          -1.76947       0.0726175         0.85726
LJ           2.50039       0.0139051         1.74507
LJ          -1.91381       -0.758593         1.76171
LJ         -0.738508       -0.905835         1.04075
LJ         0.0361072       -0.136123         1.01274
LJ         -0.927528        0.231042         1.90051
LJ          0.228861       -0.992309         1.80661
LJ           1.10221           -1.01        0.667581
LJ            1.6175       -0.137788        0.753911
LJ          0.829173      -0.0567117         1.92103
LJ           1.59337       -0.827772         1.82549
LJ           2.37102        0.862366        0.844688
LJ          -1.43411         1.93755        0.856687
LJ           2.42856         1.61893         1.56896
LJ          -1.81724        0.982355         1.59834
LJ         -0.914993        0.666887        0.858026
LJ          0.186588         1.47904        0.677681
LJ         -0.777641         1.59701         1.63489
LJ          0.047181        0.803665         1.56094
LJ           1.07597        0.800052        0.917782
LJ           1.54699         1.68147        0.570432
LJ          0.812969         1.58344         1.70372
LJ             1.769        0.766287         1.80535
