108
#Comment!
LJ          0.926517        -2.10693         1.91528
LJ          -1.49506        -1.69586        -1.19853
LJ          0.276674        -1.67763         1.07094
LJ          0.775787         1.85126        -0.98389
LJ          0.374602       -0.855209         1.76526
LJ            2.3766         1.00124        0.417787
LJ           1.40429        0.702929       -0.743221
LJ           1.42735         -1.5817        -1.69881
LJ          -2.38919        -1.42063         1.48189
LJ          0.555471         1.22828       -0.216321
LJ          -2.50642        0.839879         1.89971
LJ          -2.13826         2.46317         2.41072
LJ          0.376033        0.199045        0.151805
LJ          -1.72333         1.41327         2.27184
LJ          -1.80141         1.33935      -0.0330921
LJ          -1.20852       -0.439856       -0.820491
LJ         -0.589129         -1.1396        -2.50631
LJ          -1.15145        0.677915       -0.919328
LJ           1.36424       -0.908642         1.69365
LJ           1.10124        -2.39728        -2.28046
LJ           1.83726      -0.0326621          1.2527
LJ         -0.497556         1.49152         2.43738
LJ            2.0942           1.914        -2.45167
LJ           2.55286       -0.560923        -0.60591
LJ           2.21106        -2.18631         1.82952
LJ          0.376837        -0.12641        -1.85802
LJ          -2.52463        -1.98896        -1.09016
LJ         -0.420638       -0.593591        -1.49182
LJ          -2.16646        0.195378        0.313295
LJ         -0.507045        -1.64922       -0.809746
LJ         -0.351784         0.62681        -1.75906
LJ          -0.47216        0.862076         1.65621
LJ          -1.63897        0.235762         2.15037
LJ           2.54596         2.11045        0.136186
LJ          -1.96736        -1.21397       -0.108997
LJ         -0.466006         2.54521          0.4548
LJ           2.17827        -1.75531      -0.0465668
LJ           2.03226       -0.872056        0.499179
LJ          -1.08148         1.45414        -1.80163
LJ           1.09191       -0.423667        0.658749
LJ          0.165921         1.02082        0.950173
LJ          -2.40726         2.17697       -0.852186
LJ         -0.686973        -1.14255         1.23528
LJ          -2.35584         1.73107         1.37071
LJ           -2.3731        -1.14484        -1.89729
LJ           1.70779         1.00544         2.55347
LJ           1.73047         1.57584       -0.225734
LJ          -1.74694        -2.29618         1.45838
LJ           1.87986       0.0664464        0.074427
LJ           1.25411       -0.639859        -1.86475
LJ          -1.58946        -2.45878       -0.314564
LJ         -0.816531       -0.943619       0.0415103
LJ          0.474129        -1.21132        -1.37778
LJ          -2.36662       -0.205288        -2.39632
LJ          0.762941         1.66781        -2.39259
LJ          0.569305          2.2635        0.485174
LJ           1.16509        -1.71083        0.561151
LJ          -1.73961       -0.735669        0.845534
LJ          -2.56196        0.937895       -0.608539
LJ           2.14256         1.50635        -1.41756
LJ          -1.47439       -0.785202         1.99411
LJ           1.79589         2.44888        -1.35473
LJ         -0.821235         2.39892       -0.901395
LJ           1.56244         2.09575         1.84175
LJ           1.29847        -1.08833       -0.638344
LJ         0.0728831        -2.45039         2.45899
LJ          -2.21769        -2.12253        0.572843
LJ          0.218009          1.9108           1.674
LJ         -0.755565        0.268575        0.253981
LJ          0.380759        -1.83473       -0.242215
LJ         -0.493038         1.35237       -0.718314
LJ          -1.04749        -1.81478         1.99847
LJ          -1.09458         2.20183         2.30021
LJ         -0.766704         1.42357        0.458974
LJ           1.25447        -2.53693       -0.376932
LJ          -1.15088      -0.0159236          1.2989
LJ          -2.29568       -0.113821         1.49038
LJ          0.267317        0.656615         2.44819
LJ          -1.41968       -0.670413        -2.00454
LJ         -0.208903        0.265911       -0.635737
LJ          0.970302        0.887759         1.68772
LJ          -1.98242       0.0104762         -1.1529
LJ          0.255579        -2.28232        -1.34042
LJ          0.422471        0.891224        -1.24847
LJ         0.0081789         2.36251       -0.367888
LJ          -2.19092         1.74569        -2.01688
LJ           1.27694          1.5931        0.957117
LJ           1.15211        0.588973         -1.8399
LJ         -0.409679         -2.4147         1.51486
LJ           -2.5373        0.765125         -2.0429
LJ           1.99222        -2.44847        0.715252
LJ         -0.230924       -0.182017         2.29512
LJ         0.0300484       -0.734204        0.545345
LJ           1.32178        0.713085        0.474597
LJ       -0.00803163         1.77727        -1.61976
LJ         -0.504573          -1.934        -1.79577
LJ           2.11361       -0.179633          -1.495
LJ          0.501967        -1.39077        -2.39014
LJ          0.536699       -0.322331         -0.7749
LJ          -1.37126        0.496184        -1.99071
LJ          -1.55604         2.55222        -1.71075
LJ          -1.53526         2.05354        0.736071
LJ          0.169709       0.0281988         1.29698
LJ            2.3287        -2.15458        -2.09432
LJ          -1.24477        -1.83432        0.488753
LJ           -1.5267        0.959526         1.39623
LJ           2.24133       -0.988762          2.2549
LJ           1.84258     0.000324269         2.31962
