108
#Comment!
LJ           1.75826       0.0768466        -1.50115
LJ          -1.87834        -1.06117        -1.58857
LJ         -0.366403          2.3917         2.14192
LJ          -1.07493        -1.98324        -2.37108
LJ          -1.67095        0.803244         -1.8419
LJ          -2.34655       -0.191537        -1.86868
LJ           2.07508        -1.06325        -1.95939
LJ           2.12143        0.513072        0.510694
LJ            0.7314         1.11481        -1.66268
LJ           2.04856         2.50671         0.40921
LJ          -2.12546         2.56318       -0.289332
LJ         -0.543482        -1.65687         1.93941
LJ           1.60719        -1.55683       0.0224754
LJ          -1.03108        0.351594         1.63085
LJ           1.08585          2.1496         0.60786
LJ           2.48656         2.02039        -2.23452
LJ           1.18503        -1.16586        -1.03671
LJ          0.535536        -1.02769       0.0283868
LJ         -0.872881         1.48429        -1.42781
LJ           -1.7239         1.97112        0.334708
LJ          -1.75676         1.05159         1.22233
LJ         -0.760312         1.59163         1.04948
LJ          0.871807       -0.285472       -0.792951
LJ          0.277323          1.9655        -1.41601
LJ           1.81992        -1.06654         2.10423
LJ          0.150364         -2.0754         1.21508
LJ          -2.19173        -2.46795        0.950451
LJ          0.763208        -1.54912         2.00883
LJ           1.25398        -2.41672         1.57361
LJ           2.19245         1.50637       -0.240469
LJ          -2.10845      -0.0760712          1.1203
LJ           2.20356        0.786538         2.54773
LJ           1.55706         1.82175         2.35093
LJ          -1.69577         2.47724        -1.42676
LJ          0.217105        -1.19742        -1.49198
LJ          0.540993         1.76285         1.56711
LJ          -1.65494         2.02309        -2.32024
LJ         -0.489273        -2.42276       -0.928325
LJ           2.16498        -0.69673         1.13224
LJ           2.08775         1.13577        -1.42788
LJ          -2.48729        0.300091       -0.777932
LJ         -0.178091        0.761865        -1.32766
LJ           1.11141         1.04181        0.500086
LJ          -1.91459        0.643458         2.18055
LJ           2.08841        0.602377         1.52375
LJ          -1.37656       -0.159282        -1.44914
LJ           1.72189        -2.16936         2.53721
LJ           1.49936         2.07764        -1.66546
LJ          0.520117        0.206459        0.166927
LJ         -0.590018        -1.47363        0.741149
LJ         -0.785726        -1.08703        -1.60501
LJ         -0.976741         1.09386         2.38367
LJ          0.577948        -2.13346        0.151249
LJ         -0.358569       -0.419172        0.509045
LJ           1.49506         0.69045       -0.655105
LJ          0.756381         2.47125         2.44552
LJ            1.5644         1.55107         1.28562
LJ          -2.03237         -1.3776       -0.250864
LJ          -1.36105       -0.605023       -0.624129
LJ           1.47365         -0.2195         2.50399
LJ          0.671125      -0.0686224        -1.82748
LJ          -1.40412         2.08476         1.74341
LJ         -0.142556       -0.219278         -1.2342
LJ         -0.524047         2.26926        -1.90918
LJ            2.4767         1.64997        0.753704
LJ          -1.17141        0.726803       -0.844928
LJ         -0.616929         0.27724        -2.04781
LJ           2.25009       -0.723036       -0.729999
LJ          0.106991         1.51088        -2.49685
LJ        -0.0870323        0.884443         1.81116
LJ         -0.775705         1.05663        0.203541
LJ          -1.39011       -0.857367        0.614208
LJ           2.46752        -1.93618        -1.03304
LJ         -0.410938        0.145434       -0.388492
LJ           2.45589        -1.62019         1.56513
LJ         -0.210428        -1.03287        -2.46931
LJ           0.23238        -1.07784         1.11355
LJ          -2.52754        -2.49714         2.10929
LJ           2.55091       -0.142781         2.23069
LJ          0.472116        -1.96007       -0.816717
LJ          -2.09363        -1.21273         2.54217
LJ          -2.53492        -0.61189        0.289478
LJ           -2.4681        -2.05393        -2.09449
LJ         0.0447073        0.826627        0.725068
LJ         -0.992749         1.82668       -0.430202
LJ          0.298756        -1.91312        -2.22796
LJ         -0.186885         2.28225        0.408216
LJ           0.40811       0.0752251         2.20664
LJ           2.51834        -1.60024        0.539888
LJ           1.03354          1.7723       -0.318444
LJ          -1.57859        -1.76764           1.606
LJ          -1.31573       0.0690017        0.282476
LJ         -0.897871        -2.42248         1.02384
LJ           1.49146       -0.358471       0.0122288
LJ           1.51164         -2.3517       -0.795863
LJ          0.942376         1.03312         2.37065
LJ          0.114735          1.2259       -0.200097
LJ          0.876476        -0.95709        -2.26424
LJ         -0.805566         -0.7121          1.4898
LJ          -1.39516       -0.420564         2.37103
LJ          0.886542         0.68918         1.41139
LJ          -1.16537        -2.18943       0.0285968
LJ          -1.84349        0.954367        0.104098
LJ           -1.2158        -1.83374       -0.997011
LJ           2.51143         1.49766         1.90732
LJ         -0.345283        -1.12866       -0.525515
LJ          -2.24049         1.70833        -1.16292
LJ          0.892047       -0.252634        0.977321
