108
#Comment!
LJ          -2.54506        -2.33656         2.51427
LJ          -1.66619        -1.50135         2.49081
LJ          -2.34226        -1.51176        -1.81545
LJ           -1.6333        -2.47701        -1.70315
LJ         -0.788284         2.38534        -2.41535
LJ         -0.128691        -1.46479         2.48881
LJ         -0.920907        -1.44071        -1.97582
LJ         0.0733417        -2.47911        -1.98258
LJ           1.00009        -2.36775        -2.42455
LJ           1.70032        -1.54993         2.39471
LJ           1.21209        -1.67449        -1.70958
LJ           1.87424        -2.55141        -1.66077
LJ           2.47106       -0.736202        -2.46882
LJ          -1.84133      -0.0731933         2.35172
LJ           2.53487      0.00796539        -1.68216
LJ          -1.60755       -0.534251        -1.66065
LJ         -0.770005       -0.646291        -2.54414
LJ          0.138458      -0.0630006        -2.30796
LJ         -0.801574       0.0731593        -1.73613
LJ          0.170307       -0.942496        -1.57039
LJ           0.79139       -0.994606        -2.50812
LJ           1.69085       0.0233051        -2.39459
LJ          0.908292        0.189898        -1.60048
LJ           1.57246       -0.623819        -1.55006
LJ          -2.47848        0.846475        -2.41571
LJ          -1.78343         2.04727         2.44408
LJ          -2.49545         1.73132        -1.56894
LJ          -1.56967        0.649856        -2.09692
LJ         -0.561398        0.812377          2.5495
LJ         0.0693996         1.75893         2.41277
LJ          -1.27296         1.72783        -1.61778
LJ        -0.0417184         1.08163        -1.62842
LJ          0.942855        0.907285        -2.53737
LJ           1.73439          1.8927         2.46989
LJ          0.896276         1.86955         -1.7819
LJ           1.69602        0.971522        -1.83132
LJ           2.53948        -2.54105       -0.759929
LJ          -1.35892         -1.6883       -0.914849
LJ          -2.29234        -1.57624       -0.108355
LJ          -1.65413         2.39412        0.209458
LJ         -0.740882        -2.54271        -1.05199
LJ         0.0513444        -1.85785       -0.686566
LJ         -0.735759        -1.83629      0.00130586
LJ         -0.023182         2.33199        0.207135
LJ          0.878315        -2.50174        -1.04889
LJ           1.85594        -1.58988       -0.854203
LJ          0.818762        -1.94171        0.213678
LJ           1.75067         2.56383        0.122077
LJ          -2.37468       -0.775993       -0.794641
LJ           -1.8781        0.237808       -0.935811
LJ           -2.3695     -0.00664945       0.0011677
LJ          -1.52311       -0.709681       -0.118703
LJ         -0.686176       -0.753742       -0.762648
LJ        -0.0286015      -0.0646143       -0.938202
LJ          -0.67488       -0.123408      -0.0128976
LJ        0.00772905        -1.04225        0.165842
LJ          0.983196        -1.06226        -0.74961
LJ           1.93435       -0.263876       -0.642403
LJ          0.741773        0.101829       0.0543191
LJ           1.91652        -1.05486       0.0517658
LJ           2.37549        0.800341       -0.774795
LJ          -1.83562          1.7292       -0.655589
LJ           2.45731         1.72267      -0.0276041
LJ          -1.76697        0.971123        0.156602
LJ          -1.00881        0.790453        -1.00979
LJ        -0.0187754         1.73563       -0.783777
LJ         -0.718031         1.68275       -0.103339
LJ         0.0457917        0.843633       -0.127665
LJ          0.847694         1.04419       -0.983083
LJ           1.68649         1.70367        -0.82258
LJ          0.880785         1.78705       -0.099081
LJ           1.68672        0.823786        0.119983
LJ           2.49102         2.45961        0.705451
LJ           -1.4459        -1.78059        0.819681
LJ            2.4766        -1.57086         1.60822
LJ          -1.83266        -2.39428         1.65558
LJ          -0.91937         2.46791        0.975707
LJ        -0.0936822         -1.5164         1.01939
LJ         -0.912301         -1.6294         1.76818
LJ        -0.0158506        -2.27106         1.76646
LJ          0.779432         2.40996        0.878168
LJ             1.687        -1.65252        0.994963
LJ           0.82091        -1.61284         1.65441
LJ           1.69791        -2.49089         1.60605
LJ          -2.41858       -0.834049        0.772983
LJ          -1.72423        0.165283        0.794481
LJ           2.38726       0.0205249         1.67007
LJ           -1.6757       -0.809434         1.57577
LJ         -0.820138       -0.875641        0.974535
LJ          0.158871      -0.0630976        0.831237
LJ         -0.914843        0.010265         1.77814
LJ         0.0701389       -0.739968         1.76963
LJ            1.0614       -0.904368         0.52845
LJ           1.77717       -0.228629        0.844147
LJ          0.889242      0.00642833         1.68211
LJ           1.52834       -0.693271         1.70455
LJ           2.31854        0.912366         1.06546
LJ          -1.84811         1.65524        0.871014
LJ           2.41526         1.87632         1.56886
LJ          -1.74775        0.844666         1.70366
LJ         -0.927355        0.936605        0.860048
LJ          0.363048         1.40751        0.794786
LJ         -0.646612         1.54031         1.67808
LJ         0.0988288        0.729018          1.6374
LJ           1.06669        0.715552         1.01163
LJ           1.63027         1.76275        0.712215
LJ          0.889409         1.81978         1.64313
LJ           1.83709        0.991313          1.9346
