108
#Comment!
LJ           2.55562        -2.48383         2.55716
LJ          -1.76162        -1.69931         2.41181
LJ           2.55804        -1.76912        -1.77182
LJ          -1.79776         2.53188        -1.59662
LJ         -0.849569         2.49658         -2.4991
LJ      -6.32763e-05         -2.0436        -2.53642
LJ          -1.21628        -1.50142        -1.72319
LJ         0.0181111         2.19884        -1.79569
LJ          0.871843         2.54963         2.48111
LJ           1.78443        -1.70594        -2.48384
LJ          0.823473         -1.8871        -1.77308
LJ           1.84472         2.53132        -1.73802
LJ           2.51564       -0.936249         2.55372
LJ          -1.83137       0.0355073         2.54673
LJ           2.48154        0.125954        -1.97901
LJ           -1.7925        -0.54819        -1.65419
LJ          -1.19972       -0.750596        -2.43082
LJ         0.0133957        -0.24211        -2.46832
LJ          -0.73385       0.0144876        -1.81213
LJ         -0.134093        -1.15557        -1.87234
LJ          0.883233        -1.23272        -2.49155
LJ           1.73423       0.0211256         2.49261
LJ            0.9177       0.0710458        -1.77325
LJ           1.67415        -0.64559        -1.73536
LJ           -2.5209        0.957552         2.42641
LJ          -1.70389         1.93215         2.44581
LJ            -2.413         1.63781        -1.61687
LJ          -1.61509        0.774788        -1.81504
LJ         -0.619803         1.00099         2.48426
LJ          0.173282         1.72507         2.45986
LJ          -1.01214         1.64668        -1.78916
LJ         0.0725384         1.04543        -1.80359
LJ          0.938884        0.831317          2.4649
LJ           1.82688         1.86265         2.51412
LJ          0.881567         1.84447        -1.62536
LJ           1.58725        0.986831        -1.69291
LJ           2.46098         2.35808       -0.736744
LJ          -1.45025        -1.69604       -0.757912
LJ          -2.48208        -1.93155      -0.0863243
LJ          -1.62861         2.49172       0.0116709
LJ         -0.826469         2.56132        -1.01868
LJ           0.15444        -1.68388       -0.946518
LJ         -0.652865        -1.84777      0.00601836
LJ         -0.213818         2.39371       0.0971364
LJ          0.834208           -2.43       -0.936658
LJ           1.84742        -1.75892       -0.935997
LJ          0.782113        -2.02084        0.212074
LJ           1.69004        -2.41876      -0.0393664
LJ          -2.54597       -0.942743       -0.711424
LJ          -1.85912        0.179382       -0.816905
LJ          -2.49546       0.0916829       0.0296368
LJ          -1.78002       -0.935089       0.0649118
LJ         -0.576724       -0.854159       -0.717734
LJ         -0.110826        0.346136       -0.944797
LJ          -0.66079      -0.0282053     0.000546197
LJ         0.0801449       -0.803997        0.315356
LJ          0.775115       -0.980668       -0.619491
LJ           2.00551       -0.155807       -0.719601
LJ          0.723583       0.0167876      -0.0390687
LJ            1.7138          -1.121       -0.124897
LJ           2.51651        0.979391       -0.883405
LJ          -1.53609         1.85139       -0.783056
LJ           2.41849          1.6981      -0.0284431
LJ          -1.90641         1.13348        0.183248
LJ          -1.04549        0.770424       -0.916357
LJ          0.175831         1.81832       -0.851336
LJ         -0.732463         1.58855       -0.114281
LJ         0.0888271        0.898813      -0.0791761
LJ          0.755766         1.00838       -0.793258
LJ           1.67507         1.72116       -0.866846
LJ          0.748016         2.05422      -0.0302241
LJ           1.77024        0.838572       -0.155066
LJ           2.36838         2.26694        0.789878
LJ          -1.38977        -1.87221        0.648373
LJ           2.50345        -1.55154         1.71187
LJ          -2.00401        -2.37772         1.48233
LJ         -0.587488         2.47566         1.13253
LJ         0.0835744        -1.58617        0.958204
LJ         -0.919741        -1.87923         1.78265
LJ         0.0885686        -2.30436         1.71624
LJ          0.831618         2.35487        0.960646
LJ           1.98201        -1.62509        0.730337
LJ          0.973035        -1.77478         1.75445
LJ           1.63431         2.56112         1.63542
LJ           2.47978       -0.684852        0.935041
LJ          -1.78543       0.0543247        0.825589
LJ           2.50757       -0.010155         1.76099
LJ          -1.89198       -0.741835         1.73459
LJ         -0.742696       -0.885857         1.01885
LJ         0.0167484       -0.160639         1.05983
LJ          -0.91585        0.195743          1.9285
LJ          0.225267        -1.00112         1.85846
LJ           1.10428        -1.00759        0.679064
LJ           1.57694       -0.123415        0.765794
LJ          0.846779      -0.0554977         1.92407
LJ             1.569       -0.845589         1.87246
LJ           2.34904         0.86454         0.84379
LJ           -1.4445         1.92556         0.85466
LJ           2.42549         1.59936         1.57474
LJ          -1.83635        0.976703         1.61168
LJ         -0.904076        0.665385        0.941074
LJ           0.19463         1.49935        0.723618
LJ         -0.798923         1.59187         1.62843
LJ          0.010862        0.790715         1.55905
LJ           1.08529         0.76867        0.943302
LJ           1.55435         1.68477        0.579151
LJ          0.848331         1.54127         1.64479
LJ            1.6821        0.781272          1.7515
