108
#Comment!
LJ          -2.43044        -2.39903         2.55702
LJ          -1.77914        -1.46128         2.51656
LJ          -2.26503        -1.52537        -1.76664
LJ          -1.61181        -2.35042        -1.84912
LJ         -0.810635         2.26252        -2.42894
LJ         -0.108098        -1.55039          2.4093
LJ         -0.895864        -1.52432        -1.95254
LJ         0.0203177         2.51106        -1.90696
LJ           1.01172        -2.36121        -2.43139
LJ           1.70422        -1.59222          2.4386
LJ           1.18067        -1.68728        -1.62847
LJ           1.91224          2.4654        -1.56726
LJ           2.39312       -0.621442        -2.53156
LJ          -1.82643      -0.0210325         2.30689
LJ          -2.46846      -0.0850192        -1.72995
LJ           -1.5048       -0.649702        -1.71564
LJ          -0.92228       -0.697354        -2.54336
LJ         0.0505447       -0.179537         -2.4746
LJ         -0.804537       0.0858174        -1.73777
LJ          0.161031       -0.935594        -1.65716
LJ          0.777234       -0.956131        -2.48764
LJ           1.63022      -0.0305639        -2.42634
LJ          0.784964        0.152658        -1.71495
LJ           1.61599       -0.620231        -1.55354
LJ          -2.53204        0.863281        -2.38279
LJ          -1.76622         1.96063          2.4271
LJ          -2.50229         1.74097        -1.55715
LJ          -1.58227        0.755662        -2.05061
LJ         -0.530405        0.729209         2.52363
LJ         0.0903274         1.75465         2.32105
LJ          -1.31051         1.76003        -1.72744
LJ         0.0397145         0.98404        -1.67633
LJ           1.13027          1.0193         -2.4809
LJ           1.71362         1.87384          2.5021
LJ          0.962909         1.92268        -1.90509
LJ           1.80024        0.857384        -1.75234
LJ           2.55903        -2.55856       -0.744066
LJ          -1.45273         -1.6294       -0.924469
LJ          -2.28028         -1.6429       -0.137756
LJ          -1.66584         2.39506        0.117205
LJ          -0.69045        -2.43282       -0.990263
LJ         0.0242744        -1.77557       -0.673041
LJ         -0.716715        -1.78102      -0.0158011
LJ         0.0379888         2.35317        0.120728
LJ          0.771863         2.47724       -0.900848
LJ           1.94087        -1.62227        -0.92537
LJ          0.792187        -1.85295        0.202276
LJ           1.69982        -2.43143       0.0353896
LJ          -2.36268       -0.806752       -0.896325
LJ          -1.82043        0.117255       -0.940152
LJ          -2.40261       0.0219955     -0.00288344
LJ          -1.63189       -0.683011      -0.0512536
LJ         -0.771209       -0.774328       -0.684858
LJ        -0.0364765       0.0749399        -1.00182
LJ         -0.660823      -0.0433179        0.121975
LJ        -0.0567169       -0.891963        0.179905
LJ            1.0321        -1.11123       -0.808198
LJ           1.82603       -0.228691       -0.610216
LJ          0.796316       0.0393544        0.151839
LJ           1.97108        -1.04751       0.0141199
LJ           2.42269        0.761566       -0.798412
LJ          -1.85703           1.673       -0.686436
LJ            2.5464         1.69482      -0.0407822
LJ           -1.8009        0.945055        0.113058
LJ          -1.05318        0.827748       -0.968767
LJ         0.0603127         1.72483       -0.821238
LJ          -0.77441         1.65632      -0.0948253
LJ         0.0428959         0.86675        -0.14293
LJ          0.862266        0.919355       -0.906906
LJ           1.60612         1.73166        -0.83427
LJ          0.923206         1.72377      -0.0879528
LJ           1.57938        0.799633       0.0790699
LJ           2.50314         2.45975        0.676476
LJ          -1.47081        -1.82681        0.768572
LJ           2.55613        -1.41863         1.57673
LJ          -1.92318        -2.38523          1.6321
LJ         -0.858824         2.40761         1.02313
LJ          0.027107        -1.46186         1.09207
LJ         -0.998196        -1.65481         1.79651
LJ         0.0156474        -2.29193         1.74563
LJ          0.717747         2.38852        0.884587
LJ            1.6865        -1.53461         1.08397
LJ          0.799544        -1.68584         1.79072
LJ             1.754         -2.5469         1.45003
LJ          -2.36904       -0.782715         0.73148
LJ            -1.646       0.0951528        0.773386
LJ           2.38945     -0.00432167          1.6495
LJ          -1.69502       -0.916223         1.56421
LJ         -0.819459       -0.812779         1.02502
LJ          0.152066        -0.15912        0.879973
LJ         -0.926029       0.0216867         1.88565
LJ          0.231984        -0.72914         1.77511
LJ          0.981735       -0.917019        0.612629
LJ           1.74356       -0.378283        0.780513
LJ          0.838685       0.0865865         1.75974
LJ           1.50588       -0.796568         1.77557
LJ           2.41558        0.980098         1.04581
LJ          -1.86297         1.64216        0.966592
LJ           2.44101         1.88754          1.5201
LJ          -1.72245        0.838473         1.69042
LJ         -0.855487        0.939101        0.817346
LJ           0.39064         1.37988        0.760444
LJ          -0.68876         1.44176         1.72584
LJ          0.096203        0.807857         1.67223
LJ           1.15484        0.614624         1.03384
LJ           1.54548         1.79288        0.708634
LJ           0.93722         1.72261         1.65954
LJ           1.83247         1.07534           1.919
