108
#Comment!
LJ          -2.56398         2.52788        -2.52892
LJ          -1.68174        -1.78724         2.49262
LJ           2.53382        -1.81657        -1.76289
LJ          -1.80367         2.55894        -1.71233
LJ         -0.949062         2.41851         2.50734
LJ        -0.0879542        -1.72559        -2.50062
LJ         -0.790718        -1.63365        -1.62522
LJ        -0.0434861        -2.48313        -1.58386
LJ          0.902164         2.55069         2.45864
LJ           1.69979        -1.78895        -2.46106
LJ          0.909507        -1.59964        -1.59906
LJ           1.76718        -2.52947        -1.69836
LJ           2.38893       -0.817008         2.46281
LJ          -1.57276     0.000820343         2.43405
LJ           2.49527      -0.0306403        -1.71876
LJ          -1.64133       -0.917765        -1.67833
LJ         -0.912293       -0.841584        -2.55703
LJ          0.109414      -0.0772144         2.56054
LJ         -0.872903       0.0976248        -1.64284
LJ        -0.0278383        -0.96401         -1.6913
LJ          0.765266       -0.968361        -2.55159
LJ           1.76277       0.0816452         2.54477
LJ          0.756125       0.0627095        -1.71647
LJ           1.65697       -0.840776        -1.64241
LJ          -2.56154        0.858539         2.51502
LJ          -1.75996         1.73747         2.56233
LJ          -2.46639         1.59668        -1.75848
LJ          -1.80599        0.834996        -1.71988
LJ         -0.789529        0.920254          2.3876
LJ         0.0690133         1.63264         2.43457
LJ         -0.837011         1.75685        -1.71554
LJ        0.00664995        0.852946          -1.807
LJ          0.829235        0.963848        -2.44571
LJ            1.7414         1.76732         2.55526
LJ           1.02809         1.76471        -1.74374
LJ           1.63693        0.786935        -1.59468
LJ          -2.52609        -2.54224       -0.870094
LJ          -1.59812        -1.73848       -0.821763
LJ          -2.55098        -1.77817      -0.0607595
LJ          -1.64486         2.53163       0.0233289
LJ         -0.803872         2.49205       -0.884696
LJ        -0.0513656        -1.64906       -0.881915
LJ         -0.867749        -1.65945      -0.0865033
LJ         -0.107224         2.43114      -0.0908476
LJ          0.896036         2.50275       -0.810553
LJ           1.66178        -1.76783       -0.763696
LJ          0.744291        -1.85511       0.0945381
LJ           1.66673        -2.53277      -0.0287136
LJ          -2.52784       -0.861702       -0.796449
LJ          -1.83656         0.13263       -0.971769
LJ           2.54997      -0.0323053      -0.0382535
LJ          -1.77896       -0.906001      -0.0438431
LJ         -0.807378       -0.762038       -0.792589
LJ          0.038392       -0.201945       -0.881194
LJ         -0.940774       -0.177354       0.0139464
LJ         0.0298811       -0.730197        0.111794
LJ          0.960953       -0.791199       -0.856398
LJ           1.66146      -0.0279865       -0.915428
LJ          0.896882      0.00871259      -0.0727342
LJ           1.67126       -0.925303       -0.140173
LJ           2.55014        0.927648       -0.872421
LJ          -1.76111         1.70421       -0.887775
LJ           2.52027         1.72337       0.0461628
LJ          -1.68728        0.906884       0.0987596
LJ         -0.832299        0.780914       -0.640724
LJ         -0.114563          1.7655       -0.977659
LJ         -0.913041         1.69247      -0.0654182
LJ        -0.0493764        0.913005        0.135979
LJ          0.784487        0.959991       -0.820335
LJ           1.76283         1.78895       -0.804451
LJ          0.705681         1.72529       -0.111491
LJ           1.67105        0.751017       0.0501251
LJ          -2.53748        -2.52578        0.882663
LJ          -1.63102        -1.76878        0.996461
LJ           2.47417        -1.63051         1.71473
LJ          -1.78567        -2.56145         1.69527
LJ         -0.901561          2.4916         0.77984
LJ         0.0762628        -1.75641        0.905413
LJ         -0.865137        -1.76224         1.82925
LJ          0.102019        -2.51403         1.73946
LJ          0.976508         2.40102        0.882731
LJ           1.72579        -1.85226        0.835869
LJ          0.961006        -1.74632          1.5665
LJ           1.77116         2.55826         1.74551
LJ           2.47392        -0.77798        0.883625
LJ          -1.71437      0.00960944        0.870767
LJ          -2.50505      -0.0335516         1.86353
LJ          -1.75347       -0.930072         1.81442
LJ         -0.822146       -0.845944        0.782454
LJ           0.14659       0.0274605        0.819677
LJ          -0.73081         0.09268          1.7205
LJ         0.0236185       -0.913522         1.64246
LJ          0.783257       -0.860226        0.856585
LJ           1.65132       -0.142843        0.870162
LJ          0.831656      0.00307437         1.71419
LJ           1.79226       -0.786358         1.64535
LJ           2.51895        0.830442        0.778507
LJ          -1.70344         1.63893        0.828789
LJ            2.5467         1.66008         1.78345
LJ          -1.60846        0.837855         1.77071
LJ         -0.838531        0.778466          0.8235
LJ      -0.000824125         1.56772        0.865143
LJ         -0.803729         1.77984         1.63014
LJ         0.0160726        0.739241         1.59894
LJ          0.878995        0.746394        0.699459
LJ           1.64785         1.62766        0.790095
LJ          0.845644         1.55691         1.66074
LJ           1.70662        0.977004          1.6415
