108
#Comment!
LJ            0.2071        -1.59616         -1.4125
LJ           2.23211        -1.21048         1.24196
LJ          0.513026         2.13333        0.245074
LJ          -1.28374        -1.85628         2.55281
LJ          -2.51185       -0.335896         2.04218
LJ          0.228376        -1.47245         1.18506
LJ         -0.389445       -0.346955        0.111837
LJ         -0.331116         -2.0781        -2.26857
LJ          0.698987        0.388589        -1.66998
LJ          0.746638         2.16544         2.20944
LJ         -0.279166         -2.2368      0.00661226
LJ         -0.394114        -1.37921         1.97812
LJ         -0.826136         2.00404        0.105064
LJ          -1.85174        0.318404          1.4454
LJ           1.54008       -0.174707         2.36484
LJ           1.33808        -1.39564        -1.05395
LJ           2.02549         1.57848       -0.779029
LJ           1.66784        0.571194       -0.823255
LJ         -0.918557         1.86704         1.97689
LJ           1.03503        0.804711         2.29788
LJ          0.510488        -1.69332         2.38583
LJ           0.83094        -2.49324        -1.99206
LJ         -0.560722       -0.602275        -2.12003
LJ           2.02253        0.020023         1.19616
LJ           1.62746          -1.754        -2.08238
LJ           1.34214         2.28723         1.14877
LJ           1.52191        -2.17891         1.91864
LJ         -0.844897         0.73973         2.14385
LJ         0.0940498         1.22369         1.97016
LJ           1.93952        -1.54504      0.00708631
LJ           -1.2146         1.12388         1.23031
LJ          -1.15872        -2.06515         1.42833
LJ           1.64291        -2.45093        -1.22242
LJ          -1.54557         1.36622         -1.7911
LJ          -2.30197        -1.53765        0.451079
LJ          -2.19776         1.33786         1.69994
LJ         -0.220254        -2.53435         1.89674
LJ           2.55189        0.148423        -2.15592
LJ          0.603137        -2.26322       -0.754472
LJ             0.325         1.04632        0.231216
LJ         -0.533828        -1.19096       -0.662937
LJ          -1.14586       -0.218432        0.854006
LJ         -0.859578        -2.12213        -1.09443
LJ          -2.20855        -2.04956         2.07317
LJ           1.02327        -1.73808        0.594758
LJ          -2.52875        -2.46127       -0.523096
LJ          -2.13282       -0.784153        -2.13131
LJ           0.42858        -2.51106         1.08973
LJ          -1.43162        -2.22961       -0.161966
LJ         -0.700336       -0.347037         1.90512
LJ          -1.98448        0.913325        0.486822
LJ          -2.50654        -2.22126         1.08049
LJ        -0.0194535        0.240257         2.54112
LJ          -1.70544         2.20344         1.10431
LJ           1.42255         1.68273        0.211492
LJ         -0.532109          1.1695        -1.82291
LJ          -1.90661         2.04663         2.41915
LJ         -0.119925         2.14738        -1.21451
LJ          -1.34072       -0.623137        -1.35542
LJ          -1.07449      -0.0700423        -0.55798
LJ           2.10403         -1.1921         2.34824
LJ          -1.65577       -0.988854         1.88991
LJ          0.824101         1.42056         1.18814
LJ           1.23484       -0.333323       -0.863122
LJ          -1.06735        0.627498        0.175229
LJ         -0.227276        0.359751       -0.934842
LJ          0.402465       -0.505885        0.843866
LJ           1.70689        0.485331        -1.86865
LJ          -1.17829        -1.32386        0.487868
LJ          -2.51346        0.864798        -1.40659
LJ           2.13054        0.596386         2.07463
LJ           1.18303       -0.991579          1.5542
LJ          -2.14889        0.296195       -0.290206
LJ           1.50511        -2.43993       -0.031886
LJ          0.574445          1.4551        -1.50148
LJ           2.54451         1.90914        0.564232
LJ           0.35692        -0.56979        -1.28354
LJ           2.15443       -0.255749      -0.0683548
LJ          -1.70434        0.367519         -1.5855
LJ          -2.21509       -0.405664        0.777707
LJ          -2.03162       -0.736833       -0.216884
LJ          -0.31069        0.536243         1.09145
LJ          -1.65298         2.30134        -1.10247
LJ           2.47656       -0.236753        -1.14323
LJ          0.692071        0.735714       -0.655881
LJ         -0.171239          2.0634        -2.31799
LJ           2.43829        -1.42225        -1.08449
LJ          0.385724       -0.585431         2.04388
LJ          -1.21529         2.31964        -2.12232
LJ         -0.668489         1.29038       -0.709976
LJ           1.52329       -0.818078        0.543261
LJ          -1.96379        -1.99131        -1.68226
LJ           2.27608        -2.55382          -2.331
LJ           2.23646        0.916595      -0.0322893
LJ           1.24046       -0.734594        -2.01416
LJ          0.879612        0.276878         1.34062
LJ            1.6136         1.54166        -1.65913
LJ          0.945305      -0.0248996        0.135528
LJ          0.893005         -1.0398       -0.181056
LJ          -1.78276        0.902437         2.50409
LJ          -0.25193         1.71127        0.860245
LJ          -1.87047         1.29779       -0.718973
LJ          0.951639          1.9358       -0.675659
LJ            1.7429         1.03212         1.13982
LJ          -1.38021      -0.0869842        -2.53308
LJ           1.65767         1.65874         2.03696
LJ          -2.34826         1.86732        -1.72392
LJ          -1.67414        -1.53497       -0.799636
