108
#Comment!
LJ           -2.5332        -2.34987           2.414
LJ          -1.74207        -1.60662         2.49505
LJ          -2.37208        -1.51479        -1.65535
LJ          -1.70384         2.56137        -1.64491
LJ         -0.826033         2.40536        -2.52732
LJ        -0.0355345        -1.86514        -2.42029
LJ           -1.0678        -1.50817        -1.78682
LJ        -0.0958999         2.24816        -1.82457
LJ          0.784727         2.56283         2.51473
LJ           1.77205        -1.66131         2.53271
LJ          0.765209        -1.91897        -1.69011
LJ           1.96578         2.37606          -1.813
LJ           2.49015       -0.846517         2.51454
LJ          -1.71422       0.0627568        -2.53432
LJ           2.54703       0.0562703        -1.78221
LJ          -1.81857       -0.513039        -1.69186
LJ          -1.04101       -0.796767         -2.4307
LJ         -0.079835       -0.130408        -2.45823
LJ         -0.953189       0.0489259        -1.82377
LJ         -0.119289          -1.145        -1.85801
LJ          0.818467        -1.08398        -2.56339
LJ           1.73185        0.016765         2.48436
LJ          0.986697        0.115797        -1.87774
LJ           1.65118       -0.652617        -1.75029
LJ          -2.54478        0.976354        -2.54222
LJ          -1.66443         1.84458         2.39758
LJ           -2.4165         1.57201        -1.65542
LJ          -1.67759        0.837333        -1.76347
LJ         -0.509436        0.895116        -2.55889
LJ           0.11561         1.72444         2.37459
LJ          -1.17382         1.68749         -1.7943
LJ         0.0816235         1.12402        -1.78089
LJ          0.851378        0.945168         2.51109
LJ           1.69417         1.75157         2.40178
LJ           0.95767          1.9448        -1.84681
LJ           1.65494         1.08101        -1.65034
LJ           2.55419         2.46754       -0.722095
LJ          -1.54566        -1.67223       -0.770548
LJ          -2.36114        -1.77303       -0.149404
LJ          -1.78986         2.41465      0.00140706
LJ         -0.706812         2.55901        -1.03638
LJ          0.162588        -1.69595       -0.781277
LJ          -0.70746        -1.94506       -0.215511
LJ           -0.2074         2.32141       0.0477614
LJ          0.875824        -2.53829       -0.935579
LJ           1.80864        -1.82635        -1.02686
LJ          0.739039         -1.9458        0.244333
LJ           1.65911        -2.49882       -0.097158
LJ          -2.47554        -0.94998       -0.699636
LJ            -1.965      -0.0143188       -0.765704
LJ           -2.5484        0.249153       0.0605403
LJ          -1.78204       -0.707514        0.142364
LJ         -0.731617        -0.85462       -0.700082
LJ         -0.116581        0.201083        -1.04597
LJ         -0.605267        0.116414      -0.0523299
LJ        -0.0490271       -0.702207        0.123761
LJ           0.97576        -1.04517        -0.81134
LJ           1.88694       -0.180649       -0.577825
LJ          0.733531       0.0237018       0.0857808
LJ           1.89104        -1.14334       -0.112738
LJ           -2.5407        0.946011       -0.797413
LJ          -1.67045         1.90131       -0.866661
LJ           2.42666         1.69617      -0.0270194
LJ          -1.95424         1.13754        0.379569
LJ          -1.08749        0.748776       -0.909619
LJ          0.100581         1.64044       -0.951489
LJ         -0.808118         1.46265       -0.171296
LJ         0.0326682        0.891457       -0.212271
LJ           1.01501        0.940847       -0.747598
LJ           1.61629         1.77208       -0.713921
LJ           0.77256         1.98212      -0.0556413
LJ           1.68705        0.848982       -0.110574
LJ           2.45215          2.3655        0.723701
LJ          -1.37578        -1.75437        0.657334
LJ           2.48318        -1.39953         1.67315
LJ          -2.00523        -2.34895         1.36922
LJ          -0.76549          2.5551        0.972545
LJ          0.135616        -1.49979          0.9637
LJ         -0.945556        -1.85089         1.83967
LJ          0.028034        -2.37303         1.70313
LJ          0.755195         2.38107        0.981552
LJ           1.83323         -1.6569         0.85559
LJ          0.966477        -1.79761         1.76088
LJ           1.77307        -2.41825         1.71341
LJ           2.47785       -0.621564        0.843398
LJ          -1.57058       0.0755482        0.796513
LJ           2.54516       0.0155477         1.77404
LJ          -1.71319       -0.760495         1.77672
LJ         -0.793198        -1.07776         1.01254
LJ          0.196728       -0.148328         1.06189
LJ         -0.942158        0.200811          1.9448
LJ         0.0955617       -0.914753         1.82487
LJ           1.03784       -0.986153        0.824734
LJ           1.61475       -0.160639        0.581403
LJ          0.632611       0.0352993         1.96316
LJ           1.54279       -0.822326         1.75549
LJ           2.20106         0.73572        0.881605
LJ          -1.56349         1.90972         1.00146
LJ           2.44525           1.663         1.51571
LJ          -1.85345        0.882652         1.54369
LJ         -0.794255        0.748494        0.745339
LJ          0.240545          1.4305        0.819726
LJ         -0.820201         1.41303         1.61039
LJ          0.154542        0.864968         1.74331
LJ           1.16867        0.748223        0.953786
LJ           1.43517           1.737        0.657424
LJ          0.964268         1.51511         1.63089
LJ           1.64267         0.76222         1.89937
