108
#Comment!
LJ          -2.55194        -2.42433         2.45869
LJ          -1.74189        -1.66391         2.40092
LJ          -2.45775        -1.71786        -1.64531
LJ          -1.65054         -2.3675        -1.72403
LJ          -0.85782          2.4484         2.46801
LJ         0.0374494        -1.96967        -2.48729
LJ         -0.975067        -1.46765        -1.60524
LJ         0.0440768         2.17098        -1.68664
LJ          0.998545         2.38985        -2.42154
LJ           1.80799        -1.65397        -2.56038
LJ           1.07796        -1.80422        -1.69961
LJ           1.93893          2.5489        -1.54882
LJ           2.47436       -0.922407        -2.53432
LJ          -1.77265       0.0670501        -2.55712
LJ          -2.51121        0.161674        -1.89311
LJ          -1.65829       -0.477319        -1.44466
LJ          -1.17409       -0.875626        -2.43228
LJ        -0.0581991       -0.209159        -2.39348
LJ         -0.806435        0.052945         -1.7455
LJ        -0.0940248          -1.018        -1.82843
LJ          0.952346        -1.08161        -2.45799
LJ           1.65432        0.035106        -2.51787
LJ          0.754072      -0.0326156        -1.64074
LJ           1.67412       -0.829779        -1.72511
LJ          -2.39819         1.10054         2.36894
LJ          -1.74961         1.88508         2.48118
LJ          -2.46933         1.65032        -1.63267
LJ          -1.54066        0.866623        -1.65016
LJ          -0.63258         1.08805        -2.53677
LJ           0.14078         1.80048         2.55738
LJ         -0.855967         1.70695        -1.72228
LJ         0.0908995        0.992807        -1.77634
LJ             1.029        0.815909        -2.41944
LJ            1.8732         1.87815         2.51708
LJ          0.970583         1.66625         -1.6155
LJ           1.84028        0.867456        -1.82019
LJ           2.54071         2.41774       -0.670514
LJ          -1.53929        -1.90785       -0.764314
LJ          -2.40898        -1.74621       -0.107514
LJ          -1.74928         2.45898      -0.0757167
LJ         -0.673982        -2.49506       -0.900478
LJ          0.110193        -1.67072       -0.899568
LJ         -0.521355        -1.68112      -0.0580059
LJ         -0.198762         2.38954        0.186534
LJ          0.755145        -2.49731       -0.958966
LJ           1.75291        -1.66665       -0.889435
LJ          0.622756        -2.03579        0.124259
LJ           1.68866          -2.338      -0.0666979
LJ          -2.39161       -0.899705        -0.71257
LJ          -1.80576       0.0565061       -0.634018
LJ           2.47151       0.0513237       0.0250544
LJ          -1.64231       -0.898792       0.0550562
LJ         -0.588975       -0.786621       -0.775154
LJ         0.0210322        0.230562       -0.885106
LJ         -0.867858      -0.0565531      -0.0573811
LJ         0.0881094       -0.803695        0.225136
LJ          0.882792        -1.02389       -0.750261
LJ           1.89337       -0.127172       -0.861635
LJ          0.771815       0.0211964      -0.0259457
LJ           1.64808       -0.905178       -0.099275
LJ          -2.46691        0.962833       -0.909874
LJ          -1.63864         1.81779       -0.924752
LJ           2.49955         1.72143        0.120782
LJ          -1.90149        0.999645      -0.0187812
LJ         -0.904838        0.736307       -0.801471
LJ        -0.0797885          1.5603       -0.817232
LJ         -0.839547         1.49012      -0.0547371
LJ        -0.0351439        0.854997       0.0973106
LJ          0.863056        0.924007       -0.648354
LJ           1.75834         1.65435       -0.844599
LJ           0.79152         2.01407       0.0166673
LJ           1.69087         0.81174       -0.145942
LJ           2.41912         2.56198        0.892041
LJ          -1.44486        -1.68359        0.669316
LJ           2.47358        -1.51568         1.70028
LJ          -1.97023           2.541          1.6328
LJ         -0.730926        -2.47891         1.17118
LJ          0.175144        -1.53411        0.903151
LJ         -0.848346        -1.64717         1.66996
LJ          0.104707        -2.33032         1.64422
LJ          0.955688         2.44583        0.857816
LJ            1.9322        -1.54284        0.669182
LJ          0.920073        -1.68906         1.71209
LJ           1.66486        -2.51827         1.68167
LJ           2.51261        -0.62786         1.01502
LJ          -1.73233      -0.0679162         0.89115
LJ           2.45239       0.0398456         1.93558
LJ          -1.65411        -1.00198         1.55321
LJ         -0.683723        -0.87615        0.993083
LJ         0.0471412     -0.00149764         1.00298
LJ         -0.873967        0.150932         2.04706
LJ         0.0920522       -0.964197         1.80681
LJ            1.0433       -0.956271        0.796111
LJ           1.61694      -0.0949539        0.691474
LJ          0.744194      -0.0102134         1.87003
LJ            1.5569       -0.858858         1.71156
LJ           2.50117        0.705947        0.945733
LJ          -1.53768         1.86578        0.787918
LJ           2.44936         1.66293          1.5242
LJ          -1.63093        0.953936          1.5709
LJ         -0.989953        0.611176        0.778735
LJ          0.241943         1.53104        0.851491
LJ         -0.807868         1.58824          1.5375
LJ          -0.12868        0.872512         1.51113
LJ          0.868141        0.699264        0.874602
LJ           1.74519         1.75675        0.719666
LJ          0.906973         1.61382          1.7961
LJ           1.80824        0.876689         1.75625
