108
#Comment!
LJ          -1.49377        -2.29877       -0.200358
LJ            1.4676        0.962219         -1.0886
LJ         -0.528234        0.226847        0.609157
LJ            -2.105        -1.88495          1.8017
LJ           2.06753        -2.48045       -0.015453
LJ          -1.53957         1.33736       -0.562033
LJ           2.28537        -1.17625         1.19416
LJ          -2.14254          1.2619         1.40891
LJ            2.3789        -1.52678        -1.79208
LJ          -1.51498        -1.61226        -1.03777
LJ          -2.28535        -1.94838        0.612321
LJ          -2.31075        0.500551         2.24379
LJ          -1.63831         1.62217        -1.88472
LJ           1.02342        0.874888         2.03499
LJ          0.868389       -0.986838       -0.919937
LJ          0.661275         1.74637        -1.52188
LJ           -1.1075        -1.27068      -0.0998674
LJ           1.06151        0.105114       -0.603409
LJ           2.50683         2.15325        -1.76464
LJ         0.0280443       -0.193243       -0.709268
LJ          -0.66448        -2.03573         1.86128
LJ          -1.49291         1.09226         2.20514
LJ           2.00875         1.71175         1.11654
LJ           1.34518       -0.423595         1.84493
LJ          0.584879      -0.0473421        -1.64042
LJ           0.21059        -2.40394       -0.137467
LJ        -0.0772069         2.11412         1.61855
LJ          -1.80435        0.636238        0.280096
LJ         -0.704663         1.46536        -1.71386
LJ           2.21963       -0.349665        0.382137
LJ          0.429837       -0.057472         2.31123
LJ         -0.529487       -0.906555         2.12381
LJ          -1.13413       -0.458677        0.692236
LJ          -2.05297       -0.963392        0.495473
LJ           1.83506        -2.19362         1.08234
LJ           1.14693        -1.07858        -2.44638
LJ          -2.02774       -0.212627       -0.156266
LJ           1.50877        -2.12125        -1.98899
LJ         -0.899817        -1.39834        -2.06733
LJ          -1.33625        -2.35011         1.09103
LJ         -0.479077         -2.3997        -2.32676
LJ         -0.300681         -1.0955        0.962705
LJ          -2.22147         1.96122        0.228397
LJ         -0.839186         1.10678        0.198045
LJ         -0.128022         1.57482        0.721827
LJ         -0.390811         1.93869       -0.573424
LJ          -2.54366       -0.914543       -0.983157
LJ         -0.560146        0.433874         -2.5256
LJ           1.34169        0.591946        -2.19661
LJ            1.1425         2.23756        0.335191
LJ         -0.412177        -1.14395        -1.14162
LJ           1.11133        -1.84905        0.138964
LJ         -0.543103         1.42129         2.48367
LJ           -1.7827        -2.39755        -2.26347
LJ           2.18364        -1.34368     -0.00568182
LJ           1.65088        -1.77825        -0.82066
LJ           1.74596       -0.566031       -0.440033
LJ          0.944116         1.35466        0.925778
LJ          -2.38967         1.91013          2.3352
LJ          -1.70317        -1.18504         2.40749
LJ         -0.855843         1.21784         1.39479
LJ          0.677187        -2.15437        -1.38002
LJ           1.15629        -1.02865        0.791132
LJ           1.96545          1.3093         2.19848
LJ           1.40898        0.916286       0.0128739
LJ          0.407551        -2.07213          2.1866
LJ          -1.68989        -0.30696        -2.38064
LJ         -0.648246       -0.466973        -1.82007
LJ           1.55846         2.04331       -0.962735
LJ          0.312236       -0.480295        0.183408
LJ          0.344654        0.911722        -2.27414
LJ           2.08475        0.701231         1.30239
LJ           2.19857        -1.35599         2.20172
LJ          -1.14946         2.06074         0.43504
LJ           2.35209         1.45061       -0.620305
LJ         -0.314222        -2.07699       -0.892661
LJ           0.19348         -1.0007        -2.02267
LJ          -1.31927        -1.26336         1.40333
LJ          -2.06431       0.0185686         1.00863
LJ          0.983065        0.235366        0.710722
LJ           2.45449       0.0685115        -1.81731
LJ           2.51456         1.12177        -2.11761
LJ          -2.43299        -2.10458       -0.778672
LJ          0.278899        0.625993       0.0265475
LJ          -1.29526         2.39356        -1.23841
LJ          -2.15367         2.24947         1.46536
LJ           2.41347        0.578976      -0.0789342
LJ          0.655279        -2.11038          1.1134
LJ         -0.084366        -1.40419      -0.0555148
LJ          0.464402         -1.0211         1.66768
LJ         -0.787795        0.411437       -0.445084
LJ           2.15438         -2.3778         2.34848
LJ           1.17746         2.28202         1.69607
LJ         -0.168607      -0.0740593         1.49836
LJ          0.187481         1.95946        -2.37849
LJ          -1.26549       0.0316739         1.79018
LJ          -1.07559       -0.419296       -0.895869
LJ          0.541292         1.59119       -0.366363
LJ         -0.451566        -2.41818        0.730196
LJ            1.4479         2.02084        -2.30473
LJ          -1.21995         2.21266         1.90954
LJ        -0.0848452        0.725865        -1.28098
LJ      -0.000875322        0.929855         1.67163
LJ           1.32282        -1.78056         1.80443
LJ           1.56635       -0.408013        -1.69774
LJ          -2.19303        0.656723         -1.0605
LJ          -1.15011        0.504135        -1.56773
LJ          -2.43349       -0.438619         1.88239
