108
#Comment!
LJ           -2.5329        -2.29685         2.32121
LJ          -1.79371        -1.57085         2.48343
LJ          -2.27488        -1.55035        -1.63751
LJ          -1.76409        -2.51893        -1.57013
LJ         -0.681096         2.36469        -2.54207
LJ         0.0644225        -1.82329        -2.41882
LJ          -1.19788         -1.5548        -1.74965
LJ        -0.0439897         2.19624        -1.88899
LJ          0.810748        -2.52086         2.50418
LJ           1.77206        -1.61789         2.43207
LJ          0.842262        -1.90276        -1.67018
LJ           1.96773         2.39085        -1.84672
LJ           2.50935       -0.883201         2.47682
LJ           -1.7625       0.0937654         2.52593
LJ           2.44803        0.160003        -1.80674
LJ           -1.8312       -0.511375        -1.65792
LJ          -1.06274       -0.790452        -2.41425
LJ        -0.0146063       -0.287204         -2.4409
LJ          -1.06559       0.0417119        -1.76065
LJ        -0.0650293        -1.10129        -1.74062
LJ          0.808905        -1.09632        -2.56254
LJ           1.67942       0.0256605           2.514
LJ           0.98071        0.132917         -1.7382
LJ           1.62795       -0.716787        -1.69119
LJ           -2.4809        0.876204         -2.5331
LJ          -1.69235         1.84231         2.35424
LJ          -2.42672          1.5568        -1.59117
LJ          -1.77464        0.912599        -1.78615
LJ           -0.4911        0.981503         -2.5318
LJ          0.157956         1.69871         2.41741
LJ          -1.07796         1.67745        -1.81535
LJ          0.170001         1.01992        -1.80777
LJ          0.815331        0.890005        -2.53737
LJ           1.74963         1.76245         2.37009
LJ           0.94131         1.90897        -1.89026
LJ           1.72866         1.13051        -1.66322
LJ           2.50224         2.38862       -0.778074
LJ          -1.53785         -1.6759       -0.765447
LJ          -2.42153        -1.82105       -0.087809
LJ          -1.70205         2.37683       0.0152746
LJ         -0.679058        -2.53959        -1.08587
LJ         0.0972233        -1.69689       -0.804765
LJ         -0.775867        -2.02576       -0.205825
LJ         -0.172769         2.32537        0.088664
LJ          0.895856        -2.48917       -0.926641
LJ           1.88248        -1.72807        -1.05214
LJ          0.812231        -1.85535         0.33224
LJ           1.71512        -2.48862       -0.153371
LJ          -2.41246       -0.975752       -0.803237
LJ           -1.8988      -0.0142552       -0.661857
LJ          -2.53206        0.196458       0.0820338
LJ          -1.64789       -0.637243        0.155891
LJ         -0.740848       -0.883158        -0.78691
LJ         -0.138099         0.12805         -1.0707
LJ         -0.687829       0.0442507      -0.0726084
LJ        -0.0137533        -0.64918       0.0940442
LJ            1.0278        -1.07094       -0.822349
LJ           1.87626       -0.231777       -0.537123
LJ          0.829337       0.0301786       0.0716042
LJ           1.96928         -1.0516      -0.0877347
LJ           2.46166        0.922103       -0.785368
LJ          -1.54322          1.7679       -0.889513
LJ           2.41248         1.66612      -0.0412683
LJ          -1.83378         1.06413        0.284189
LJ          -1.02222        0.731837       -0.967848
LJ          0.156087         1.62289       -0.907327
LJ         -0.774989         1.61151       -0.185825
LJ        -0.0453529        0.848488       -0.118491
LJ          0.932262        0.863938       -0.763368
LJ           1.64737          1.7483        -0.70999
LJ          0.825225         1.90629      -0.0492293
LJ           1.77932        0.744756      -0.0940325
LJ           2.46222         2.38495        0.625018
LJ          -1.33862        -1.76852        0.748184
LJ           2.52172        -1.41862         1.51048
LJ          -1.94036        -2.34085         1.47001
LJ         -0.763732         2.54884         0.93875
LJ          0.130875        -1.46814        0.914853
LJ         -0.856119        -1.91278         1.88216
LJ         0.0788917        -2.42806         1.72571
LJ          0.666478         2.42803         1.06139
LJ           1.74183        -1.66097        0.949566
LJ          0.939188        -1.79473         1.71362
LJ           1.73883        -2.49212         1.67184
LJ          -2.49362       -0.631731        0.750375
LJ          -1.53465       0.0337216        0.838077
LJ            2.4658       0.0765836         1.64921
LJ          -1.72749        -0.76169         1.78191
LJ         -0.836782        -0.99511         1.05554
LJ          0.179194       -0.274448         1.05187
LJ         -0.943714        0.180173         1.92859
LJ          0.153881       -0.897056         1.82905
LJ           0.97735       -0.886937        0.800177
LJ            1.7184         -0.1255        0.642281
LJ          0.622762       0.0156436          2.0016
LJ           1.48786       -0.760048          1.8045
LJ           2.27376        0.856387        0.887601
LJ          -1.59027         1.91811         1.02375
LJ           2.44085         1.66294         1.53203
LJ          -1.84623        0.816883           1.511
LJ         -0.806719        0.853034        0.655484
LJ          0.279053         1.39989        0.827607
LJ         -0.885371         1.45476         1.59176
LJ         0.0513274        0.887263          1.6852
LJ           1.17522        0.684956        0.984648
LJ            1.5152         1.76098        0.604981
LJ          0.999005         1.53742         1.64962
LJ           1.69673        0.865896         1.83532
