108
#Comment!
LJ          -2.46179        -2.26949         2.39053
LJ          -1.68557        -1.58202         2.38069
LJ          -2.20914        -1.55056        -1.61409
LJ          -1.57113        -2.40806         -1.7934
LJ         -0.789285         2.45678         2.50583
LJ         -0.134787        -1.74875        -2.56449
LJ          -1.07709        -1.54171        -1.79945
LJ          0.162694         2.38958         -1.8662
LJ          0.947848        -2.52633         2.51212
LJ           1.71159        -1.58887         2.41323
LJ           1.01152        -1.82399        -1.69416
LJ           1.96627         2.40085        -1.84863
LJ          -2.49618       -0.783754         2.52427
LJ          -1.76677      -0.0504129         2.39354
LJ           -2.5046       0.0168943        -1.77367
LJ          -1.68381       -0.660124        -1.64653
LJ          -1.10603       -0.866155        -2.49168
LJ       -0.00198168       -0.165239        -2.34737
LJ         -0.995743       0.0662772        -1.86137
LJ         0.0258547        -1.11318        -1.70758
LJ          0.875544       -0.881612         2.55317
LJ           1.70155    -0.000836274        -2.41292
LJ          0.880398        0.180702        -1.80627
LJ           1.61208       -0.624185         -1.7113
LJ           -2.4495        0.980208        -2.46392
LJ          -1.69611         2.02193          2.3539
LJ          -2.50926         1.59495        -1.57008
LJ          -1.68175        0.726379        -1.88696
LJ         -0.438641        0.770465         2.42942
LJ          0.167659          1.5899         2.32244
LJ          -1.23383          1.6435        -1.75211
LJ        -0.0178668         1.12745        -1.83644
LJ           1.05166        0.933036            2.49
LJ           1.88392          1.7176        -2.54376
LJ          0.947925         1.77122        -1.92688
LJ           1.58543        0.872165        -1.67632
LJ           2.54662         2.39214       -0.837994
LJ          -1.43765        -1.70549        -0.84508
LJ          -2.23574        -1.76429     -0.00419976
LJ           -1.6521        -2.56482        0.130477
LJ         -0.538505        -2.49798         -1.1239
LJ        0.00827784        -1.70832       -0.797153
LJ          -0.77399         -1.9238       0.0273883
LJ        -0.0322877         2.25088       0.0805103
LJ          0.792899        -2.55098       -0.926773
LJ           1.96396        -1.71793       -0.893231
LJ          0.785498        -1.82363        0.368426
LJ           1.75942        -2.49825       0.0101772
LJ          -2.36556       -0.859917       -0.837848
LJ          -1.91821       0.0173804       -0.878297
LJ          -2.46014    -0.000828153       0.0852414
LJ          -1.68583       -0.719797       0.0517596
LJ         -0.671442       -0.880354       -0.814925
LJ         -0.212957      -0.0950073        -1.07088
LJ         -0.693726     -0.00108812      -0.0429885
LJ         0.0621509       -0.823654        0.114815
LJ           1.04322        -1.26956       -0.889227
LJ           1.84654       -0.168058       -0.651334
LJ          0.961537        0.103019       0.0945459
LJ           1.92447       -0.965124       0.0196397
LJ           2.44554        0.859518        -0.80922
LJ          -1.62278          1.7215       -0.831594
LJ           2.30654          1.5916       0.0872486
LJ           -1.8133          1.0193        0.336761
LJ          -1.13218        0.715065       -0.965107
LJ          0.144915         1.70363       -0.891075
LJ         -0.831824          1.6055       -0.244039
LJ        -0.0241631        0.815035       -0.239649
LJ           1.01355        0.783308       -0.839167
LJ           1.68927         1.65434       -0.755319
LJ          0.886547         1.70824       -0.173235
LJ           1.62756        0.788979      -0.0179151
LJ           2.55032         2.35351        0.683502
LJ          -1.38192        -1.81772        0.838553
LJ           2.55822        -1.51033         1.61528
LJ          -1.96316        -2.31007          1.5346
LJ         -0.769865         2.44997        0.926424
LJ         -0.117033        -1.53708        0.935235
LJ          -0.86085        -1.71603         1.93061
LJ       -0.00302112        -2.36939         1.74091
LJ          0.815163         2.43941         0.97144
LJ           1.65146        -1.56272        0.832718
LJ          0.853005        -1.63082         1.76616
LJ           1.80942        -2.46386         1.60521
LJ          -2.48506       -0.898106        0.738943
LJ          -1.49713      -0.0386386        0.780239
LJ           2.51633      -0.0820701         1.67474
LJ          -1.70068        -0.78657          1.6593
LJ         -0.928781       -0.869931         1.13544
LJ          0.200036       -0.146344        0.978419
LJ         -0.936645       0.0340268         1.78593
LJ          0.207561       -0.836385         1.73982
LJ          0.825697       -0.867063         0.63247
LJ           1.74196       -0.278659        0.740066
LJ          0.704492      -0.0131688         1.83192
LJ           1.60566       -0.813496         1.70068
LJ           2.26106        0.910174        0.965079
LJ           -1.7565         1.79867        0.918477
LJ           2.49172         1.83766         1.70898
LJ          -1.92114        0.843065         1.43793
LJ         -0.858578        0.886824        0.631771
LJ          0.397191         1.57381        0.747068
LJ         -0.915013         1.37168         1.65223
LJ         0.0690226         0.91927         1.47607
LJ           1.14887        0.637694          1.0297
LJ           1.51011         1.63189        0.589204
LJ           1.11688          1.7446         1.76103
LJ            1.7932         1.04225         1.88199
