108
#Comment!
LJ           2.54903        -2.44399         2.49452
LJ          -1.68811        -1.63662         2.42381
LJ          -2.52806        -1.67934        -1.66083
LJ          -1.73525        -2.36367        -1.79601
LJ          -0.82721         2.48695         2.49865
LJ         0.0263901        -2.06429         -2.4584
LJ          -1.13252        -1.45899        -1.60404
LJ         0.0896792         2.27209        -1.61465
LJ          0.919235         2.40901        -2.52317
LJ           1.86364        -1.70635         2.52966
LJ           1.00881         -1.7879        -1.65839
LJ            1.8948        -2.55054        -1.54909
LJ            2.4193       -0.811963         2.54823
LJ          -1.74554       0.0932706         2.52834
LJ          -2.52325        0.160964        -1.85169
LJ          -1.70087       -0.486603        -1.49579
LJ          -1.12437       -0.873285        -2.42843
LJ        0.00365032       -0.207673         -2.3863
LJ         -0.815439      0.00285098        -1.72275
LJ         -0.107766        -1.01419        -1.86109
LJ          0.955727        -1.17543        -2.45406
LJ           1.67399        0.070175        -2.52536
LJ          0.750541       0.0104258        -1.73952
LJ           1.63891       -0.755632        -1.73189
LJ           -2.4302         1.10979          2.4414
LJ          -1.76571         1.86211         2.51044
LJ          -2.51801         1.65362        -1.62345
LJ          -1.49346        0.889197        -1.71284
LJ         -0.641638         1.13775        -2.53208
LJ          0.087262         1.79317         2.53771
LJ         -0.852915         1.74071        -1.66864
LJ         0.0398382         1.04059        -1.72926
LJ           1.03478        0.841109        -2.50911
LJ           1.83138         1.86706         2.49133
LJ          0.938133         1.75307        -1.66031
LJ           1.80309        0.889459        -1.80868
LJ           2.52934         2.34945       -0.589848
LJ          -1.55342        -1.89823       -0.765305
LJ           -2.4395        -1.74754       -0.136664
LJ          -1.75738         2.46732      -0.0722743
LJ         -0.691885        -2.53098       -0.965649
LJ          0.108293        -1.73797       -0.891067
LJ         -0.463707        -1.75412       0.0209971
LJ         -0.319261         2.34736        0.211375
LJ          0.777132        -2.55282       -0.948106
LJ           1.74532        -1.64723       -0.951824
LJ          0.619317        -2.10522       0.0877043
LJ           1.65226        -2.29283       0.0259383
LJ          -2.36883       -0.874587       -0.724483
LJ          -1.83089       0.0392081       -0.619039
LJ           2.45614       0.0607039       0.0302793
LJ          -1.61473       -0.903845        0.066466
LJ         -0.581417       -0.831754       -0.768921
LJ        -0.0234704        0.287307       -0.925375
LJ         -0.880755      -0.0878632      -0.0701078
LJ         0.0754339       -0.851689         0.24629
LJ          0.840273       -0.965029       -0.742739
LJ           1.92908       -0.163877       -0.867774
LJ          0.783744       0.0309738      -0.0525714
LJ           1.65304       -0.925512       -0.182167
LJ          -2.40037        0.949886       -0.922242
LJ          -1.63398         1.72309       -0.886613
LJ           2.53102         1.63843        0.121367
LJ          -1.93254        0.996823       -0.027727
LJ          -1.03786        0.715589       -0.800821
LJ         0.0270254         1.64443       -0.798634
LJ         -0.805046         1.53227       -0.131517
LJ        -0.0861084         0.87168       0.0757698
LJ          0.833106        0.898501        -0.66271
LJ           1.66856         1.64567       -0.971163
LJ          0.834464         2.03636       -0.003614
LJ            1.7495        0.806554       -0.202179
LJ            2.4265         2.48762        0.847833
LJ          -1.39977        -1.70427          0.6093
LJ           2.45836        -1.53577         1.71621
LJ          -1.92571         2.48922         1.63244
LJ         -0.692426        -2.44404         1.07793
LJ          0.126124        -1.59707        0.856863
LJ         -0.886603        -1.68672         1.68203
LJ          0.105734        -2.30862         1.75799
LJ          0.980434         2.43068        0.889535
LJ            2.0023        -1.50705        0.670063
LJ          0.975108        -1.80851         1.67317
LJ           1.68251        -2.52263         1.65544
LJ           2.55874        -0.64984         1.01924
LJ          -1.70442       -0.064098        0.922324
LJ           2.54282       0.0352978         1.85682
LJ           -1.7712       -0.966197         1.57766
LJ         -0.689361       -0.897392         0.92698
LJ         0.0627131        0.035812         1.10148
LJ         -0.841908        0.175551         2.04707
LJ         0.0888738       -0.883099         1.86744
LJ           1.05032       -0.992142          0.7227
LJ            1.6662       -0.112911        0.678131
LJ          0.762528      -0.0248572         1.87881
LJ           1.64809       -0.846962         1.72852
LJ           2.52907        0.814085        0.966365
LJ          -1.44981         1.86912         0.73665
LJ           2.41857         1.67725         1.53613
LJ          -1.64971        0.984895          1.5842
LJ         -0.933106        0.652703        0.814213
LJ           0.24426         1.48068        0.819971
LJ         -0.840902          1.5911         1.60435
LJ        -0.0394911        0.864647         1.60417
LJ           0.93325        0.673757        0.823345
LJ            1.6615         1.74268        0.732475
LJ          0.887144         1.53328         1.81763
LJ            1.7605        0.787694         1.80625
