108
#Comment!
LJ           2.56356        -2.49425        -2.54321
LJ            -1.783        -1.70928         2.39083
LJ          -2.56388        -1.76187        -1.78762
LJ          -1.79668         2.51895        -1.60309
LJ         -0.837727         2.50033        -2.48063
LJ         0.0106214         -2.0213        -2.50572
LJ          -1.21061         -1.4887        -1.75455
LJ       -0.00293856         2.21752        -1.81126
LJ          0.858819         2.56025         2.48779
LJ            1.7568        -1.70152          -2.497
LJ          0.818711        -1.90377        -1.79649
LJ            1.8756         2.54124        -1.73238
LJ           2.49635       -0.940082          2.5364
LJ          -1.85325       0.0156633          2.5454
LJ           2.45724        0.159402        -1.97713
LJ          -1.78719       -0.531281        -1.68216
LJ          -1.19358       -0.763681        -2.43034
LJ        0.00253868       -0.269684        -2.47447
LJ         -0.750272       0.0234826        -1.83368
LJ         -0.165144        -1.15383        -1.84108
LJ          0.858846        -1.21125        -2.48791
LJ           1.74107       0.0123124         2.50243
LJ          0.907856       0.0693789        -1.78343
LJ           1.67764        -0.63407        -1.73918
LJ          -2.54514        0.941531          2.4147
LJ          -1.70148         1.93138         2.44814
LJ          -2.40617          1.6456        -1.61849
LJ          -1.61362        0.780366        -1.81034
LJ         -0.604139        0.968208          2.4664
LJ          0.180272         1.74429          2.4713
LJ          -1.02527         1.65139        -1.80478
LJ          0.062067         1.06514        -1.81014
LJ          0.938159        0.822917         2.48305
LJ             1.809         1.88795         2.49151
LJ          0.890496         1.86578        -1.63589
LJ           1.57714         1.01714        -1.66155
LJ           2.49672         2.36633       -0.737616
LJ            -1.438        -1.69522       -0.756698
LJ          -2.48664        -1.91734      -0.0829217
LJ          -1.64309         2.46972      -0.0200952
LJ         -0.809769         2.55831        -1.01121
LJ          0.144957        -1.69324       -0.911306
LJ         -0.650464        -1.89512     -0.00237018
LJ         -0.185234         2.35044       0.0986458
LJ          0.813671        -2.43084        -0.94315
LJ           1.86441        -1.77893       -0.954979
LJ          0.778699        -1.99755        0.173525
LJ           1.67424        -2.41153      -0.0492027
LJ          -2.52967       -0.955432       -0.704281
LJ          -1.86121        0.178022       -0.806155
LJ          -2.52051        0.101888       0.0361453
LJ           -1.7993       -0.912721       0.0766076
LJ         -0.582447       -0.843406       -0.726793
LJ         -0.101443        0.331789       -0.930216
LJ         -0.695025      -0.0355442       0.0124887
LJ         0.0431678       -0.810274        0.304691
LJ          0.782385       -0.968637       -0.627577
LJ           1.99197       -0.155561       -0.717757
LJ          0.703956      0.00545745      -0.0377129
LJ           1.70072        -1.14047       -0.119414
LJ           2.54285        0.981824       -0.871127
LJ          -1.51969         1.83327       -0.788475
LJ           2.41226         1.70809     -0.00489836
LJ          -1.90848         1.14719         0.16586
LJ          -1.06252        0.780014       -0.902867
LJ          0.166615         1.85237       -0.859872
LJ          -0.73203         1.57599       -0.121825
LJ           0.11325        0.886136      -0.0633249
LJ           0.76197         0.99973       -0.782135
LJ           1.66878         1.70963       -0.874538
LJ          0.718977         2.08411      -0.0663117
LJ            1.7687         0.82522       -0.150347
LJ            2.4006         2.28375        0.776005
LJ           -1.4089        -1.86041        0.643179
LJ           2.53027        -1.55122         1.70854
LJ          -2.02123        -2.37511         1.46055
LJ         -0.589873         2.47049         1.14014
LJ         0.0791082        -1.59972        0.973477
LJ         -0.916562        -1.85971         1.79999
LJ         0.0859265        -2.32174         1.70912
LJ          0.826157         2.34495        0.946654
LJ           2.01277        -1.64455        0.753286
LJ          0.941045         -1.7556         1.74442
LJ           1.62622         2.54391          1.6109
LJ           2.45336       -0.688416         0.97337
LJ          -1.78602       0.0661645        0.843644
LJ           2.51232     -0.00676079         1.75956
LJ          -1.87714       -0.750806         1.75329
LJ         -0.722778       -0.919472         1.02509
LJ         0.0394877       -0.151689         1.06122
LJ         -0.915717        0.207391         1.95359
LJ          0.238617         -1.0143         1.86245
LJ           1.08711        -1.00374        0.665186
LJ            1.5728       -0.134575        0.778847
LJ          0.845425      -0.0528648         1.91579
LJ            1.5814       -0.824878         1.90212
LJ           2.36657        0.837459        0.835352
LJ          -1.45396         1.91739        0.848415
LJ           2.44294         1.57809         1.57988
LJ          -1.80719        0.980013         1.59782
LJ         -0.898322        0.681282         0.94449
LJ          0.189797         1.46984        0.720324
LJ         -0.791445         1.59216         1.61169
LJ         0.0501179        0.829225         1.57047
LJ           1.06844        0.762748        0.940851
LJ           1.56137         1.67342        0.597943
LJ          0.847797         1.52821         1.64581
LJ           1.67861        0.805401         1.72299
