108
#Comment!
LJ           2.46246        -2.46658         2.46832
LJ          -1.67659        -1.85528         2.46481
LJ           2.54896        -1.64404        -1.52509
LJ           -1.9089        -2.50987        -1.80521
LJ         -0.947684         2.47671         2.45922
LJ         -0.189113        -1.80133        -2.55441
LJ         -0.894845        -1.54027         -1.7314
LJ         0.0594076         2.42259        -1.74017
LJ          0.890997         2.51443        -2.38662
LJ            1.7972        -1.71677         2.51393
LJ           0.78038        -1.60758        -1.59377
LJ           1.98047        -2.55195        -1.58874
LJ           2.43573       -0.826698        -2.50382
LJ          -1.79422       0.0778831         2.54246
LJ          -2.52367        0.174499        -1.73901
LJ          -1.78312       -0.677583         -1.3956
LJ          -1.18921       -0.889254         2.49562
LJ        0.00751104       -0.162398         2.50538
LJ         -0.799706        0.123652        -1.77097
LJ         0.0544088         -0.9267        -1.72739
LJ          0.935176        -1.01346        -2.54877
LJ           1.71497        0.100262         2.53029
LJ          0.824495       0.0121379        -1.48591
LJ           1.69061       -0.886134        -1.74114
LJ           -2.5297         1.04368         2.42921
LJ          -1.71353           1.896         2.49835
LJ          -2.53237         1.69247        -1.73267
LJ          -1.60428        0.957546        -1.91288
LJ         -0.701582         1.06491         2.43295
LJ         0.0169833         1.67712         2.39667
LJ         -0.765653         1.61021        -1.76847
LJ        -0.0870337         0.78742        -1.79779
LJ          0.817512        0.874803        -2.47534
LJ           1.85381         1.95093         2.45184
LJ            1.0158         1.73003        -1.53899
LJ           1.78537        0.824886        -1.80771
LJ          -2.42931         2.51053       -0.787574
LJ          -1.53921        -1.84058       -0.595745
LJ           2.50099        -1.72414      -0.0659309
LJ          -1.66153         2.45921      -0.0292089
LJ         -0.816498         2.42471       -0.967806
LJ         0.0700588        -1.64671       -0.920683
LJ         -0.822729        -1.81041       0.0791156
LJ         -0.220257          2.2816       0.0411106
LJ           0.82575        -2.55325       -0.968563
LJ           1.76713        -1.62367       -0.810519
LJ          0.711916        -1.92353     -0.00613984
LJ           1.54503        -2.48248       -0.205969
LJ           2.53375       -0.916337       -0.753982
LJ          -1.81255         0.16659       -0.807897
LJ           2.53587     -0.00897138      -0.0380227
LJ          -1.72661       -0.713737      -0.0286393
LJ         -0.812345       -0.753018       -0.858259
LJ        -0.0378357        0.173673       -0.866609
LJ         -0.819252     -0.00914095      -0.0626877
LJ         0.0224385       -0.728127       0.0194176
LJ          0.744799       -0.959966       -0.720092
LJ           1.69732       -0.119214       -0.838933
LJ          0.825145      -0.0227381       -0.106621
LJ           1.65295       -0.944359      -0.0406251
LJ          -2.50445         1.01136       -0.812776
LJ          -1.55133         1.71878        -1.08586
LJ          -2.50187         1.68182       0.0378568
LJ          -1.91644        0.778687       0.0934219
LJ          -1.00684        0.720132       -0.859467
LJ        -0.0459199         1.61955       -0.917468
LJ         -0.830155         1.47895       -0.082976
LJ         0.0594734         1.02919       0.0829618
LJ          0.849972         1.02459       -0.761242
LJ           1.84666         1.68099       -0.965552
LJ          0.798807          1.9255      0.00885397
LJ            1.7681        0.842144       -0.109103
LJ           2.38236        -2.47983         1.01918
LJ          -1.49953        -1.67159        0.976744
LJ          -2.51951        -1.52926         1.76992
LJ          -1.94846         2.49706         1.67743
LJ         -0.643429        -2.53814        0.959344
LJ          0.222307        -1.71782         0.93923
LJ         -0.912973        -1.67014         1.76226
LJ          0.081844        -2.45992         1.79334
LJ           1.16038        -2.50259        0.896944
LJ           1.75481        -1.48078        0.906873
LJ          0.952943        -1.69555         1.71321
LJ           1.59591        -2.39391         1.83754
LJ           2.54221       -0.606794        0.945162
LJ          -1.89006       0.0872022        0.795918
LJ           2.55411      -0.0158356          1.8829
LJ          -1.64964       -0.910391         1.62975
LJ          -0.73097       -0.843043         0.88672
LJ         0.0818772       -0.109342        0.884717
LJ         -0.845154        0.109629         1.96976
LJ          0.127872       -0.891925         1.67844
LJ           0.94229       -0.837684        0.930435
LJ           1.60642      -0.0556919        0.638911
LJ          0.787435      -0.0883866         1.90788
LJ           1.73105       -0.870115         1.75528
LJ           2.43291        0.721519         0.73386
LJ          -1.55592         1.91308        0.823229
LJ           -2.5344         1.60359         1.53754
LJ          -1.58939        0.900242           1.666
LJ          -1.01949        0.713797         0.83252
LJ          0.142175         1.62648        0.813127
LJ         -0.751443         1.74227         1.45182
LJ        -0.0388337        0.863631          1.6946
LJ          0.804723        0.732497        0.999646
LJ           1.75849         1.74056        0.829889
LJ           1.00102          1.6259         1.83703
LJ           1.71386        0.888972         1.67039
