108
#Comment!
LJ          -2.52825        -2.43012         2.52746
LJ          -1.69829        -1.52277          2.4675
LJ          -2.29223        -1.53499        -1.80329
LJ          -1.57841        -2.42806        -1.74258
LJ         -0.750696         2.31088         -2.4116
LJ         -0.112673        -1.54197         2.50703
LJ         -0.958893        -1.53314        -1.98547
LJ          0.130351        -2.51354         -1.9265
LJ           1.00561        -2.36164        -2.38643
LJ           1.73171        -1.46658         2.45265
LJ           1.18651        -1.64794        -1.66011
LJ           1.85284         2.54579         -1.6541
LJ           2.46338       -0.703103        -2.51998
LJ          -1.79277      -0.0231683          2.2589
LJ          -2.51751       0.0175393         -1.7334
LJ          -1.59074       -0.560673        -1.74805
LJ         -0.851644       -0.711623         2.54248
LJ          0.046282        -0.11095        -2.36714
LJ         -0.801501       0.0444636        -1.70627
LJ          0.173784       -0.978623        -1.64747
LJ          0.746433        -1.00372        -2.52762
LJ           1.67857       0.0799879        -2.36632
LJ          0.855755         0.16625        -1.67802
LJ           1.54233       -0.560137        -1.54034
LJ          -2.45504        0.847065        -2.45436
LJ          -1.78208         2.00391         2.41501
LJ          -2.44619         1.70084        -1.55557
LJ          -1.60189        0.708138        -2.05082
LJ         -0.554835        0.754428          2.5582
LJ         0.0593373          1.6975         2.31641
LJ          -1.34844          1.7222        -1.70543
LJ         0.0249641         1.05127        -1.71752
LJ           1.00208        0.990026        -2.49974
LJ           1.76468         1.89729          2.4665
LJ          0.970343         1.89446        -1.76693
LJ           1.78053        0.944748        -1.81805
LJ           2.55698        -2.55284       -0.757219
LJ           -1.3741        -1.69425       -0.933429
LJ          -2.37741        -1.61288      -0.0500831
LJ          -1.59535         2.41907        0.138551
LJ         -0.697602        -2.47156        -1.02144
LJ         0.0540821        -1.85123       -0.683914
LJ         -0.762326        -1.75427       0.0329351
LJ        -0.0294857         2.32616        0.166819
LJ          0.849244        -2.55762        -1.03257
LJ           1.88336        -1.58793       -0.880413
LJ          0.896787        -1.89125        0.248556
LJ           1.75238        -2.51617       0.0493179
LJ          -2.37427       -0.782257       -0.783333
LJ           -1.8472        0.188258       -0.924906
LJ          -2.32658       0.0654648      -0.0744702
LJ          -1.56458       -0.704194      -0.0625534
LJ         -0.686523       -0.755602       -0.723785
LJ       -0.00554101       0.0789724        -1.02446
LJ         -0.676964       -0.133032       0.0700926
LJ        -0.0395067       -0.976143        0.142319
LJ          0.978626        -1.06321       -0.684621
LJ           1.81428       -0.261428       -0.688161
LJ          0.795695       0.0836222       0.0931574
LJ           1.90768        -1.07157      0.00718022
LJ           2.44143        0.761612       -0.727746
LJ            -1.868         1.73474       -0.698166
LJ           2.54047         1.69499      -0.0326999
LJ          -1.74751        0.931522        0.176689
LJ          -1.03199        0.747757       -0.915184
LJ         0.0432845         1.68766       -0.826479
LJ         -0.712514         1.59454       -0.127166
LJ         0.0490532        0.863737       -0.142316
LJ          0.851084         1.03031       -0.983914
LJ           1.64216         1.72673       -0.819949
LJ          0.867739         1.71962       -0.144631
LJ           1.67706        0.766046       0.0456496
LJ           2.45558         2.47176         0.75295
LJ          -1.46858        -1.77925        0.832539
LJ           2.46913        -1.39492         1.60701
LJ          -1.88541        -2.34784         1.66205
LJ         -0.901631         2.48721        0.930163
LJ        -0.0083452        -1.44471         1.04249
LJ         -0.877514        -1.67316         1.75763
LJ        -0.0130855        -2.29649         1.78881
LJ          0.816626         2.41404        0.898369
LJ           1.68973        -1.63681        0.995779
LJ          0.787982        -1.63774         1.64188
LJ           1.68856        -2.52087         1.54931
LJ          -2.37471       -0.838172         0.76674
LJ          -1.71742        0.114517        0.889387
LJ            2.4245       0.0698135         1.69502
LJ          -1.63477       -0.864897         1.60448
LJ         -0.859504       -0.819136         1.00817
LJ          0.155968       -0.204593        0.873195
LJ         -0.908075      -0.0115624         1.71838
LJ         0.0907501       -0.752132         1.78592
LJ           1.02377       -0.849498        0.541265
LJ           1.79613       -0.256194        0.841325
LJ          0.867243      -0.0192988         1.72006
LJ           1.44524       -0.739006          1.7305
LJ           2.30439        0.897322         1.11497
LJ          -1.81702         1.65513        0.951581
LJ           2.47027         1.86862         1.58438
LJ          -1.74041        0.806078         1.70489
LJ         -0.904969        0.939891        0.812744
LJ          0.345578         1.39871        0.722634
LJ         -0.692635         1.48174         1.70341
LJ          0.186236        0.767318         1.67668
LJ           1.09578        0.571575        0.977779
LJ           1.54978          1.8067        0.702728
LJ          0.965083         1.73905         1.70462
LJ           1.82844         1.05487         1.95996
