108
#Comment!
LJ           2.44365        -2.55797         2.53131
LJ          -1.70524        -1.90425        -2.54983
LJ          -2.49284        -1.68741        -1.80272
LJ          -1.80207          2.5067        -1.67964
LJ         -0.938727         2.35737         2.45458
LJ          -0.17748        -1.85182        -2.47124
LJ         -0.828158        -1.62962        -1.58458
LJ       -0.00126116          2.5623        -1.65792
LJ          0.900291          2.5438         -2.5266
LJ            1.6356        -1.82512         -2.5076
LJ          0.852163        -1.50181        -1.63147
LJ           1.88277        -2.41964        -1.72008
LJ           2.42362       -0.891918         2.51018
LJ           -1.6046       0.0493829         2.51192
LJ          -2.54369        0.140717        -1.79719
LJ          -1.83458       -0.946435        -1.73867
LJ          -1.15596       -0.809886         2.53998
LJ         0.0269933      -0.0963379         2.46801
LJ         -0.823272       0.0617186         -1.7593
LJ         0.0270083       -0.814691        -1.66935
LJ          0.865032       -0.948335        -2.54718
LJ           1.81693        0.131417        -2.52226
LJ          0.736968        0.217558        -1.63834
LJ           1.70739       -0.802815        -1.68129
LJ          -2.55729        0.843201         2.53564
LJ          -1.76722         1.78425         2.51901
LJ          -2.55002         1.60342        -1.76212
LJ           -1.7503        0.936445        -1.68208
LJ         -0.675476        0.971311          2.3079
LJ           0.17082         1.76718         2.40219
LJ         -0.877379         1.64208         -1.6446
LJ        -0.0941895        0.921823         -1.8592
LJ          0.768947         0.92812        -2.35089
LJ           1.76712         1.67193        -2.49497
LJ          0.921548         1.78347        -1.60608
LJ           1.75691        0.877686        -1.72955
LJ          -2.46893        -2.40381       -0.821797
LJ          -1.48065        -1.71543       -0.737589
LJ            2.4843        -1.78875      -0.0223719
LJ          -1.59158         2.52335      -0.0109103
LJ          -0.80604        -2.54983       -0.800749
LJ        -0.0654127        -1.73866       -0.954827
LJ         -0.852289        -1.77441        0.138918
LJ         -0.104042         2.41827      -0.0297156
LJ          0.844858         2.53259        -0.87124
LJ           1.58029        -1.81494       -0.803689
LJ          0.738149        -1.77345        0.146926
LJ           1.63555        -2.50928      -0.0545234
LJ          -2.46069       -0.925139       -0.789513
LJ          -1.95495        0.198051       -0.805094
LJ            2.4732       0.0335663      -0.0488758
LJ          -1.64541       -0.882994       -0.043391
LJ         -0.903171       -0.718659       -0.814391
LJ        -0.0455094      -0.0137448        -0.74555
LJ         -0.836336      -0.0167506      -0.0641119
LJ        -0.0114209       -0.683848      -0.0201847
LJ          0.967588       -0.832224       -0.755458
LJ           1.73055       -0.188935       -0.833136
LJ          0.861355      -0.0542546      -0.0853359
LJ           1.73094        -1.04145       -0.142894
LJ          -2.52088          1.0818        -0.86583
LJ          -1.72854         1.76585       -0.986472
LJ          -2.54958         1.82069        0.146738
LJ           -1.7696        0.931971       0.0930854
LJ         -0.802994        0.751116       -0.819146
LJ         -0.115553         1.66652       -0.980968
LJ         -0.856366         1.73312       -0.164934
LJ         -0.130202        0.963015      -0.0334921
LJ          0.669046        0.928212       -0.838191
LJ           1.74093         1.92069       -0.891965
LJ          0.687951          1.7775      -0.0577741
LJ           1.61653        0.789955       0.0679638
LJ           2.53303         2.51152        0.893683
LJ           -1.5839         -1.7014        0.939221
LJ           2.35212        -1.70089           1.718
LJ          -1.83762         2.49244         1.64522
LJ          -0.83243         2.48761        0.752252
LJ          0.051758        -1.74935        0.872799
LJ         -0.915912        -1.74051         1.73896
LJ          0.127316        -2.45102         1.90082
LJ           1.07327         2.50953        0.974768
LJ           1.72284        -1.80496        0.860819
LJ          0.931258        -1.58439         1.63261
LJ           1.66479        -2.53054         1.81364
LJ           2.48296       -0.580672        0.886828
LJ          -1.80342       0.0160136        0.856617
LJ          -2.43582      -0.0123729         1.95344
LJ          -1.79183       -0.811629         1.69979
LJ         -0.678387       -0.878305        0.798665
LJ         0.0398835     -0.00234467        0.818268
LJ         -0.639635        0.092756         1.73784
LJ         0.0175296       -0.864459          1.5818
LJ          0.800842       -0.948784        0.814796
LJ           1.60376      -0.0101098        0.730082
LJ          0.819048       -0.161777         1.78819
LJ           1.64669       -0.882374         1.68348
LJ           2.38632        0.945183        0.859292
LJ          -1.79083          1.7299        0.780388
LJ           -2.5323         1.68723         1.80107
LJ          -1.78638        0.792594         1.66688
LJ         -0.862439        0.686417        0.850398
LJ        -0.0270514         1.63774        0.894216
LJ         -0.822303         1.73154         1.66665
LJ         0.0505698        0.814615          1.5584
LJ          0.835958        0.746921        0.820954
LJ           1.77639         1.77645        0.804998
LJ           0.88046         1.61873         1.69706
LJ           1.67337         1.03238         1.61417
