108
#Comment!
LJ          -1.18436        -1.26397        -2.33615
LJ          0.233407          1.1535        -2.53261
LJ           1.33778          1.1458         2.13787
LJ          -2.04376         1.87989         2.42588
LJ          -0.98487       -0.550987        0.346404
LJ          -2.06096          1.1038        -1.84669
LJ        -0.0617782       0.0328853        -2.53339
LJ           1.48067       -0.765847       -0.297316
LJ           1.86525        0.150955       -0.394054
LJ           2.07193         1.91918        0.472131
LJ          0.518535        -2.22724       -0.205083
LJ           1.53099       -0.879091        -1.22493
LJ        -0.0670173        -2.16842        -2.55303
LJ         -0.234629      -0.0440581          1.1499
LJ           0.13978        -1.84021        -1.14682
LJ          -2.09179         2.01843        0.936553
LJ          -2.16488       -0.704241         2.41252
LJ            0.7104          0.5013         1.54838
LJ          0.138134       -0.260385        -1.50195
LJ           1.22403         1.60965         1.03259
LJ          -2.07131        -1.70053         -2.2727
LJ         -0.455668        0.787721          1.8635
LJ           2.33778         1.07585      -0.0720364
LJ         -0.485754         2.01722       0.0678573
LJ          -1.08526       -0.701943         1.41757
LJ           1.94167        -1.44188        0.480029
LJ          -2.16074         1.70824       -0.451822
LJ          -1.23792        -2.41497         2.42658
LJ           1.30385        -2.28495          0.5827
LJ           -1.4317        -2.29919        -1.70154
LJ         -0.169202        -2.17015        0.592537
LJ           2.51894       -0.512655       -0.889561
LJ           1.96317         1.88733         1.72743
LJ          0.870203         -1.4792        -1.90927
LJ           1.75106       0.0492338          1.6927
LJ          -1.56105         2.37835        0.147061
LJ         0.0930702        -1.16174         2.51883
LJ          0.410041         1.54834         1.73406
LJ          -2.30305       -0.873988        0.129728
LJ           -1.5319         0.26874        -0.77849
LJ           2.35631        0.152873        -2.35001
LJ          -1.39861         1.25948       -0.945473
LJ          -2.10872         2.07571        -1.47214
LJ          -1.37064         1.06784         2.39196
LJ          -1.33207        0.293533         1.46533
LJ         -0.390644         2.05768         2.09476
LJ          -1.07482         1.80209        -2.12735
LJ           2.53806        0.844022          1.8893
LJ           2.29778       -0.995137        -1.89721
LJ            1.7692        -2.22236         1.59462
LJ         -0.210231         -1.2255       -0.159879
LJ          0.712816         2.52664         1.55929
LJ           1.12343       0.0404389        -1.12569
LJ           1.74643        0.755973        -1.52442
LJ           1.05992         1.94249       0.0420917
LJ          -1.88422        -2.28561       -0.727674
LJ          -1.34286        -1.25954       -0.449893
LJ           1.96106       -0.178954        0.586702
LJ          -1.66704         -1.6103         1.83848
LJ         -0.509661       -0.110249       -0.817238
LJ           1.47169        -1.15294         1.30708
LJ         -0.164331         1.43745        0.863456
LJ           2.15326          1.4417         -2.4069
LJ          -1.06542        -2.52475         1.22836
LJ           2.23078        -1.40332       -0.448622
LJ         -0.218954         2.06533        -1.01303
LJ          0.351636         2.16802         -1.7957
LJ          0.314647         1.15368       -0.974697
LJ            1.4396         2.52709        -1.51191
LJ         -0.505831         1.00318        -1.72655
LJ         -0.475821        0.796127       -0.459758
LJ          -2.38039        -2.07696        0.275892
LJ          0.789181        -1.42353         0.52205
LJ           1.28837         1.15224       -0.622541
LJ          -2.49763        -1.13105         1.26769
LJ          -2.45421        0.478251        -1.15281
LJ           2.01307         1.82099       -0.857541
LJ          -1.40648        -1.80474        0.555541
LJ          -1.88562       0.0786588        0.197677
LJ           1.04585       -0.591852         2.19823
LJ          -2.29743      -0.0781938          1.5412
LJ          -1.39956         1.18891       0.0243508
LJ           1.24602    -8.58506e-05        -2.14358
LJ          0.325697        -1.17697         1.52513
LJ           1.21495        -1.74525       -0.811251
LJ         -0.852454        -0.68875        -1.58549
LJ           1.13282         1.45077        -1.88351
LJ           1.06624         2.19602        -2.51509
LJ          0.505163       -0.956083        -0.87979
LJ          -2.01213        -1.42696        -1.19928
LJ         -0.576003        -1.65259         1.84606
LJ         -0.838166          0.4004        0.467706
LJ          0.800799       -0.251008        0.645919
LJ          -1.79438      -0.0926211        -1.69033
LJ         -0.778653        -2.21809       -0.468133
LJ           1.46302        0.770621        0.430307
LJ            2.0067        -2.31167       -0.419986
LJ           2.26054        -2.08967        -1.48226
LJ           0.43455        0.803813        0.161141
LJ          -1.21653       -0.227945         2.52254
LJ            1.9497       -0.841554          2.0828
LJ           1.08493        -1.65726         2.19656
LJ          0.415324      -0.0736417       -0.409325
LJ          -2.31302        -2.38926         1.61655
LJ          -1.24461         1.26161         1.24075
LJ           2.06523         2.54073         2.49741
LJ          0.760733          2.0647       -0.855933
LJ          -2.12225        0.864397        0.938867
