108
#Comment!
LJ           2.55126          2.5347         2.55995
LJ          -1.73197        -1.80907         2.56379
LJ           2.52476        -1.81705        -1.77302
LJ           -1.7933         2.50626        -1.68614
LJ         -0.932739         2.46852         2.53443
LJ        -0.0612223        -1.75105        -2.50544
LJ         -0.741508        -1.63021        -1.69448
LJ        -0.0251707        -2.51431        -1.56957
LJ          0.923833        -2.56246          2.4824
LJ           1.72118        -1.83146        -2.48414
LJ          0.879971        -1.64785        -1.66208
LJ           1.77953         2.55672        -1.70369
LJ            2.4515       -0.860764         2.52624
LJ          -1.62771       0.0637964         2.47329
LJ           2.50889      0.00652891        -1.73197
LJ          -1.60999       -0.895322        -1.67217
LJ          -0.91226       -0.843307          2.5631
LJ          0.107701      -0.0552421        -2.51908
LJ         -0.823409        0.164832        -1.62657
LJ        -0.0638426       -0.952023        -1.70944
LJ          0.827363       -0.972233         -2.5239
LJ           1.76402       0.0769074         2.53324
LJ           0.77101       0.0444313        -1.71692
LJ           1.66296       -0.911602        -1.61827
LJ           2.53128        0.835499         2.50201
LJ          -1.78517         1.73848        -2.53724
LJ          -2.45579         1.59444        -1.76804
LJ          -1.76006        0.844977        -1.73022
LJ         -0.776868        0.913074         2.39796
LJ         0.0760738         1.64695         2.45546
LJ         -0.825322         1.69716          -1.713
LJ       0.000389381        0.836386        -1.80851
LJ          0.838674        0.946001        -2.54231
LJ           1.70551         1.76222        -2.54341
LJ          0.998878         1.69763        -1.77714
LJ           1.63711        0.760186         -1.6438
LJ           -2.5495         2.55297       -0.847205
LJ          -1.60792        -1.70732       -0.820816
LJ           2.56397        -1.77633     -0.00265376
LJ          -1.67396          2.5337      -0.0469459
LJ         -0.810509          2.5143       -0.797723
LJ        -0.0114529        -1.61002       -0.849091
LJ         -0.862565        -1.70378       0.0199023
LJ         -0.122499         2.44381      -0.0633281
LJ          0.902552         2.53192       -0.747596
LJ           1.63299        -1.70696       -0.808564
LJ          0.775078        -1.85828        0.100714
LJ           1.67774        -2.47055      0.00527799
LJ           2.56163       -0.889072       -0.777693
LJ          -1.83615        0.130767        -1.01047
LJ           2.53445       0.0179815      -0.0627431
LJ          -1.75231       -0.920467     -0.00438034
LJ         -0.780433       -0.784693       -0.803505
LJ         0.0461104       -0.205019       -0.906313
LJ         -0.962485      -0.0952617       0.0488168
LJ         0.0130414       -0.723047        0.107469
LJ          0.930869       -0.817483       -0.866804
LJ           1.72304      -0.0118862       -0.888757
LJ          0.888471     -0.00477503       -0.120226
LJ           1.67165       -0.913081       -0.131259
LJ          -2.50536        0.922518       -0.828986
LJ          -1.72288         1.68013       -0.906334
LJ           2.50703         1.68294       0.0254461
LJ          -1.69627        0.950396        0.147901
LJ         -0.758356        0.835811       -0.678548
LJ         -0.167109         1.70284       -0.949865
LJ         -0.972936         1.73293       -0.101975
LJ        -0.0210614        0.859819        0.175488
LJ          0.785438        0.950726        -0.84551
LJ           1.77013         1.76285       -0.791208
LJ          0.722994         1.72435       -0.117604
LJ           1.70235        0.791707       0.0620209
LJ          -2.52242        -2.52246        0.814923
LJ          -1.65452        -1.75401        0.948254
LJ           2.45966        -1.69299         1.70669
LJ          -1.82144          2.5585         1.65915
LJ         -0.917661         2.53233        0.739779
LJ         0.0411157        -1.73631         0.87465
LJ         -0.841522        -1.73762         1.83412
LJ          0.067244        -2.52442         1.74595
LJ          0.889149         2.41034        0.868216
LJ            1.7334        -1.87946        0.859459
LJ          0.938494        -1.80257         1.55416
LJ           1.77152        -2.54258          1.7263
LJ           2.51111       -0.785514        0.872552
LJ          -1.75093      0.00624118        0.897889
LJ          -2.54083      -0.0800076         1.84652
LJ          -1.73961         -0.8374         1.84801
LJ         -0.876475       -0.806102        0.779807
LJ          0.155201      -0.0353622        0.886791
LJ         -0.740162      0.00702616         1.69132
LJ         0.0129283       -0.930522           1.665
LJ          0.820712       -0.882834        0.846617
LJ           1.64498       -0.104504        0.872264
LJ          0.834735      -0.0401634         1.68514
LJ           1.81485        -0.80244         1.66425
LJ           2.51715        0.842534        0.828095
LJ          -1.67937         1.62334        0.830893
LJ           -2.5053         1.64985         1.81642
LJ          -1.61123        0.790962         1.74231
LJ         -0.834557        0.821391        0.844461
LJ          0.035248         1.57241        0.877755
LJ         -0.810146         1.74012         1.65414
LJ         -0.029191        0.754535         1.61344
LJ          0.852993         0.77064        0.691327
LJ           1.58884         1.63867        0.808576
LJ          0.879665         1.56006         1.73092
LJ           1.72419        0.955048         1.63533
