108
#Comment!
LJ          -2.44545        -2.32113         2.40766
LJ          -1.70197        -1.59083         2.40257
LJ          -2.24855        -1.55827          -1.678
LJ          -1.63326        -2.39498        -1.78368
LJ         -0.782864         2.44815         2.48345
LJ         -0.113901        -1.79713        -2.55832
LJ          -1.10578        -1.54457        -1.75718
LJ          0.110123         2.39159        -1.89637
LJ            0.9359        -2.52318         2.45864
LJ           1.73063        -1.57511         2.37436
LJ          0.968415        -1.87234        -1.69124
LJ           1.99734         2.40511        -1.85998
LJ          -2.46679       -0.834156         2.45588
LJ          -1.73989      -0.0240415         2.43372
LJ          -2.49786       0.0788463        -1.78145
LJ          -1.74008       -0.634757        -1.61806
LJ          -1.12464       -0.842038        -2.49373
LJ        0.00314973       -0.188992        -2.37952
LJ         -0.991673        0.050211        -1.82876
LJ         0.0751039        -1.09081        -1.69895
LJ          0.919652       -0.934244        -2.55247
LJ           1.62198       0.0153268        -2.49709
LJ          0.900091        0.132663        -1.74372
LJ           1.64848       -0.677159        -1.69588
LJ          -2.47002           1.016        -2.48978
LJ          -1.68474         1.93625         2.40751
LJ          -2.51514         1.56388        -1.56081
LJ          -1.72708        0.756838        -1.88279
LJ         -0.445639        0.753582         2.46481
LJ           0.19075         1.60055         2.35257
LJ          -1.33043         1.63828        -1.81419
LJ         0.0338913         1.12411        -1.79168
LJ          0.976219        0.912883         2.49404
LJ           1.89158         1.75211        -2.52119
LJ          0.986144         1.79237        -1.92346
LJ           1.62083        0.929023        -1.70687
LJ           2.56315         2.36062       -0.859911
LJ          -1.40241        -1.71939       -0.840382
LJ          -2.26417        -1.77305      -0.0961967
LJ           -1.6576          2.5406        0.105058
LJ         -0.508791        -2.48086        -1.05701
LJ         0.0556496        -1.69398       -0.777389
LJ         -0.744415        -1.97769      -0.0482265
LJ        -0.0728078         2.32244       0.0539338
LJ           0.81192        -2.55525       -0.897982
LJ           1.94894        -1.74391       -0.909068
LJ          0.835122        -1.79084        0.357602
LJ           1.71698        -2.53695      -0.0166633
LJ           -2.3519       -0.916114       -0.812117
LJ          -1.93232       0.0236799       -0.877909
LJ          -2.48463       0.0233788         0.14091
LJ          -1.64451       -0.696137       0.0263086
LJ         -0.681205       -0.839248       -0.836495
LJ          -0.18334      -0.0389207         -1.1038
LJ         -0.708703         0.04174       0.0221326
LJ          0.000965       -0.794646        0.035845
LJ          0.978538        -1.20904       -0.929971
LJ           1.88914       -0.147506        -0.66024
LJ          0.996356        0.105368        0.137224
LJ           1.93703       -0.949399      -0.0275379
LJ           2.41665        0.927589        -0.82942
LJ           -1.6025         1.70928       -0.833131
LJ           2.31347         1.59079       0.0512672
LJ          -1.83183         1.02977        0.402135
LJ          -1.06467         0.73847       -0.983598
LJ          0.121563         1.69768       -0.875858
LJ         -0.844512         1.55907       -0.220426
LJ        -0.0627131        0.816576       -0.212172
LJ           0.99364        0.778524       -0.818291
LJ            1.6779         1.67769       -0.810702
LJ          0.903732         1.69961       -0.173612
LJ           1.68275        0.855984      -0.0426453
LJ           2.51711         2.43219        0.645264
LJ          -1.28442        -1.78781         0.77174
LJ          -2.52032        -1.48655         1.56073
LJ          -1.94959        -2.28707         1.49382
LJ         -0.712596         2.40229        0.939415
LJ        -0.0610463        -1.56546        0.902232
LJ         -0.876012        -1.73722          1.9826
LJ          0.038907         -2.3155         1.70065
LJ          0.832643          2.4653          1.0763
LJ           1.64748        -1.51718        0.895244
LJ          0.898524        -1.65456         1.75334
LJ           1.82638        -2.46628         1.60076
LJ          -2.48661       -0.854326        0.718081
LJ           -1.4924      -0.0193875        0.814581
LJ           2.53591      -0.0478529         1.73034
LJ          -1.75132       -0.714852         1.66178
LJ         -0.866896       -0.888452         1.11915
LJ          0.184685       -0.110487         1.04672
LJ          -0.89543       0.0847849         1.75868
LJ          0.258121       -0.796752         1.75403
LJ           0.86412        -0.85746         0.74171
LJ           1.75231       -0.253385        0.722359
LJ          0.722258       0.0477201         1.87047
LJ           1.57617       -0.850003         1.65004
LJ           2.23027         0.86759        0.918162
LJ          -1.68437         1.83542        0.987029
LJ           2.39928         1.80324         1.66262
LJ          -1.91077        0.825769         1.48995
LJ          -0.79572         0.85879        0.600063
LJ          0.404799         1.54671        0.769589
LJ         -0.929107         1.39798         1.61349
LJ         0.0753197        0.935828         1.53771
LJ           1.12161        0.654102         1.05323
LJ           1.51035         1.64964        0.689217
LJ           1.14221         1.67496         1.70748
LJ           1.78168         1.00012         1.85339
