108
#Comment!
LJ          -2.42932        -2.40398         2.53899
LJ          -1.77151        -1.46356         2.51772
LJ          -2.26313        -1.53728        -1.75966
LJ          -1.60145        -2.36251        -1.85034
LJ         -0.804209         2.27006        -2.41075
LJ         -0.104095        -1.54729         2.40877
LJ         -0.908462        -1.53406        -1.95296
LJ         0.0311078         2.50647        -1.91153
LJ            1.0092        -2.34612        -2.43339
LJ           1.70194        -1.58726         2.43517
LJ           1.18974        -1.69123        -1.64293
LJ           1.90107           2.472        -1.56811
LJ            2.3889       -0.618247        -2.53801
LJ          -1.82041      -0.0255074         2.30865
LJ          -2.48214      -0.0875257        -1.72463
LJ          -1.51264       -0.652805        -1.71399
LJ         -0.924092       -0.694522        -2.52854
LJ         0.0358422       -0.174228        -2.47509
LJ         -0.813298       0.0899548        -1.74208
LJ          0.161683       -0.924396        -1.64803
LJ           0.78069       -0.944941        -2.50201
LJ           1.60624      -0.0361404        -2.43319
LJ          0.774929        0.152204        -1.70699
LJ           1.61749       -0.622197        -1.55534
LJ          -2.51122        0.876661        -2.38442
LJ          -1.75972         1.96175         2.42773
LJ          -2.47859         1.72144        -1.56146
LJ          -1.58749        0.747433          -2.052
LJ         -0.533082        0.724067         2.53229
LJ         0.0807752         1.76449         2.33605
LJ          -1.31379         1.77241        -1.71195
LJ         0.0397333        0.999621        -1.69126
LJ           1.11657         1.02846        -2.47967
LJ           1.72044         1.87993          2.4937
LJ          0.966983          1.9269        -1.89935
LJ            1.8106        0.878948        -1.75245
LJ          -2.56489         -2.5632       -0.736506
LJ          -1.45356        -1.64766       -0.915271
LJ          -2.28571        -1.64026       -0.139245
LJ          -1.66559         2.38899        0.115029
LJ         -0.691016        -2.44987       -0.998151
LJ         0.0356648        -1.77426       -0.669891
LJ         -0.722351        -1.76956      -0.0187821
LJ          0.026585         2.35822        0.129211
LJ          0.779712         2.47317       -0.899422
LJ           1.93681        -1.61638       -0.922532
LJ          0.787282        -1.85487        0.201179
LJ           1.68791         -2.4371       0.0346944
LJ          -2.35371       -0.818558       -0.893233
LJ          -1.81703        0.111927       -0.937158
LJ          -2.39192        0.017242      -0.0137674
LJ          -1.61594       -0.687389       -0.056903
LJ          -0.77504       -0.775684       -0.685523
LJ        -0.0401826        0.082712       -0.990251
LJ          -0.65158      -0.0494967        0.110763
LJ        -0.0491752       -0.868477        0.176522
LJ           1.02384        -1.10678       -0.793103
LJ           1.82075       -0.217053       -0.606822
LJ          0.782767       0.0474125        0.161344
LJ           1.96523        -1.04197       0.0200244
LJ             2.428        0.765697       -0.782213
LJ          -1.86013         1.66633        -0.70364
LJ           2.54636         1.68791      -0.0404169
LJ          -1.80582        0.945023        0.111763
LJ          -1.04389        0.832087       -0.964992
LJ         0.0751428         1.72412        -0.81321
LJ         -0.763595         1.65654      -0.0960201
LJ          0.057024        0.863283        -0.13641
LJ           0.86915          0.9216       -0.904009
LJ           1.60975          1.7324        -0.84377
LJ          0.911062         1.71768      -0.0999313
LJ           1.58737        0.802675       0.0846833
LJ           2.50846         2.47418        0.687107
LJ           -1.4911        -1.84406        0.769724
LJ          -2.55163        -1.44364         1.57983
LJ          -1.93725        -2.37677         1.64411
LJ         -0.871771         2.40751          1.0284
LJ         0.0229276        -1.45426         1.08996
LJ          -1.01741        -1.66371         1.79677
LJ          0.013241        -2.29584         1.75256
LJ           0.71634         2.39901        0.897414
LJ           1.68109        -1.53639         1.08624
LJ          0.824874        -1.71029         1.79978
LJ           1.76155        -2.55009         1.45166
LJ          -2.36345       -0.783675        0.714473
LJ          -1.63293       0.0856501        0.793462
LJ           2.41643     -0.00661669         1.64771
LJ          -1.69159       -0.921566         1.58027
LJ         -0.818522       -0.812813         1.01912
LJ          0.145496       -0.177018        0.870508
LJ          -0.93484       0.0478865         1.88622
LJ          0.221492       -0.730668           1.766
LJ          0.977592       -0.912388        0.600624
LJ           1.74653       -0.365566        0.774121
LJ          0.849021       0.0958368         1.75929
LJ           1.50522       -0.808991         1.77936
LJ           2.41535        0.995347         1.04356
LJ          -1.86347          1.6484        0.964243
LJ           2.43348          1.8698           1.513
LJ          -1.74045        0.844339         1.67921
LJ         -0.844581        0.939401        0.807391
LJ          0.385028         1.38563        0.773628
LJ          -0.69608         1.43388         1.72196
LJ         0.0866213        0.804213         1.65578
LJ           1.15721        0.628092         1.03702
LJ           1.55474         1.78222        0.705823
LJ          0.944064         1.70812         1.67281
LJ           1.84556         1.07966         1.92539
