108
#Comment!
LJ          0.558376       -0.550941         -1.6779
LJ           1.60557       -0.819113         -2.0367
LJ          -1.85203         1.27872         1.29049
LJ          -1.78814         2.36241        -1.91736
LJ           1.44613        -2.23597       -0.662246
LJ           1.37209         1.31709        -1.29254
LJ           1.15131       -0.500732         1.54839
LJ           2.06479       -0.158446        -0.37975
LJ          0.414907        0.367814        -0.67224
LJ         0.0359964         2.21077        0.766734
LJ           1.94515        -1.29974       -0.115781
LJ           1.76986         2.02338         1.71243
LJ          0.897378        -1.70459        0.301568
LJ         -0.883337        -1.36145         -2.2974
LJ          -1.41462         2.30505         1.39148
LJ         -0.029676         2.32375       -0.238021
LJ         -0.762317        -2.11747        0.110857
LJ           0.81999        0.625465        0.166304
LJ          -1.70025         1.44038       -0.235338
LJ            -2.457         0.66053        0.145153
LJ          -1.76729         1.10979         2.33207
LJ         -0.820066         1.44478        0.633327
LJ          0.836219        -1.04697       -0.666429
LJ          -1.54626         2.46765       0.0603701
LJ          -1.02713       -0.428614        0.302832
LJ          0.713621       -0.569431         2.44377
LJ           2.15064        -2.25888        0.792363
LJ         -0.478598        -1.24973         1.93004
LJ           1.70725        0.990799       -0.356662
LJ          -2.53789        -2.17735        -1.32971
LJ           1.85218        -1.31243         1.94473
LJ          0.529024        0.768029        -1.74466
LJ         0.0727158         1.40459        -1.06116
LJ           -2.0275        -1.80296        -2.53543
LJ          0.772643         2.11739        -1.47728
LJ         -0.792939        -2.14415         1.33569
LJ           1.04299        -2.18948        -2.49433
LJ         -0.304002         2.33737        -1.51059
LJ          0.767186         1.84582         1.76764
LJ           1.16296         2.43749        0.445157
LJ          0.857968         1.73896       -0.306052
LJ        -0.0758702        0.100892        0.308353
LJ          0.678993        0.214878         1.06822
LJ            2.0775         1.23954         2.28281
LJ           2.27609         1.37473         1.01181
LJ          -2.39498       -0.688457        -1.99918
LJ          -2.15635        -1.47486        0.468082
LJ         0.0629102         2.04392        -2.45009
LJ          0.854534         -0.5416        0.405009
LJ          -1.09729        -2.45893         2.33865
LJ         -0.171395       -0.448007        -0.81513
LJ          -2.51306         1.47428         -1.9628
LJ        -0.0636588        -1.10667       0.0398149
LJ          -1.01761        -1.34421        0.794811
LJ           2.29336         1.87207        -1.07533
LJ         -0.794759         1.41015        -2.13837
LJ             2.065      -0.0267781         1.89449
LJ          -1.13014        -2.19883        -1.02637
LJ          -2.07502        -0.43355       -0.977212
LJ          0.744741          -1.427         1.96554
LJ          0.825247         -1.9392        -1.38557
LJ          -2.36155        0.312232        -2.37824
LJ         -0.574198        0.499006        -2.48541
LJ          -2.25921         2.10814        0.702366
LJ           1.30341         1.51388        0.672923
LJ          -2.03763        -0.40377        0.148043
LJ           1.14454        0.473137         -2.4746
LJ          -1.48786        0.546493         -1.8001
LJ          0.264511          1.0215         1.97735
LJ         -0.918842       -0.337601        -1.55465
LJ          -1.37565       -0.415474         2.50367
LJ          -2.35646       -0.618144         1.30266
LJ           2.24634        -1.02853        -1.09496
LJ          -0.37595         0.21775         1.26563
LJ           -1.9871        0.320327         1.75807
LJ         -0.203762        -1.90021        -0.84371
LJ        -0.0181341       -0.806988          1.0372
LJ           1.20081         1.55239        -2.26902
LJ           1.91453         0.74971        -1.81802
LJ          -1.52896         1.62516        -1.41731
LJ           1.77008        -1.22296        0.865024
LJ          -2.40342        0.548131        -1.11889
LJ           1.92328         2.38871        -2.54414
LJ           0.34092         1.23441        0.985516
LJ          -1.10172         0.32088       -0.495969
LJ         -0.351728         1.79542         1.80223
LJ         0.0024493         1.27828        0.016325
LJ          -1.56946        -1.46326          1.7241
LJ           1.21974        0.857692         1.65189
LJ         -0.776808         1.70474       -0.645526
LJ          -2.49343        -2.54894       -0.390498
LJ          -1.12653        -1.02234       -0.698395
LJ           2.52588        -2.18853         1.86054
LJ           1.46214       0.0205072        -1.19948
LJ          0.200268        -1.81781         1.12245
LJ         -0.973225         0.79145         1.79181
LJ         -0.382081        0.460844        -1.36999
LJ        0.00570982         -2.3033         2.01286
LJ          0.358648         -1.4705        -2.23682
LJ           2.04087        -1.84815        -2.18651
LJ           1.15463        -2.12706         1.30963
LJ           -2.0136        -1.54904       -0.529357
LJ          -1.44257        0.587113        0.649811
LJ           -1.7072         -1.4013        -1.53807
LJ          -2.28361         1.98101         2.31288
LJ          -1.17307       -0.535274         1.41971
LJ           2.06995         1.93186         0.03988
LJ         -0.258405       -0.340462         2.21269
