108
#Comment!
LJ           2.33357        -2.51592         2.55227
LJ          -1.57416         -1.8526         2.45477
LJ          -2.50288        -1.74057        -1.74689
LJ          -1.86644         2.51278        -1.73722
LJ         -0.901164          2.5043         2.49471
LJ         -0.156015        -1.91098        -2.49029
LJ         -0.877497        -1.58249        -1.62213
LJ         0.0278759         2.45238        -1.73507
LJ          0.899973         2.47539        -2.39157
LJ           1.64303        -1.72466        -2.49215
LJ          0.784239        -1.48219        -1.55427
LJ           1.89859        -2.49909        -1.67548
LJ           2.43183       -0.917044         2.56188
LJ          -1.61935      0.00370851        -2.55332
LJ          -2.40744        0.183183        -1.79013
LJ          -1.83884       -0.922873        -1.59757
LJ          -1.11022       -0.922915         2.48574
LJ        -0.0552389       -0.068099         2.51055
LJ         -0.756269        0.137993        -1.76157
LJ         0.0652157       -0.771319        -1.79707
LJ           1.00188       -0.926676        -2.52483
LJ           1.77881        0.130094         2.55967
LJ          0.685984        0.141704        -1.65674
LJ           1.60635       -0.866314        -1.71428
LJ           -2.5357        0.890502          2.4895
LJ          -1.80805          1.8922         2.43191
LJ          -2.51981         1.62805        -1.81309
LJ          -1.71002        0.880803        -1.74763
LJ         -0.616069          1.0276         2.28653
LJ          0.187147         1.68451         2.43554
LJ         -0.817632         1.63893        -1.70075
LJ         -0.102149        0.937542         -1.7176
LJ           0.75757        0.777405         -2.4324
LJ           1.72334         1.77442        -2.50887
LJ          0.925252         1.71747        -1.56573
LJ           1.74778        0.861287        -1.69931
LJ          -2.48769        -2.54219       -0.775464
LJ          -1.54231         -1.7566       -0.693057
LJ           2.50873          -1.774     -0.00629551
LJ          -1.75333         2.44814      -0.0448361
LJ         -0.786714         2.47583       -0.785268
LJ        -0.0556373        -1.69089       -0.877626
LJ         -0.815381        -1.77599        0.117348
LJ         -0.177601         2.39519       0.0538861
LJ          0.936255          2.4933       -0.867318
LJ           1.61851        -1.74132       -0.881212
LJ          0.777631        -1.81625        0.166117
LJ            1.6431        -2.43062      -0.0745034
LJ          -2.47933       -0.954424       -0.786492
LJ          -1.92186        0.118684        -0.77746
LJ           2.53572       0.0476765      -0.0417089
LJ          -1.75907       -0.722878      -0.0973023
LJ         -0.809063       -0.744875       -0.790712
LJ        -0.0464922        0.128065       -0.716392
LJ         -0.889237      -0.0227521       0.0794379
LJ         -0.111321       -0.716334       -0.125886
LJ           0.86419       -0.757068       -0.860769
LJ           1.83249       -0.164372       -0.844209
LJ          0.954396       0.0149646      -0.0970337
LJ           1.74925        -0.98133       -0.103336
LJ          -2.54333          1.0261       -0.673658
LJ           -1.6705         1.73131       -0.981799
LJ           2.48262         1.70978        0.218645
LJ          -1.83684        0.918502       0.0782411
LJ         -0.822086        0.770707       -0.864684
LJ       -0.00510754         1.67148       -0.878848
LJ         -0.907691         1.63771       -0.139001
LJ        -0.0447565         1.01937      -0.0627696
LJ          0.684207        0.928832       -0.823871
LJ           1.88607         1.81397       -0.924815
LJ          0.739285         1.85152      -0.0988849
LJ           1.72406        0.886943      -0.0284168
LJ           2.45984          2.5551         1.00637
LJ          -1.55276         -1.8674        0.924918
LJ           2.49794        -1.66485         1.64729
LJ          -1.77953         2.54793          1.6647
LJ         -0.824274         2.48598        0.784986
LJ         0.0106117        -1.72197        0.803707
LJ         -0.862694        -1.65568         1.69134
LJ          0.180707        -2.45994         1.76228
LJ           1.08806        -2.52293        0.957571
LJ           1.88627         -1.7163        0.776463
LJ          0.905105        -1.59506         1.57623
LJ           1.61233        -2.52793          1.7986
LJ           2.47032       -0.680323        0.849985
LJ          -1.93556       0.0111699        0.930121
LJ          -2.53003     -0.00460196          1.9188
LJ          -1.82005       -0.829587         1.68351
LJ          -0.68373       -0.813712        0.727221
LJ         0.0687821       -0.084203        0.805258
LJ         -0.754393        0.102502         1.75684
LJ        0.00971894        -0.95081         1.68087
LJ          0.821693       -0.942728         0.82476
LJ           1.58113      -0.0200896          0.7192
LJ          0.759332      -0.0930794         1.85144
LJ           1.75387       -0.880406         1.68292
LJ           2.41734        0.760598        0.745543
LJ          -1.72523         1.74343        0.776185
LJ           2.51726          1.7224         1.70505
LJ          -1.75133        0.762392         1.56828
LJ         -0.873782        0.701592        0.783534
LJ         0.0941274         1.69055        0.836175
LJ          -0.81596         1.69033         1.49731
LJ         0.0367506        0.864052         1.51751
LJ          0.894353        0.869343         1.04694
LJ           1.71051          1.7522        0.838618
LJ           0.96257          1.6984          1.7747
LJ           1.69936         1.02394         1.73425
