108
#Comment!
LJ          -2.54902        -2.45433         2.49705
LJ          -1.69158        -1.68085         2.39987
LJ          -2.49757        -1.67089        -1.63845
LJ          -1.68472        -2.39547        -1.75961
LJ         -0.857303         2.48859         2.48587
LJ          0.045386        -2.04181        -2.44873
LJ          -1.07109        -1.49537        -1.60156
LJ         0.0714947         2.23894        -1.64835
LJ          0.977612         2.42644        -2.47618
LJ           1.84841        -1.67766         2.51604
LJ           1.04461        -1.77188        -1.67474
LJ             1.952        -2.56249        -1.55733
LJ           2.43235       -0.792104         2.50376
LJ          -1.74387       0.0635417         2.53923
LJ          -2.52363         0.14278        -1.86302
LJ           -1.6665       -0.476485        -1.47359
LJ          -1.13327       -0.866349        -2.45117
LJ         0.0154266       -0.190939        -2.43767
LJ         -0.790683      0.00600601         -1.7116
LJ        -0.0939765        -0.99616        -1.86633
LJ          0.971734        -1.11436        -2.45015
LJ           1.69639       0.0768125        -2.53204
LJ          0.745436       0.0186426        -1.68111
LJ           1.62195       -0.785447        -1.74519
LJ          -2.40366         1.07768         2.43283
LJ          -1.77593          1.8342         2.50663
LJ          -2.50847          1.6816        -1.65538
LJ           -1.5265        0.847153        -1.67533
LJ         -0.666265         1.11656        -2.51935
LJ          0.107446         1.78754         2.52687
LJ         -0.834572          1.6967        -1.71355
LJ         0.0344631          1.0107        -1.73025
LJ           1.03514        0.834295        -2.41754
LJ           1.83846          1.8926         2.51528
LJ          0.960328         1.72517        -1.66209
LJ           1.84838        0.873268        -1.80893
LJ           2.53545         2.35065       -0.609998
LJ          -1.59617        -1.87216       -0.751739
LJ          -2.41706         -1.8185       -0.110319
LJ          -1.73865         2.44434      -0.0930208
LJ         -0.687879        -2.51048       -0.974629
LJ          0.106298        -1.76785       -0.924578
LJ         -0.500689        -1.77483      0.00233046
LJ         -0.277736         2.37491         0.20529
LJ          0.774455         -2.5183       -0.919933
LJ           1.76181         -1.6223       -0.972346
LJ          0.612639        -2.05532       0.0699501
LJ           1.68375        -2.29192      -0.0174318
LJ           -2.3715       -0.864345       -0.733352
LJ          -1.80344        0.063601       -0.594943
LJ            2.4458       0.0763255       0.0405138
LJ           -1.6079       -0.900947       0.0474535
LJ         -0.585259       -0.802238       -0.775008
LJ        -0.0158214        0.279568       -0.869938
LJ         -0.950636      -0.0774062      -0.0770207
LJ         0.0788577       -0.865455         0.23435
LJ          0.876065       -0.976978       -0.738587
LJ           1.95876       -0.156548       -0.844516
LJ          0.829905       0.0595358      -0.0312226
LJ            1.6527       -0.914156       -0.177473
LJ          -2.38089        0.918418        -0.95552
LJ          -1.62451         1.75004       -0.856888
LJ           2.53777         1.60948        0.132519
LJ          -1.96443        0.979153      -0.0243235
LJ          -1.02334        0.743264       -0.809578
LJ        0.00492475         1.62796       -0.784203
LJ         -0.805621         1.51286       -0.114011
LJ        -0.0672539        0.888347       0.0481082
LJ          0.840355        0.915601        -0.63854
LJ            1.6524         1.61001       -0.955133
LJ          0.823831         2.00325      0.00126652
LJ           1.70849        0.795482       -0.181851
LJ           2.39071         2.50785        0.867935
LJ          -1.42349        -1.74961        0.618863
LJ           2.44733        -1.50632         1.73447
LJ          -1.95061         2.46871          1.6246
LJ          -0.71508        -2.46516         1.17827
LJ          0.108048        -1.58479        0.876966
LJ         -0.863508        -1.68777         1.66226
LJ          0.108097        -2.32792         1.73809
LJ          0.989142         2.43517        0.894394
LJ           2.02767        -1.52938        0.699298
LJ          0.957514        -1.76929         1.66256
LJ           1.69106        -2.52183         1.61213
LJ           2.53303       -0.633028        0.964572
LJ          -1.71993      -0.0999851        0.897021
LJ           2.55333       0.0341867         1.89194
LJ          -1.75076       -0.983332         1.57713
LJ         -0.705741        -0.92929        0.959469
LJ         0.0795119       0.0271143         1.09341
LJ         -0.873889        0.150804         2.05896
LJ          0.105836       -0.897092         1.81558
LJ           1.01547        -1.00153        0.729818
LJ           1.68284       -0.120398        0.711032
LJ          0.759512      -0.0218648         1.84138
LJ           1.61924       -0.859637         1.73874
LJ           2.48739        0.767079        0.951406
LJ          -1.47414         1.87318        0.784715
LJ           2.44469         1.65453         1.54042
LJ          -1.66744        0.953948         1.61668
LJ          -0.99365        0.655834        0.789421
LJ           0.23694         1.48794        0.778128
LJ         -0.835264         1.59247         1.60772
LJ        -0.0603611        0.881979         1.57335
LJ          0.911232        0.705475        0.819103
LJ           1.67609         1.74873        0.711554
LJ          0.871256         1.55905         1.81792
LJ           1.76682        0.817284         1.79052
