108
#Comment!
LJ          -2.55499        -2.44527         2.50632
LJ          -1.76056        -1.68175         2.49523
LJ          -2.46493        -1.67299        -1.67158
LJ          -1.76864        -2.39873        -1.73696
LJ         -0.856034         2.49983         2.50185
LJ         0.0232061        -1.97334        -2.50709
LJ         -0.960121         -1.4942        -1.55705
LJ         0.0649604         2.29421        -1.67489
LJ           0.95398         2.36718         -2.4309
LJ           1.79168        -1.67651         2.56195
LJ           1.02362        -1.80596        -1.70222
LJ           1.93547         -2.5373        -1.50554
LJ           2.52941       -0.844809          2.5614
LJ          -1.78549       0.0556937        -2.55298
LJ          -2.47931        0.147195        -1.80292
LJ          -1.64627       -0.488417        -1.37205
LJ            -1.132       -0.869321        -2.52207
LJ        -0.0832633       -0.201025         -2.3901
LJ         -0.818674       0.0663943        -1.70982
LJ         -0.112598       -0.990358        -1.81586
LJ          0.974071        -1.07314        -2.48005
LJ           1.66256       0.0434941        -2.56434
LJ          0.777708       -0.104427         -1.6169
LJ           1.72405       -0.897302        -1.72403
LJ          -2.43466         1.04477         2.40305
LJ          -1.74794         1.84825         2.56065
LJ            -2.477         1.70316        -1.61678
LJ          -1.55281        0.874075        -1.66484
LJ          -0.68122         1.09146        -2.52784
LJ          0.149168         1.87003         2.54825
LJ         -0.781521         1.75443        -1.75484
LJ         0.0606558        0.953432         -1.8337
LJ          0.969489        0.803739        -2.49686
LJ           1.82042         1.82404         2.43826
LJ          0.952365         1.67952        -1.60278
LJ           1.86265        0.811807        -1.80181
LJ          -2.52904         2.35675       -0.746085
LJ          -1.52681        -1.89875       -0.753625
LJ          -2.42938        -1.73413       -0.118837
LJ          -1.72809         2.45647       -0.114132
LJ         -0.666731         -2.4992       -0.940171
LJ          0.106686        -1.73446       -0.919669
LJ         -0.554233        -1.76991      -0.0409824
LJ         -0.239828         2.35101        0.130739
LJ          0.803503        -2.50181        -0.91556
LJ           1.73425        -1.73716       -0.869795
LJ          0.651393        -2.02012        0.153064
LJ           1.60691        -2.36178       0.0455178
LJ          -2.42183       -0.932584       -0.724397
LJ           -1.8504        0.038488       -0.615106
LJ           2.39751       0.0937758       0.0112754
LJ          -1.64338       -0.853248       0.0390963
LJ         -0.591375       -0.782404       -0.788226
LJ       -0.00912891        0.213451       -0.857497
LJ         -0.830069      -0.0190958      -0.0567583
LJ         0.0317308        -0.82634         0.18239
LJ          0.816742       -0.910154       -0.700119
LJ           1.86895       -0.161865       -0.858459
LJ           0.79598       0.0157216      -0.0714354
LJ           1.71177       -0.843453      -0.0520683
LJ          -2.47512        0.990795       -0.919677
LJ          -1.60578         1.75472          -1.009
LJ           2.50294         1.70286         0.11237
LJ          -1.89273        0.898556       0.0344071
LJ          -0.88127        0.740945       -0.850523
LJ         -0.144791         1.57549       -0.825902
LJ         -0.912897         1.45867     -0.00484764
LJ         0.0128109        0.907321        0.106703
LJ          0.835679        0.960918       -0.656135
LJ           1.72625         1.63544       -0.838758
LJ          0.788466         2.03913       0.0444795
LJ           1.70893        0.850463         -0.1098
LJ           2.46022        -2.56084        0.843464
LJ          -1.46307        -1.72946        0.673443
LJ           2.49872        -1.47994         1.68233
LJ          -1.95183         2.51434         1.59266
LJ          -0.73762        -2.45978         1.12536
LJ          0.130423        -1.56216         0.88939
LJ         -0.841406        -1.63184         1.68992
LJ          0.148985        -2.37953         1.67269
LJ           1.00975         2.48379        0.871821
LJ           1.93891        -1.60488        0.679556
LJ          0.944274        -1.77347         1.73541
LJ           1.62328        -2.49095         1.71444
LJ           2.47048       -0.630003        0.993236
LJ          -1.76966      -0.0368939        0.827077
LJ           2.44215       0.0698071         1.92239
LJ          -1.64629       -0.987635         1.47776
LJ         -0.708348       -0.898477         1.00662
LJ         0.0728576      -0.0855684         0.96775
LJ         -0.867997        0.175583         2.06929
LJ          0.152132        -1.00682         1.74956
LJ          0.993282       -0.876029        0.808605
LJ           1.59894      -0.0943054        0.659005
LJ          0.719905      -0.0491693         1.82714
LJ           1.54664       -0.842018          1.6791
LJ           2.51553          0.6723        0.905707
LJ            -1.508         1.95715        0.727606
LJ           2.47908         1.60586         1.50718
LJ          -1.57917        0.925589         1.58733
LJ         -0.987902        0.691113        0.763605
LJ           0.18814         1.53752        0.849378
LJ         -0.811223         1.62944         1.55068
LJ        -0.0906125        0.866074         1.53044
LJ          0.835051        0.645344        0.879371
LJ           1.70509         1.71839        0.723615
LJ          0.874721          1.5857         1.77115
LJ           1.78186        0.833319         1.72783
