108
#Comment!
LJ           2.52946        -2.51154         2.54498
LJ          -1.72345        -1.88511        -2.55613
LJ          -2.47195          -1.692        -1.70587
LJ          -1.81921        -2.54563         -1.7175
LJ         -0.898817         2.40285         2.48066
LJ         -0.213965        -1.80034        -2.52518
LJ         -0.858053        -1.65499        -1.55604
LJ         0.0232256         2.56291        -1.70124
LJ          0.888443         2.48597         2.54389
LJ           1.63282        -1.82232        -2.53339
LJ           0.90035        -1.53691        -1.65883
LJ           1.91079        -2.48515         -1.7262
LJ            2.4234       -0.870864        -2.54629
LJ          -1.56848       0.0716697         2.53321
LJ           2.53699       0.0671218        -1.79078
LJ          -1.80262       -0.907201        -1.72026
LJ           -1.1199       -0.884734         2.54712
LJ         0.0369639       -0.121118         2.48521
LJ         -0.912865        0.120192        -1.71378
LJ         0.0299536       -0.870842        -1.69709
LJ           0.88484       -0.996258        -2.50745
LJ           1.84802        0.145967        -2.54333
LJ          0.766589        0.197549        -1.69435
LJ           1.65056       -0.865025        -1.68432
LJ            2.5629        0.831862         2.56135
LJ          -1.76002         1.75408         2.55074
LJ          -2.50556         1.57145        -1.76657
LJ          -1.78016        0.929041        -1.64762
LJ         -0.724427        0.949669         2.27288
LJ          0.189377         1.73004         2.42282
LJ         -0.841361         1.66012        -1.63974
LJ        -0.0464246        0.873928        -1.87279
LJ          0.820236        0.910238        -2.36494
LJ           1.78917         1.73266        -2.44641
LJ           1.02228         1.83376        -1.63143
LJ           1.74928         0.88358        -1.67778
LJ          -2.51248        -2.47046       -0.833752
LJ          -1.49031         -1.6804       -0.715146
LJ           2.49036        -1.76851      -0.0227331
LJ          -1.62131        -2.55262       0.0249973
LJ         -0.739047         2.55193       -0.856668
LJ        -0.0471333        -1.72475       -0.899718
LJ         -0.882282        -1.72268         0.10988
LJ        -0.0897944         2.42865      -0.0125638
LJ          0.807131        -2.56496       -0.847958
LJ           1.60447        -1.81359       -0.778909
LJ          0.726385        -1.79451        0.171826
LJ           1.65499        -2.54113      -0.0563124
LJ           -2.5173       -0.859097       -0.827915
LJ          -1.93989        0.201256       -0.799905
LJ           2.43306      -0.0187501       -0.059473
LJ          -1.71053       -0.905288      -0.0587786
LJ          -0.86973        -0.75305       -0.834277
LJ        -0.0596118      0.00962838       -0.837164
LJ         -0.889363     -0.00487357      -0.0478917
LJ        -0.0493642       -0.704963      0.00732907
LJ          0.879543       -0.891408         -0.7248
LJ           1.67884       -0.197352       -0.819369
LJ          0.946654      -0.0663659       -0.155581
LJ           1.70396       -0.988195       -0.103215
LJ          -2.49192         1.03871       -0.827687
LJ          -1.72081         1.75447       -0.981301
LJ           -2.5154         1.78831       0.0793348
LJ          -1.68949        0.959055         0.11447
LJ         -0.890305        0.790669       -0.686481
LJ         -0.126481         1.72308        -1.00109
LJ         -0.877074         1.76766       -0.181165
LJ        -0.0975491         0.95034       0.0127908
LJ           0.69644         0.87182       -0.832799
LJ           1.72684         1.86805       -0.870112
LJ          0.679457         1.74278       -0.150216
LJ           1.70081        0.755648        0.049823
LJ           2.52565         2.54562        0.979325
LJ          -1.63045        -1.74978        0.917901
LJ           2.32426        -1.69801         1.71109
LJ          -1.87575         2.54686         1.64248
LJ          -0.83013         2.44941        0.771553
LJ         0.0544179        -1.72836        0.910366
LJ          -0.85869        -1.68927         1.72344
LJ         0.0856302        -2.50704         1.88885
LJ           1.04655         2.43778        0.997167
LJ           1.64969        -1.79547        0.840041
LJ          0.928707        -1.61059         1.66269
LJ           1.65853        -2.52636         1.74368
LJ            2.4473       -0.568004        0.884514
LJ          -1.75619      -0.0221304        0.813007
LJ          -2.50017      -0.0263778         1.99177
LJ          -1.76162       -0.879833         1.73404
LJ         -0.722732       -0.870258         0.81527
LJ         0.0722819      -0.0315308        0.823249
LJ         -0.667317       0.0432812         1.72809
LJ          -0.01866       -0.917631         1.62353
LJ          0.725469       -0.940062        0.731832
LJ           1.65179       -0.052335        0.730694
LJ          0.873357        -0.14605         1.72764
LJ           1.70699       -0.858654         1.74181
LJ           2.46594        0.919967        0.803854
LJ          -1.78139         1.74979         0.80847
LJ          -2.56025         1.70869         1.75884
LJ          -1.72224        0.774661         1.71941
LJ         -0.900673        0.661813        0.830405
LJ       -0.00706332         1.57268        0.964238
LJ         -0.818615         1.72438         1.65869
LJ        -0.0254427        0.794061         1.54506
LJ          0.883726        0.777622        0.809434
LJ           1.76383         1.74526         0.76103
LJ          0.796703         1.58567         1.67923
LJ           1.64273         1.04145         1.63594
