108
#Comment!
LJ             2.559         2.49786        -2.56021
LJ          -1.71267         -1.8506        -2.53201
LJ           2.52718        -1.76468        -1.68509
LJ          -1.77436         2.49391        -1.69302
LJ          -0.92697         2.48498         2.46653
LJ        -0.0484706        -1.71831        -2.46131
LJ         -0.693872        -1.68151        -1.71735
LJ        0.00475745        -2.54052        -1.60778
LJ          0.889543         2.56089         2.47788
LJ           1.72671         -1.8145        -2.48107
LJ          0.875452         -1.7211        -1.63508
LJ           1.72601        -2.56101        -1.69104
LJ           2.55446       -0.793754         2.51266
LJ          -1.60523       0.0446231        -2.54996
LJ          -2.55264       0.0103502         -1.6872
LJ          -1.64505       -0.874039        -1.71644
LJ         -0.925371       -0.786393        -2.56438
LJ          0.116816      -0.0756489         2.55871
LJ         -0.850358        0.100768        -1.67538
LJ        -0.0825968       -0.875946        -1.69223
LJ          0.904123       -0.918455        -2.46257
LJ           1.69882        0.104177         2.52349
LJ            0.7166       0.0313318        -1.69438
LJ           1.64312       -0.847526        -1.65561
LJ          -2.51572         0.79589         2.54332
LJ          -1.77969         1.68327         2.53131
LJ          -2.53533          1.5626        -1.71263
LJ          -1.67071        0.807793        -1.69149
LJ         -0.762217        0.891647         2.45199
LJ         0.0355606         1.66809         2.44523
LJ         -0.788985         1.66197        -1.73515
LJ         0.0295285        0.886127        -1.84226
LJ          0.848876        0.903196        -2.53382
LJ            1.6766         1.66907         2.55026
LJ          0.979447         1.73873        -1.74438
LJ           1.60983        0.806346        -1.69075
LJ          -2.54138         2.52393       -0.809235
LJ          -1.59278        -1.67916        -0.87202
LJ          -2.52195        -1.81373      0.00477823
LJ          -1.71748         2.56087       -0.027572
LJ         -0.814351         2.51147       -0.808653
LJ        -0.0142771        -1.64825       -0.893667
LJ         -0.864864          -1.704       0.0123633
LJ         -0.120969         2.49638      -0.0357932
LJ          0.898405         2.51948       -0.708598
LJ           1.57884        -1.76151       -0.836726
LJ          0.832236        -1.77501       0.0455621
LJ           1.73451        -2.46413      0.00459648
LJ           2.51234       -0.873691       -0.782044
LJ          -1.79318       0.0684826       -0.925111
LJ           2.52779       0.0219008      -0.0638036
LJ          -1.70894       -0.924065       0.0131885
LJ         -0.767309       -0.823699       -0.786803
LJ         0.0527086       -0.187396       -0.847617
LJ         -0.917641       -0.031428        0.061152
LJ        -0.0235633       -0.716472        0.121945
LJ          0.914124        -0.76174       -0.897392
LJ           1.69053       0.0171416        -0.89259
LJ          0.868524      0.00419549      -0.0884894
LJ           1.60319       -0.862672       -0.133198
LJ          -2.54695        0.876125       -0.824586
LJ          -1.73778         1.72087       -0.919079
LJ           2.56115         1.66878       0.0121275
LJ          -1.71475        0.951701        0.113233
LJ         -0.787687        0.852688       -0.762394
LJ         -0.101212         1.71096       -0.933516
LJ          -0.87447         1.76081       0.0179522
LJ        -0.0708536         0.83135        0.138862
LJ          0.891534        0.916772       -0.845245
LJ           1.85213         1.73119       -0.791033
LJ          0.762946         1.76343         -0.1286
LJ           1.67129        0.811432       0.0273482
LJ          -2.46981        -2.51496        0.842566
LJ          -1.67592          -1.814        0.839987
LJ          -2.56435        -1.67144         1.65162
LJ          -1.83343        -2.54843         1.64492
LJ         -0.862551        -2.48507        0.802203
LJ         0.0472488         -1.6972        0.862585
LJ          -0.84028        -1.74387         1.76561
LJ          0.141174         -2.5368         1.71474
LJ          0.886779         2.36836         0.93761
LJ           1.75457        -1.86355        0.857691
LJ          0.966583        -1.81773         1.54412
LJ           1.82285         2.56475         1.72552
LJ           2.52938       -0.763871        0.926335
LJ          -1.66717     -0.00302685        0.850032
LJ           2.55376      -0.0386537         1.77423
LJ          -1.72208       -0.806957         1.83089
LJ         -0.892955       -0.805619        0.792229
LJ         0.0929104      -0.0411276        0.955575
LJ         -0.800871      -0.0315691         1.63719
LJ       0.000356483       -0.899022          1.6871
LJ          0.883264       -0.894297        0.803737
LJ           1.61775      -0.0793922        0.800127
LJ          0.792086     -0.00357225         1.74772
LJ           1.78635       -0.747006           1.676
LJ          -2.53923        0.911135        0.859412
LJ          -1.69524         1.59842          0.8898
LJ          -2.55858         1.72892         1.77975
LJ          -1.62572        0.818038         1.74578
LJ         -0.809713        0.836711        0.891535
LJ           0.03932         1.65333        0.944359
LJ         -0.874567         1.70042         1.68253
LJ       -0.00901286        0.721643         1.67926
LJ          0.843933        0.752698        0.745537
LJ           1.67485          1.6196        0.830064
LJ          0.880078         1.63686         1.75497
LJ           1.76778        0.847655         1.66037
