108
#Comment!
LJ           2.56321        -2.29021         2.26906
LJ          -1.79694        -1.62355         2.49088
LJ          -2.26392        -1.57377        -1.63981
LJ          -1.75986        -2.53383        -1.63522
LJ         -0.684434          2.4446         2.49333
LJ          0.049195         -1.8589        -2.47031
LJ           -1.1894        -1.51682        -1.75789
LJ         -0.024912         2.22416        -1.79832
LJ          0.823408         -2.5385         2.48895
LJ           1.78095        -1.57022         2.46371
LJ            0.8117        -1.90323        -1.70053
LJ           1.94971         2.36278        -1.82885
LJ           2.52414        -0.86409          2.3493
LJ          -1.79467       0.0972247          2.5169
LJ           2.38954        0.125377        -1.76724
LJ          -1.87788       -0.576019        -1.61936
LJ           -1.0164       -0.830322        -2.37975
LJ       -0.00848317       -0.317061        -2.38871
LJ          -1.08874       0.0610995        -1.75236
LJ        -0.0684624        -1.08261        -1.69079
LJ          0.829373        -1.02499        -2.54716
LJ           1.68459        0.025143         2.52936
LJ          0.939131          0.1266        -1.73682
LJ           1.60392       -0.757669        -1.73938
LJ          -2.50094        0.912083        -2.49615
LJ          -1.67755          1.9162         2.39899
LJ          -2.50538         1.63509        -1.61956
LJ          -1.73093        0.893664         -1.7498
LJ          -0.54665        0.968418        -2.53356
LJ          0.119783         1.66271         2.36944
LJ          -1.08141         1.66811        -1.79781
LJ          0.164538         1.09398        -1.82436
LJ          0.857996        0.902441         2.54891
LJ           1.78312         1.72442          2.3804
LJ          0.942573         1.83595        -1.91151
LJ           1.70379         1.16687        -1.64984
LJ           2.49516         2.30792       -0.760603
LJ          -1.53152        -1.73148       -0.752228
LJ          -2.34948        -1.77233      -0.0610814
LJ          -1.76104         2.38333       0.0884032
LJ         -0.697201        -2.52996        -1.06795
LJ         0.0774638        -1.60301       -0.804031
LJ         -0.757377        -2.07981       -0.141909
LJ         -0.177146         2.29632       0.0950628
LJ          0.878528        -2.49921       -0.917448
LJ           1.93722        -1.68421         -1.0196
LJ            0.8116        -1.81764        0.362779
LJ           1.70674         2.56049       -0.107566
LJ          -2.35262       -0.930933       -0.757853
LJ          -1.85533       0.0218511       -0.720543
LJ          -2.47894        0.182128        0.118759
LJ           -1.6459       -0.686179        0.152073
LJ         -0.712852        -0.88996       -0.817531
LJ            -0.167       0.0601761        -1.04276
LJ         -0.662346       0.0446364       -0.123633
LJ        0.00504819       -0.653864       0.0115559
LJ           1.02116        -1.18771        -0.80283
LJ           1.90016       -0.204514       -0.555412
LJ          0.866428         0.09446        0.129869
LJ           1.98047        -1.08399      -0.0841414
LJ           2.50825        0.956031       -0.753603
LJ          -1.57089         1.78134        -0.88562
LJ           2.37705         1.68162      -0.0312732
LJ          -1.83544         1.06232        0.244988
LJ          -1.00293        0.688669       -0.876872
LJ          0.139345         1.70827        -0.92858
LJ         -0.797653         1.60191       -0.239671
LJ        -0.0607513        0.923246       -0.184745
LJ          0.974603        0.841682       -0.801098
LJ           1.64583         1.74139       -0.749223
LJ          0.785051         1.84925       -0.149097
LJ           1.77472        0.715616      -0.0813753
LJ           2.40425         2.39299        0.699202
LJ           -1.2584        -1.82362        0.820125
LJ           2.49767        -1.45436         1.51477
LJ          -1.94586        -2.37677         1.42911
LJ         -0.810669           2.475        0.934268
LJ         0.0726136        -1.44832        0.954615
LJ         -0.828982        -1.87954         1.87085
LJ         0.0533044        -2.36818         1.77811
LJ          0.666611         2.40314         1.06499
LJ            1.7844        -1.67151        0.934647
LJ          0.947538        -1.76233         1.71132
LJ           1.75498        -2.46558         1.66942
LJ          -2.43447        -0.72117        0.734815
LJ          -1.52514       0.0255894        0.814987
LJ           2.46749       0.0369279         1.73075
LJ           -1.7655       -0.742333         1.73782
LJ         -0.870943       -0.981787         1.03845
LJ          0.159709       -0.267123        0.920064
LJ         -0.931823        0.226128         1.90693
LJ          0.204157       -0.930486         1.78688
LJ          0.913238       -0.811786        0.828467
LJ           1.75378       -0.120689         0.65781
LJ          0.590658       0.0293485         1.98146
LJ           1.46569       -0.792184         1.72614
LJ            2.2255        0.850879        0.822586
LJ          -1.63227         1.88357         1.00947
LJ           2.43527         1.71553         1.55501
LJ          -1.84229         0.87947         1.47065
LJ         -0.785087         0.76679        0.645312
LJ          0.299691         1.44141        0.825259
LJ         -0.975886         1.39562         1.56522
LJ          0.019464        0.898275         1.63697
LJ           1.18555        0.690202        0.968282
LJ           1.51002         1.72118         0.58879
LJ           1.01185         1.56433          1.6893
LJ            1.7156        0.855527         1.88668
