108
#Comment!
LJ          -2.37661        -2.32513         2.41128
LJ          -1.74409        -1.60672          2.4861
LJ          -2.22739        -1.51079        -1.75642
LJ          -1.57543        -2.48407        -1.81748
LJ         -0.753985         2.43188        -2.55201
LJ          -0.10929        -1.53958         2.46964
LJ           -1.0313        -1.54664        -1.79914
LJ          0.103598         2.42559        -1.90644
LJ          0.893448        -2.51651         2.56112
LJ            1.7471        -1.60226         2.44321
LJ           1.05241        -1.81518        -1.63632
LJ           1.94096         2.37477         -1.6493
LJ          -2.55903       -0.675779         2.56118
LJ          -1.82408      -0.0235191         2.33351
LJ          -2.50951      -0.0164173        -1.85513
LJ          -1.63744       -0.662232        -1.64863
LJ          -1.08079       -0.772679         2.53582
LJ         0.0212178       -0.186458        -2.30444
LJ         -0.915169       0.0335819        -1.82115
LJ          0.031058        -1.07108        -1.70394
LJ           0.83008       -0.959957        -2.54616
LJ           1.71784     -0.00448581        -2.45845
LJ          0.760318        0.151921        -1.72427
LJ           1.58075       -0.746214        -1.68883
LJ          -2.46505        0.997643        -2.46857
LJ          -1.78748         1.96311         2.34132
LJ          -2.45293         1.60008        -1.52054
LJ          -1.64214        0.758271        -1.86744
LJ         -0.540727         0.71911         2.50494
LJ          0.152629         1.66856         2.29673
LJ          -1.22779         1.62387        -1.65195
LJ        -0.0319749         1.13824        -1.76017
LJ            1.1117        0.967274         2.48461
LJ           1.83565         1.73468         2.55412
LJ          0.943962         1.79031         -1.9335
LJ           1.61648        0.805188         -1.7248
LJ          -2.55272          2.3271       -0.810272
LJ           -1.4794        -1.64879       -0.885763
LJ          -2.26681        -1.67125      -0.0918501
LJ          -1.58303         2.56305        0.168518
LJ         -0.591785        -2.48321        -1.08574
LJ        0.00870246        -1.69613       -0.831216
LJ         -0.804046         -1.8373      -0.0240072
LJ         -0.077466         2.24638       0.0830919
LJ          0.719672        -2.45748       -0.920817
LJ           1.95759        -1.69682       -0.895686
LJ          0.809694         -1.8374        0.277578
LJ           1.66541        -2.52257       0.0441524
LJ          -2.39646       -0.843337       -0.834004
LJ           -1.9549        0.137534       -0.900136
LJ          -2.45526       0.0927526       0.0573301
LJ          -1.65043       -0.747514       0.0717841
LJ          -0.81544       -0.866619       -0.818571
LJ         -0.249769      -0.0422194         -1.0386
LJ          -0.73671       0.0137341       0.0429437
LJ        0.00122627       -0.791352          0.1282
LJ          0.974718          -1.261        -0.79085
LJ           1.82207        -0.18772       -0.656033
LJ          0.843773       0.0893563         0.10395
LJ           1.96979       -0.978193     -0.00876076
LJ           2.50982        0.853273        -0.85709
LJ          -1.67012         1.63271       -0.821699
LJ           2.36394         1.54701       0.0899148
LJ          -1.77419         1.08484        0.230901
LJ          -1.10857        0.727877       -0.996966
LJ          0.113735         1.74569       -0.829832
LJ         -0.866212         1.62109       -0.115451
LJ         0.0767665        0.881334       -0.200859
LJ          0.961248        0.906386       -0.835476
LJ           1.70106         1.71897       -0.759386
LJ          0.878163         1.63635       -0.155009
LJ           1.60451         0.79601       0.0368156
LJ          -2.55856         2.37481        0.642403
LJ          -1.37339        -1.82585        0.811254
LJ          -2.47031        -1.47688         1.53948
LJ          -1.95484        -2.28126         1.51105
LJ         -0.824141         2.36092        0.942052
LJ         -0.159905        -1.53913        0.943501
LJ         -0.921034        -1.65932         1.83299
LJ         0.0581153        -2.34632         1.65587
LJ          0.798898         2.46879        0.994252
LJ           1.66417        -1.54441         0.97974
LJ          0.933501        -1.59669         1.73287
LJ           1.81782         2.55984         1.60873
LJ           -2.4779       -0.948437        0.752808
LJ          -1.48522      0.00792817        0.769026
LJ           2.42396        -0.03395         1.62745
LJ          -1.72154       -0.788794         1.61944
LJ         -0.890931       -0.955765         1.12171
LJ          0.191693       -0.124725        0.945878
LJ         -0.925462      0.00766081         1.73153
LJ          0.184391       -0.824711         1.71343
LJ          0.918712       -0.926904         0.62955
LJ           1.71798       -0.261967        0.813207
LJ          0.783433      0.00802392         1.79377
LJ            1.6094       -0.769567         1.72323
LJ           2.29601        0.934821        0.992576
LJ          -1.72457         1.80077         1.05007
LJ           2.51689         1.83612         1.69602
LJ          -1.91798        0.818623         1.44808
LJ          -0.87839        0.835423        0.563957
LJ          0.481257         1.52782        0.778832
LJ         -0.881331         1.39257         1.66377
LJ        0.00901637        0.902709         1.48207
LJ           1.20649        0.684925         1.03398
LJ           1.53686         1.72544        0.646828
LJ            1.1314          1.6756         1.74919
LJ            1.8485         1.02106         1.88234
