108
#Comment!
LJ           -2.5151        -2.53197         2.42142
LJ          -1.76317        -1.64412         2.45428
LJ          -2.49278        -1.64156        -1.83872
LJ          -1.74615         2.51622        -1.70559
LJ         -0.872757         2.55575        -2.47279
LJ         0.0061378        -2.00963        -2.45746
LJ           -1.1614        -1.48839        -1.76133
LJ        -0.0379431         2.28362        -1.78857
LJ          0.807324          2.5458         2.46626
LJ           1.76008        -1.72085         2.56201
LJ          0.728022        -1.90794        -1.78619
LJ           1.89727         2.43217        -1.69368
LJ           2.48262        -0.85589         2.54832
LJ          -1.70472      0.00557499        -2.56337
LJ           2.48931        0.106672         -1.8892
LJ          -1.70293       -0.599799        -1.64788
LJ          -1.09357       -0.691083        -2.45006
LJ         -0.157453       -0.260662        -2.51326
LJ         -0.865074       0.0411157        -1.83726
LJ         -0.115673        -1.18008        -1.94085
LJ           0.90774        -1.17334        -2.50066
LJ           1.68528       -0.028604         2.53115
LJ           0.88754        0.133592        -1.86276
LJ            1.6936       -0.627477        -1.84129
LJ           2.56378        0.861941         2.51559
LJ          -1.69223          1.9437         2.51274
LJ          -2.38921         1.57815         -1.6494
LJ          -1.68734        0.862441        -1.84089
LJ         -0.629567        0.993397         2.50138
LJ          0.147342         1.73936         2.35043
LJ          -1.10587         1.64361        -1.78287
LJ           0.12781         1.06876        -1.83938
LJ           0.83767         0.91569         2.47116
LJ           1.76785         1.86694         2.34525
LJ          0.984642          1.9266        -1.88647
LJ           1.61829         1.01128        -1.66056
LJ           2.48287         2.42984       -0.742488
LJ          -1.36047        -1.71035       -0.807587
LJ          -2.39461        -1.87999        -0.15584
LJ           -1.6636         2.39067      -0.0381389
LJ         -0.850067        -2.55907        -1.13415
LJ          0.179676        -1.63812       -0.831459
LJ         -0.669537        -1.93916       -0.109688
LJ         -0.134318         2.35636       0.0323728
LJ          0.743079        -2.46521       -0.924499
LJ            1.9538        -1.80866         -1.0643
LJ          0.774516         -1.9139        0.244677
LJ           1.64621        -2.41406       -0.123413
LJ          -2.55959        -0.83641        -0.74902
LJ          -1.90227        0.116039       -0.808652
LJ          -2.47186        0.135979       0.0213338
LJ           -1.8083       -0.870239       0.0972899
LJ         -0.613887       -0.844298       -0.610317
LJ        -0.0792806        0.276304       -0.974767
LJ         -0.694024       0.0788915        0.105632
LJ         -0.033616         -0.7317        0.215743
LJ          0.795638       -0.896118       -0.634109
LJ           1.93065      -0.0725285       -0.725728
LJ          0.605953     -0.00378294       0.0345549
LJ           1.81558        -1.26804       -0.193916
LJ          -2.55508         1.02107        -0.80859
LJ          -1.60144         1.75269       -0.759587
LJ           2.50789         1.64138      -0.0716534
LJ          -1.87046         1.09602        0.284406
LJ          -1.08079        0.818219        -0.83827
LJ          0.104541         1.70992       -0.999128
LJ         -0.778178          1.5373      -0.0494021
LJ          0.138717        0.918934      -0.0871361
LJ           0.91126         0.93644       -0.831731
LJ           1.70808         1.73974       -0.820992
LJ          0.786964         1.96685      -0.0522133
LJ           1.64294        0.819535       -0.114584
LJ           2.44257          2.3537        0.711207
LJ          -1.41291        -1.77343        0.677039
LJ           2.50109         -1.6058         1.65401
LJ          -2.05124        -2.42637         1.39204
LJ         -0.671224         2.44795         1.12096
LJ          0.148371        -1.57484        0.938591
LJ          -1.00337        -1.87717         1.85645
LJ         0.0562794        -2.35853         1.71748
LJ          0.835114         2.33352        0.983514
LJ           1.97597         -1.6411        0.806071
LJ          0.999856        -1.81072         1.75696
LJ            1.6962        -2.56337         1.59942
LJ           2.51861       -0.696868        0.945693
LJ          -1.69005       0.0604368        0.735302
LJ           2.53271       0.0741965         1.75921
LJ          -1.76911       -0.720236         1.80126
LJ          -0.73185        -1.06871         1.01294
LJ         0.0656982       -0.134696         1.07167
LJ         -0.861356        0.188455          1.9698
LJ          0.157404       -0.992242         1.86316
LJ            1.0913        -1.06722        0.735983
LJ           1.53011       -0.100068        0.583146
LJ          0.770876      -0.0177394         1.97168
LJ           1.65156       -0.782278         1.84723
LJ           2.33018        0.827963        0.780733
LJ          -1.61223         1.89388        0.865257
LJ           2.44947         1.59608         1.51357
LJ          -1.84669         1.04096         1.58492
LJ         -0.878541        0.790206        0.827816
LJ          0.135924          1.3993        0.806495
LJ         -0.789538         1.55133         1.57752
LJ          0.195119        0.884968         1.64525
LJ            1.0131        0.761337         1.01655
LJ           1.58802          1.6324        0.585463
LJ          0.856113         1.56105          1.6419
LJ           1.65765        0.876363         1.82638
