108
#Comment!
LJ          -2.55878        -2.35401         2.36597
LJ          -1.78956        -1.59505         2.42415
LJ          -2.32057        -1.55021        -1.60597
LJ          -1.74972        -2.49885         -1.5398
LJ         -0.732588         2.34141         2.52426
LJ         0.0733506         -1.8452        -2.41858
LJ          -1.17038        -1.57778        -1.79142
LJ       -0.00723365         2.17507        -1.86842
LJ          0.792481        -2.52699         2.48171
LJ           1.74627        -1.64265         2.47928
LJ          0.805708        -1.92384        -1.66302
LJ           1.87832          2.3866        -1.84715
LJ           2.56414       -0.885363         2.56484
LJ          -1.72965        0.093552        -2.54541
LJ           2.46834        0.140121         -1.8054
LJ          -1.81715       -0.530802        -1.63716
LJ          -1.04875       -0.764638        -2.36682
LJ        -0.0396369       -0.194171        -2.46063
LJ          -1.03868       0.0881255        -1.78323
LJ         -0.106711        -1.12698        -1.80692
LJ          0.842115        -1.04157          2.5392
LJ           1.74323       0.0610834         2.42935
LJ          0.934141       0.0860617        -1.81819
LJ           1.66089       -0.675022        -1.70222
LJ          -2.53844        0.899825        -2.49521
LJ          -1.68273         1.81616         2.37144
LJ           -2.4327         1.56609        -1.60349
LJ           -1.7267         0.92336        -1.75343
LJ         -0.499524        0.949564         2.56425
LJ          0.124081         1.73087         2.39051
LJ          -1.11434         1.68157        -1.83637
LJ          0.165318         1.06361        -1.79723
LJ          0.856781         0.90619         2.55804
LJ           1.72212         1.69324           2.414
LJ          0.982786         1.94872        -1.90236
LJ           1.67047         1.11186        -1.67703
LJ           2.47684         2.35399       -0.774725
LJ           -1.5149        -1.65678       -0.772219
LJ          -2.43779          -1.854      -0.0932727
LJ          -1.77643         2.38923      0.00666932
LJ         -0.674654         2.54242        -1.04657
LJ          0.164949        -1.70502       -0.772536
LJ         -0.789473        -2.00676       -0.212762
LJ         -0.182277         2.33279        0.115114
LJ          0.893386        -2.46931       -0.928044
LJ           1.87429        -1.71781         -1.0559
LJ          0.783974        -1.89801         0.26384
LJ           1.70912        -2.52019       -0.115381
LJ          -2.44595       -0.964149        -0.77891
LJ          -1.91297      -0.0606051       -0.724754
LJ          -2.52367        0.174547       0.0769603
LJ          -1.64283       -0.674689        0.137731
LJ         -0.751596       -0.852761       -0.769066
LJ          -0.11159        0.166319        -1.02593
LJ         -0.659141        0.064582      -0.0673675
LJ        -0.0456935       -0.694765        0.082538
LJ          0.981433        -1.07064       -0.822204
LJ           1.86213       -0.206642       -0.543595
LJ          0.795049     -0.00842862       0.0817667
LJ           1.92332        -1.08697       -0.107743
LJ            2.4992        0.879462       -0.828185
LJ          -1.54668         1.79599       -0.886675
LJ           2.39777         1.63638      -0.0361969
LJ          -1.86075         1.06193         0.33611
LJ          -1.03769        0.725133       -0.972753
LJ          0.115916         1.62833       -0.915343
LJ         -0.796299         1.58716        -0.19655
LJ        -0.0336845        0.849926       -0.126096
LJ          0.948492        0.871871        -0.73526
LJ           1.63458         1.74054       -0.705506
LJ          0.838122         1.89891      -0.0706917
LJ           1.74627        0.821354       -0.103856
LJ           2.44331         2.40275        0.593128
LJ          -1.37626        -1.78817        0.668509
LJ           2.52084        -1.42192          1.5889
LJ          -1.96116        -2.37514         1.47825
LJ         -0.751249         2.56324        0.935658
LJ          0.104001        -1.44287          1.0151
LJ         -0.822008          -1.859         1.88406
LJ         0.0527191        -2.43215         1.72054
LJ          0.694021         2.39943         1.09014
LJ           1.78642        -1.64546        0.937287
LJ          0.924695        -1.74399         1.73228
LJ           1.78769        -2.46796         1.65792
LJ          -2.55691       -0.649483        0.740963
LJ            -1.509       0.0570157        0.874688
LJ           2.49144        0.069293         1.69267
LJ          -1.75902       -0.740302         1.74989
LJ         -0.814521        -1.01739         1.02799
LJ          0.218906       -0.255007         1.06736
LJ         -0.948085        0.213092         1.97892
LJ          0.184391       -0.891779         1.84142
LJ          0.968114       -0.931861        0.825906
LJ           1.73195       -0.164083        0.613115
LJ          0.604969       0.0292961         1.94849
LJ           1.52462       -0.816959         1.80537
LJ           2.31032        0.796425         0.87885
LJ          -1.60246         1.91198         1.05413
LJ           2.38069         1.66372         1.50198
LJ          -1.85244        0.816466         1.54456
LJ         -0.799924        0.772082        0.706691
LJ          0.291745         1.38938        0.832812
LJ         -0.869312         1.47071         1.60613
LJ          0.083621        0.878979          1.7039
LJ           1.19724        0.718403        0.966029
LJ           1.53691          1.7308        0.638546
LJ          0.968528         1.56578         1.61996
LJ           1.71845        0.820815         1.83557
