108
#Comment!
LJ          0.801546        0.601002        0.340378
LJ          -1.88109         2.21842        -1.70493
LJ         -0.416421       -0.403741         2.46436
LJ         -0.534834        -2.43593       -0.259547
LJ         -0.704191        -1.77506          1.1464
LJ          -1.28511         1.34633        -2.37041
LJ          -1.09166       -0.875925        0.354005
LJ         0.0576845       -0.883587        0.828828
LJ         -0.866525         1.73482        0.121753
LJ           1.39056        -1.10121         1.41324
LJ           2.28353          1.0858       -0.628675
LJ           2.50436        -2.21279         1.72296
LJ          -1.74447        -1.59106         1.10499
LJ           2.05365      0.00431004       -0.304716
LJ          -2.15621        -1.15234        -1.15946
LJ           2.54528        -2.11597        -1.16531
LJ         -0.598894        -1.43965         2.22162
LJ           0.83853       -0.163411        -1.16703
LJ          -2.51349      -0.0621729         2.15024
LJ         -0.360335        0.796715          2.2119
LJ          -1.47293        0.470831          2.0173
LJ          -1.87894        0.887518        -1.55173
LJ           2.52987         1.11917        0.380295
LJ           2.13725         2.00675        -1.36374
LJ           0.23287        0.144975        -2.08054
LJ          -1.02671        -2.47592        -1.14178
LJ         -0.241126       -0.269177        -1.04042
LJ           1.31288        -0.12301        0.599539
LJ           1.18829         1.59831        0.254542
LJ          0.445126        -1.42496         2.56102
LJ          -1.27644        -1.65094        -1.91061
LJ          -1.02343        0.414113        -1.96446
LJ           1.31802        -1.47647         0.26126
LJ          -1.84914        0.173634       -0.808663
LJ          -1.87702         2.10733         2.09727
LJ          -1.49497        -2.50808         0.46589
LJ         -0.877968       -0.409954          1.3273
LJ          -1.01927        -2.32735         2.30227
LJ           2.35772        0.343573        -1.39189
LJ        -0.0205608         0.23353         1.36387
LJ          -1.97558       -0.101934        -1.98963
LJ         -0.958191         1.41245        -1.11568
LJ          0.134188         1.35642         1.50893
LJ         -0.222037        -1.20119       -0.262342
LJ          0.715512       -0.173016          2.0687
LJ           1.46454        -1.72754       -0.921042
LJ           1.34629       -0.990613        -2.18023
LJ          -1.15646       -0.585387       -0.678378
LJ          -2.47545        -1.80904        0.285921
LJ          0.209014       -0.982263        -1.66556
LJ           1.44388        0.138234        -2.06678
LJ           2.26516       -0.735994        0.658578
LJ          -2.05937       -0.631946      -0.0206531
LJ          -0.21204        0.975671        0.474391
LJ          -1.74934         1.26619        -0.36872
LJ           2.50728         2.20307        0.701602
LJ          0.693452         1.93424        -2.02756
LJ          0.303158        0.504257       -0.510672
LJ           1.93561        0.939956         2.25007
LJ          0.565717         1.09874        -1.37099
LJ          -1.55572        -1.69468       -0.504589
LJ           1.65005         1.17167         1.22266
LJ          0.874173        -2.13893        -1.69665
LJ          -1.57652         1.65544         1.09528
LJ          -1.52168       -0.601659         2.39474
LJ           1.91338        -1.82298        -1.87008
LJ          -2.42662        -2.28285        -2.36587
LJ           -2.4664         1.49239        -2.38021
LJ            1.5682         -1.7121         2.23844
LJ          0.958763        -2.44964         0.29199
LJ           1.64894         2.41409        -2.23045
LJ         -0.241114        -2.18322        -2.18285
LJ          0.425523        -2.11415       -0.865086
LJ          -1.78945        -1.63146         2.20782
LJ          0.828056       -0.991477       -0.630806
LJ         -0.296317         1.94436         2.48255
LJ          -2.08769         2.24414        -0.65547
LJ          0.589351        -1.73049         1.56825
LJ           1.13569          1.7026         2.10287
LJ         -0.161146         -2.4487         1.64888
LJ           -1.9117       -0.571771         1.39127
LJ           1.33949        0.826932       -0.619478
LJ           2.36903         -1.0528         1.88369
LJ          -2.15498        0.279495        0.907179
LJ           1.55369         1.23496        -1.66071
LJ          0.161527         2.26925        0.719601
LJ          0.851806        0.650055         1.62605
LJ           2.15956         1.99588           1.796
LJ           1.94773        0.181169         1.31192
LJ         -0.112948      -0.0796949        0.303744
LJ         -0.783804        0.545796       -0.764307
LJ          0.643526        -2.41114         2.46722
LJ           1.98795         2.37899       -0.310212
LJ         0.0575217        -1.79978        0.463705
LJ         -0.215077         2.11373        -1.16165
LJ          -1.28819        0.152852        0.100749
LJ         -0.953618       -0.703484        -1.77564
LJ           1.87393       -0.584553        -1.46946
LJ           1.35806         2.50798         1.45218
LJ          0.812245        0.869385        -2.49918
LJ           1.89352        -1.84972        0.957033
LJ          -2.34387         1.08139          1.7222
LJ           0.09016         1.97953        -0.22456
LJ         -0.561157        -1.52372        -1.22413
LJ         -0.970143        0.846011         1.16608
LJ          -2.52004       -0.928362        -2.32686
LJ           2.08581       -0.983925       -0.496803
LJ           1.09974         2.03711       -0.786873
