108
#Comment!
LJ           2.40367        -2.56426         2.49754
LJ          -1.67308        -1.88232        -2.54874
LJ          -2.54703        -1.71576        -1.84332
LJ          -1.84632         2.47225        -1.70721
LJ         -0.932326         2.39083         2.47879
LJ         -0.193984        -1.86667        -2.42766
LJ          -0.85004        -1.62675        -1.58705
LJ       -0.00859451         2.51709        -1.67724
LJ          0.833263         2.54782        -2.51535
LJ           1.64492        -1.76065         2.55658
LJ          0.810397        -1.49847        -1.58263
LJ           1.89001        -2.49172        -1.67183
LJ           2.50456       -0.913175          2.4771
LJ          -1.64449       0.0672064         2.52764
LJ          -2.52257        0.113521        -1.78133
LJ          -1.76215       -0.966738        -1.68068
LJ          -1.14943       -0.867681         2.54151
LJ        -0.0142424      -0.0731107         2.51659
LJ          -0.77515        0.115058        -1.72998
LJ         0.0435552       -0.819052        -1.70701
LJ           0.85448        -0.92675        -2.51561
LJ           1.78809        0.125105        -2.55545
LJ          0.692558        0.163184        -1.64732
LJ           1.64869        -0.80783        -1.70114
LJ          -2.49563        0.871018         2.52539
LJ          -1.78835         1.81392         2.51144
LJ          -2.52831         1.64238        -1.81532
LJ          -1.74803        0.898966         -1.7604
LJ         -0.617444          1.0138          2.3362
LJ          0.178468         1.73105         2.42842
LJ         -0.820684         1.67029         -1.5904
LJ         -0.120633        0.927047        -1.77934
LJ          0.752257        0.877107        -2.36009
LJ           1.82236         1.74021        -2.51476
LJ          0.903274         1.80424        -1.61313
LJ           1.74342        0.797729        -1.70557
LJ          -2.47942        -2.48464       -0.815606
LJ          -1.46639        -1.74385       -0.748794
LJ           2.55942        -1.83346      -0.0517745
LJ           -1.6219         2.48095      -0.0005874
LJ         -0.779037         2.56396       -0.799151
LJ         -0.110891        -1.66709        -0.93868
LJ         -0.862476        -1.73583        0.128507
LJ         -0.153583         2.37681       0.0248873
LJ          0.854817         2.46602       -0.805172
LJ           1.55294        -1.79214        -0.80495
LJ          0.733978        -1.79162        0.131867
LJ           1.60764        -2.49193       -0.102884
LJ          -2.48899       -0.925612       -0.799809
LJ           -1.9593        0.207803       -0.827218
LJ           2.45966        0.073221      -0.0460447
LJ          -1.67282       -0.893578      -0.0878559
LJ         -0.892619       -0.741734       -0.726267
LJ         -0.027795       0.0422964       -0.729525
LJ         -0.916447       0.0291472       -0.053975
LJ        -0.0597031       -0.694251      -0.0363468
LJ          0.967678       -0.808375       -0.773471
LJ           1.75894       -0.157624       -0.823725
LJ           0.91938      -0.0728327      -0.0750343
LJ           1.71125         -1.0305       -0.137754
LJ          -2.53683         1.04254       -0.805569
LJ          -1.67613         1.74588       -0.963661
LJ          -2.56026         1.76561        0.132401
LJ          -1.82955        0.923156       0.0733969
LJ         -0.808529        0.675238       -0.836821
LJ        -0.0763905         1.72885       -0.929494
LJ          -0.97633         1.67154       -0.184733
LJ         -0.114814          1.0111      -0.0975818
LJ          0.679211        0.960553       -0.817686
LJ           1.75775         1.94905        -0.93959
LJ          0.629928         1.77827      -0.0326678
LJ           1.62749        0.809661       0.0520872
LJ            2.5017         2.51734        0.890686
LJ           -1.5944        -1.73803         0.91546
LJ           2.41275        -1.72297         1.66976
LJ          -1.86769         2.51457         1.66914
LJ         -0.730899         2.48641        0.807164
LJ       -0.00922173        -1.71316        0.828818
LJ         -0.848865        -1.65375         1.74738
LJ          0.180496        -2.51917         1.80165
LJ           1.06218         2.53612         1.00151
LJ           1.79883        -1.77526        0.819615
LJ          0.893082        -1.62919         1.60612
LJ           1.70385        -2.45869          1.8234
LJ           2.47277       -0.652824        0.898912
LJ           -1.8234       0.0159957        0.906342
LJ          -2.49105      -0.0122628         1.97444
LJ          -1.81725       -0.853832         1.66023
LJ         -0.701319       -0.883945        0.793811
LJ          0.114464       0.0036073        0.782871
LJ         -0.648486       0.0604962         1.73268
LJ        -0.0280158       -0.921708         1.59812
LJ            0.7482       -0.885692        0.835365
LJ            1.6089     -0.00394123        0.764955
LJ          0.796597       -0.192651         1.81222
LJ           1.68537       -0.849023         1.65906
LJ           2.41096        0.919558        0.865591
LJ          -1.77466          1.7717        0.846066
LJ           2.54217         1.70526         1.82317
LJ          -1.77905        0.718869         1.63322
LJ         -0.847678        0.735365        0.841772
LJ        -0.0169089         1.58964        0.898047
LJ          -0.90721         1.72429         1.60461
LJ         0.0380258        0.842161         1.58448
LJ          0.802191        0.819449        0.886851
LJ           1.76633         1.78263        0.849319
LJ          0.865784         1.62094         1.69872
LJ           1.69253          1.0233         1.65829
