108
#Comment!
LJ           2.40381        -2.51559         2.55583
LJ          -1.61513        -1.84611         2.45313
LJ            -2.493        -1.77843        -1.73178
LJ          -1.86161         2.53882        -1.67898
LJ         -0.855786         2.54205          2.4844
LJ         -0.157422        -1.92098        -2.50014
LJ         -0.853688        -1.55628        -1.62894
LJ         0.0373388         2.42035        -1.75431
LJ          0.901022         2.47518        -2.37664
LJ           1.67962        -1.74197        -2.49439
LJ          0.819286        -1.47936        -1.54471
LJ           1.87905        -2.49732         -1.6473
LJ           2.48657       -0.936216        -2.53326
LJ          -1.66581       0.0129552        -2.54581
LJ          -2.44444        0.213177        -1.76095
LJ          -1.79448       -0.896692        -1.62061
LJ          -1.09556       -0.897314         2.54625
LJ        -0.0522757      -0.0481167          2.5421
LJ         -0.760704        0.130808        -1.74062
LJ          0.037779       -0.774433        -1.79709
LJ          0.983725       -0.950495        -2.55325
LJ           1.77162        0.146291         2.56283
LJ          0.665996        0.146055        -1.69514
LJ           1.60124       -0.872011        -1.70599
LJ          -2.52081        0.851233         2.51113
LJ          -1.79187         1.87598         2.44731
LJ           -2.5311         1.60723        -1.79492
LJ          -1.70455        0.869672         -1.7439
LJ         -0.607315         1.01569         2.29864
LJ          0.172596         1.68725         2.41283
LJ         -0.800297         1.62152        -1.75247
LJ         -0.139233        0.915833        -1.72225
LJ          0.746032        0.818994        -2.41543
LJ           1.73294         1.74914        -2.51978
LJ          0.905899         1.69527        -1.53193
LJ           1.72611        0.818144        -1.68596
LJ           -2.5044         2.56393       -0.814958
LJ          -1.55181        -1.81833       -0.655361
LJ           2.50816        -1.78313      -0.0390563
LJ          -1.74426         2.43293      -0.0471635
LJ         -0.806337         2.48533       -0.823499
LJ        -0.0282387        -1.73028       -0.852843
LJ         -0.760887        -1.80079       0.0883366
LJ         -0.179663         2.42144       0.0411637
LJ          0.920228         2.51527       -0.905936
LJ           1.63925        -1.74041       -0.842897
LJ          0.807142        -1.84303        0.182373
LJ           1.65212        -2.44052       -0.107298
LJ          -2.48333       -0.990102       -0.759649
LJ          -1.89853        0.131084       -0.771797
LJ           2.53218       0.0216577      -0.0240147
LJ          -1.73491       -0.706888       -0.100775
LJ         -0.814545       -0.712071       -0.802405
LJ       -0.00578052       0.0988883       -0.718973
LJ          -0.85143      -0.0237264       0.0331741
LJ         -0.136937       -0.728413        -0.10805
LJ          0.835505       -0.770325       -0.861709
LJ           1.81144       -0.113646       -0.855407
LJ          0.942503       0.0125936      -0.0856054
LJ           1.76383       -0.951051       -0.089882
LJ          -2.54177         1.07022       -0.723314
LJ          -1.66326         1.72233       -0.948871
LJ           2.47791         1.75245        0.195229
LJ          -1.88933        0.947585       0.0665709
LJ         -0.840749        0.773048       -0.860128
LJ        -0.0225532          1.6676       -0.831918
LJ         -0.891087         1.63351       -0.159208
LJ        -0.0558048         1.01187      -0.0689119
LJ          0.727228        0.940581       -0.820898
LJ           1.88457         1.83076       -0.921153
LJ          0.758853         1.91776      -0.0644168
LJ           1.69572        0.859071      -0.0604575
LJ           2.44808         2.52308        0.989606
LJ          -1.57303        -1.84163        0.941237
LJ           2.49869        -1.65303          1.6953
LJ          -1.81119         2.52705         1.66089
LJ         -0.815183         2.50491        0.805226
LJ         0.0163887        -1.70694        0.818565
LJ         -0.876762        -1.70063         1.75431
LJ          0.155705        -2.47489         1.74966
LJ           1.09457        -2.51908        0.959923
LJ           1.94482        -1.67347        0.790969
LJ          0.880641        -1.63951         1.60501
LJ           1.62948        -2.55343         1.80901
LJ           2.46074       -0.682011        0.881298
LJ          -1.93172      -0.0135356        0.902932
LJ           -2.5108      -0.0227556          1.8982
LJ          -1.82136       -0.818504         1.67309
LJ         -0.701809       -0.816922        0.728093
LJ         0.0566433      -0.0856766        0.807802
LJ          -0.74134         0.14301         1.78711
LJ          0.017413       -0.973035         1.63581
LJ          0.853325       -0.935348        0.818007
LJ           1.58472     -0.00709284        0.713694
LJ          0.777107       -0.126483         1.83905
LJ           1.73831       -0.855717         1.69252
LJ           2.39644          0.7545        0.760922
LJ           -1.6744         1.75797        0.790898
LJ           2.49472          1.7056         1.73935
LJ          -1.74212         0.74284         1.59828
LJ         -0.890833        0.686358        0.793183
LJ         0.0718929         1.72746        0.856572
LJ         -0.845971         1.70403         1.52589
LJ         0.0342713        0.868189          1.5121
LJ           0.88798        0.882629         1.06328
LJ           1.67704         1.81898        0.847634
LJ          0.991516         1.72157          1.8153
LJ           1.74335        0.969742         1.72548
