108
#Comment!
LJ           2.01609        0.966189         1.80261
LJ          -2.10698        -2.01029       -0.482691
LJ         -0.290792         -1.8291        0.713017
LJ          -1.98408         1.72086         1.12604
LJ          -1.99456        0.742856         1.94295
LJ          -1.82379        -1.39191         2.51619
LJ           2.01354        -1.13355         2.20177
LJ          0.739021       0.0808624        0.596094
LJ           1.81031         -2.5113         1.23519
LJ         -0.165162        0.320318        -2.16485
LJ            -2.298         1.16207        -1.72328
LJ          0.884461         2.16107         2.05843
LJ         -0.316507         1.14548           2.168
LJ          0.279006         1.36379        0.496372
LJ          0.977382          1.0366         2.27041
LJ          0.324268        -1.77675       -0.634699
LJ        -0.0741909        -0.98043         1.58484
LJ         -0.942135        0.543326         1.41086
LJ          0.677468         -1.7569         0.34039
LJ           1.54176       -0.367933        -1.09361
LJ           -1.8682        0.485506        0.819929
LJ         -0.460025         2.51578       -0.892454
LJ           1.14435        -2.39651       -0.496145
LJ          -2.56353       0.0364953         0.22438
LJ         0.0228955        -2.33184           2.224
LJ         -0.589055        -1.52804         -1.1086
LJ           1.75145        -2.48159        0.276379
LJ           1.60301        -2.35187        -1.66407
LJ           2.28562         1.80889        0.374062
LJ          -1.06377       -0.545508        0.875412
LJ          -2.01119        -2.11471         1.71026
LJ          0.261755       -0.865589        0.532166
LJ          -2.41953       -0.910028         1.08584
LJ           1.41734       0.0613628         2.25513
LJ             1.221        -1.52935        -1.09729
LJ         -0.678207        -0.57633         2.53391
LJ         -0.700737         2.20324        0.763854
LJ          0.265164        -1.47228        -1.72362
LJ           1.11201         -1.3361         1.84012
LJ         -0.840453        0.792054       -0.489335
LJ          -1.42814        -2.25948        -1.67545
LJ           1.65373        0.186672      -0.0581871
LJ            1.6989         1.81495        -2.51967
LJ          -1.66094       -0.251559         1.82312
LJ           2.40267        -1.10363        0.166941
LJ          0.536431        -2.43264        -1.66413
LJ         -0.199954       0.0495827         1.85216
LJ          -1.42865     -0.00221351      -0.0401857
LJ            1.5669        -1.66178        0.922803
LJ          -1.52064        -2.28256         0.79467
LJ          -2.55705         1.74652         2.26541
LJ            2.2312        0.867073        0.613018
LJ          -1.36369        -1.19275         1.59515
LJ           2.15577       -0.436016        -1.94934
LJ           1.80269       -0.195251         1.00561
LJ          -1.02441        0.485805        -1.58472
LJ         -0.611611         2.24852        -1.96262
LJ           1.96872         2.02936        -0.72277
LJ          0.590851       -0.388407        -1.83605
LJ          -1.17023        -2.34464          2.4941
LJ         0.0226408         1.86338          1.5321
LJ          0.200071         2.48765        0.220752
LJ          -2.38985         2.24945        -1.26158
LJ          -1.45237       -0.697027        -1.37456
LJ          0.287813        0.551096        -1.31827
LJ           2.17541        0.418608        -1.21543
LJ          -1.05468         1.95376         1.82756
LJ          0.232411        0.747914         1.24197
LJ             1.417        -1.01371       0.0187548
LJ          -1.77739        0.294287       -0.934684
LJ            1.2789        -1.16737        -2.12655
LJ           1.23023        0.496381        -1.88684
LJ           1.93716        -2.10656         2.11605
LJ          -2.56444       -0.544274       -0.985563
LJ          -1.30777         1.44438        -1.15975
LJ          0.869991        -2.03003        -2.55373
LJ         -0.475503         -1.6166        -2.50433
LJ         -0.447267       -0.228683        -1.13642
LJ           2.46576       0.0307383         1.62701
LJ           1.29285        0.840813         1.07531
LJ          0.373868        -1.13736         2.55147
LJ          0.369594        0.589523        -0.32583
LJ          -1.08386        -1.86748       -0.158435
LJ          -1.50989         1.67044         -2.3805
LJ          -2.32077         1.23346       -0.554151
LJ          -0.34808       0.0843778        0.460151
LJ           2.43356        0.361749        -2.51231
LJ          -1.85439        -0.20823        -2.17082
LJ           1.23651        0.802831       -0.909005
LJ          -2.34151        -1.48616        -1.50875
LJ         -0.726238       -0.842837       -0.217453
LJ         -0.766761         1.07064         0.45873
LJ         -0.738708        -2.16278         1.56406
LJ           0.56004          -2.197         1.31918
LJ          0.623005        -0.51564       -0.566301
LJ          -1.72667         2.01506       -0.109181
LJ         -0.287951         1.45016        -1.39922
LJ            1.2006         1.64502        -1.56086
LJ           2.56442        -1.99031        0.811073
LJ          -1.09193        0.432659         2.51843
LJ          0.263939         1.77168        -2.34016
LJ           1.24443         1.22234      0.00361802
LJ           2.05104        -1.85101       -0.643726
LJ          0.526401         1.88101        -0.83317
LJ          -2.51879        -2.34294        -2.20683
LJ          0.708582       -0.221064         1.58308
LJ          -1.78159       -0.947825       0.0277192
LJ         -0.340915          1.7139       -0.265141
