108
#Comment!
LJ          -2.48912        -2.26012        -2.54227
LJ          -1.67039        -1.52212        -2.56121
LJ          -2.44938        -1.54671        -1.72656
LJ          -1.71467        -2.43294        -1.77025
LJ         -0.815654         2.37877        -2.50026
LJ        -0.0733889        -1.52932         2.51597
LJ         -0.806445        -1.41429        -1.92605
LJ          0.112129         2.55579        -1.80917
LJ           1.09597        -2.54094         2.55901
LJ           1.58937        -1.53344         2.43473
LJ           1.06061        -1.70524        -1.74751
LJ           1.93564         2.55445        -1.62721
LJ           2.54976        -0.77519        -2.43883
LJ          -1.94658      -0.0554339         2.30353
LJ            2.5274       0.0745479        -1.60796
LJ          -1.61858        -0.57229        -1.62129
LJ         -0.798665       -0.717865         2.49866
LJ          0.102722      -0.0230236        -2.35048
LJ         -0.760769       0.0759818        -1.73642
LJ          0.118438       -0.878254        -1.52194
LJ          0.733045        -1.00025        -2.51883
LJ           1.72768       0.0846024        -2.42618
LJ          0.859929        0.232266        -1.60268
LJ           1.39473       -0.694288        -1.51924
LJ           2.53911         0.88314        -2.32903
LJ          -1.75789         1.89405         2.39662
LJ          -2.42786         1.72378        -1.51622
LJ          -1.50973        0.640999        -1.98971
LJ         -0.470152        0.861035         2.53101
LJ         0.0878989         1.88319         2.47844
LJ          -1.19023         1.63104        -1.72178
LJ           -0.2005         1.06556         -1.6686
LJ          0.993265        0.990817        -2.46219
LJ           1.79083         1.95596        -2.52643
LJ          0.939229         1.83676        -1.78665
LJ           1.74165         1.23933        -1.82725
LJ           2.54737        -2.36964       -0.636822
LJ          -1.40661        -1.59891       -0.897731
LJ          -2.30738        -1.62861       0.0745672
LJ          -1.73468         2.46664         0.34929
LJ         -0.688781          2.5502        -1.01516
LJ         0.0950575        -1.85093        -0.71596
LJ         -0.813685        -1.83874       0.0708216
LJ         0.0158286         2.43514       0.0907469
LJ           1.00697        -2.47314       -0.925464
LJ            1.9277        -1.51351       -0.888663
LJ          0.704219        -1.92096        0.243146
LJ           1.66082        -2.50352       0.0350113
LJ          -2.24363       -0.829015       -0.734857
LJ          -1.83918        0.266713       -0.917562
LJ          -2.44819      0.00298077     -0.00467812
LJ          -1.55985       -0.631784       -0.127252
LJ         -0.734022       -0.787564       -0.841878
LJ       -0.00857692       0.0273496       -0.809541
LJ         -0.665093      -0.0456267       0.0415124
LJ        -0.0352028        -1.08627        0.079773
LJ          0.908039        -1.11799       -0.663102
LJ            1.9335       -0.314113       -0.568327
LJ          0.859875       0.0646582       0.0277011
LJ           1.91753        -1.06314        0.179937
LJ           2.30928        0.815502       -0.706189
LJ          -1.78118         1.64528       -0.642913
LJ           2.35635         1.61336       0.0251658
LJ          -1.81422         1.03648        0.110064
LJ         -0.878465         0.85661       -0.895768
LJ         0.0371225         1.82093        -0.90025
LJ          -0.81974         1.69854       -0.122515
LJ          0.171534        0.941978         -0.1545
LJ          0.843288        0.946361       -0.964655
LJ            1.7347         1.76269       -0.827887
LJ          0.865916         1.84249       -0.138858
LJ           1.66349        0.648303       0.0931371
LJ           2.43695         2.45278          0.7318
LJ          -1.50554        -1.80923        0.892663
LJ           2.40278        -1.44442         1.64401
LJ          -1.92594        -2.40246         1.65448
LJ         -0.701969          2.4356        0.977428
LJ         -0.137992        -1.60961         1.07942
LJ         -0.858762        -1.65671         1.79929
LJ       -0.00861024        -2.31585         1.76507
LJ          0.846467         2.49906        0.910845
LJ           1.55583        -1.66521         1.00886
LJ          0.783363        -1.55157         1.67881
LJ           1.57988         2.53683         1.58171
LJ          -2.33464       -0.754336        0.920043
LJ          -1.80897        0.194359        0.809727
LJ           2.32791        0.108373         1.68221
LJ          -1.60439       -0.837621         1.62568
LJ         -0.920586       -0.891582        0.878197
LJ          0.135626      -0.0638847        0.884353
LJ          -1.00939     -0.00590219         1.59085
LJ         0.0577944        -0.65518         1.80854
LJ           0.95698       -0.917295        0.504885
LJ            1.6937       -0.194872        0.865528
LJ          0.973543      -0.0468505         1.72642
LJ           1.56498       -0.805076         1.70599
LJ           2.38983        0.946587         1.02827
LJ           -1.9317         1.67634        0.932425
LJ           2.43112         1.94903         1.66113
LJ          -1.66437         0.82635         1.64845
LJ         -0.936302        0.869385        0.933528
LJ          0.285005         1.47526        0.738836
LJ         -0.736279         1.47691         1.70516
LJ          0.151593        0.716125         1.60311
LJ           1.13258        0.666643         1.10097
LJ           1.55548         1.79027        0.817475
LJ          0.801825         1.77015         1.59371
LJ           1.76257        0.880525         1.90474
