108
#Comment!
LJ           2.51692        -2.56457        -2.56121
LJ          -1.70309        -1.84889        -2.52854
LJ          -2.55818        -1.75842        -1.64668
LJ          -1.74471         2.53959        -1.71215
LJ         -0.900458         2.55241         2.50378
LJ        -0.0518028        -1.71847        -2.53375
LJ         -0.787227        -1.74989        -1.71261
LJ        -0.0310817         2.55579        -1.59906
LJ          0.812381         2.51752         2.49007
LJ           1.72942         -1.8017        -2.50891
LJ          0.854402        -1.71478        -1.70541
LJ           1.72313        -2.53592        -1.71029
LJ            -2.544       -0.824792        -2.53169
LJ          -1.65245      -0.0277286        -2.51138
LJ          -2.54281      -0.0640679        -1.66103
LJ           -1.6818       -0.841561        -1.66876
LJ         -0.843724       -0.719688        -2.54635
LJ         0.0409541      -0.0285364         2.55824
LJ         -0.883501       0.0842187        -1.65604
LJ        -0.0659035       -0.910598        -1.73267
LJ          0.849758       -0.955121        -2.49734
LJ           1.66124        0.145681         2.53494
LJ          0.731161      -0.0130982        -1.74473
LJ           1.67947       -0.859064        -1.68956
LJ          -2.55754        0.837225         -2.5351
LJ          -1.67669         1.70167        -2.56117
LJ          -2.55833         1.57392        -1.76274
LJ          -1.71558        0.821678        -1.65722
LJ          -0.77097        0.881832         2.45281
LJ         0.0131489         1.67536         2.46297
LJ         -0.830224         1.65063        -1.79696
LJ         0.0231789        0.852239        -1.86191
LJ          0.888046        0.911536         2.52636
LJ           1.67363         1.67673          2.5468
LJ          0.949658         1.70803        -1.81285
LJ            1.6913        0.893651        -1.72528
LJ          -2.54284          2.5546       -0.807326
LJ          -1.58118        -1.70473       -0.880731
LJ          -2.53862        -1.77465     -0.00316761
LJ          -1.73802        -2.53203      -0.0383556
LJ         -0.776428         2.51784       -0.843086
LJ         0.0020184        -1.66688       -0.903002
LJ         -0.811467        -1.72777       0.0144919
LJ         -0.111549         2.49572       -0.083112
LJ          0.958889         2.53929       -0.754103
LJ           1.62116        -1.72536       -0.865009
LJ          0.811484        -1.77264       0.0313278
LJ           1.71079        -2.51157      -0.0271575
LJ           2.49633        -0.86055       -0.816576
LJ          -1.75795       0.0132271        -1.01176
LJ          -2.55357     -0.00583108       -0.111043
LJ           -1.7092       -0.872874       0.0247044
LJ         -0.824774       -0.780152       -0.799328
LJ         0.0825959       -0.090035       -0.852074
LJ          -0.92358      -0.0165399       0.0390957
LJ       -0.00489932       -0.802627       0.0541576
LJ          0.892213       -0.754055       -0.853751
LJ           1.70445      0.00478175       -0.870444
LJ          0.858608       0.0219911      -0.0693869
LJ           1.66725        -0.87968       -0.119265
LJ          -2.53951        0.888214       -0.842076
LJ           -1.7353         1.72064        -0.86718
LJ            2.5043         1.64474     -0.00446076
LJ          -1.74258        0.943162         0.04554
LJ         -0.788655        0.814634        -0.75014
LJ         -0.140527         1.68957       -0.862937
LJ         -0.859903         1.69386      0.00627227
LJ         -0.038478        0.848115        0.102667
LJ          0.870163        0.878162       -0.796435
LJ           1.74723         1.71781       -0.840841
LJ          0.847108         1.80545      -0.0726154
LJ           1.72855        0.841113       0.0738514
LJ          -2.50548        -2.49737        0.859707
LJ          -1.68536        -1.73026        0.793932
LJ          -2.54653         -1.7055         1.71642
LJ          -1.78753        -2.55481         1.69273
LJ         -0.781754        -2.46263        0.781082
LJ         0.0646772        -1.70241        0.859451
LJ         -0.857338        -1.70581         1.73966
LJ         0.0740007        -2.56393         1.76235
LJ           0.92357         2.40111        0.866262
LJ             1.695        -1.81609        0.870656
LJ          0.876446        -1.78264         1.56157
LJ           1.80569        -2.54774         1.76482
LJ            2.5265       -0.788473        0.862989
LJ          -1.71913        0.024946        0.923795
LJ           2.55827       0.0386311         1.72881
LJ          -1.66231        -0.81745         1.80339
LJ          -0.90739       -0.869045        0.786145
LJ          0.112784      -0.0299132        0.923022
LJ         -0.785952      -0.0668834         1.62427
LJ        -0.0524736       -0.814453         1.67093
LJ          0.878757       -0.893832        0.827435
LJ           1.60025      -0.0577354        0.810786
LJ          0.779948      -0.0378704         1.68734
LJ           1.78712       -0.754206         1.67947
LJ          -2.49386        0.854974        0.870301
LJ          -1.66186         1.65327        0.918492
LJ           2.56052         1.71048         1.77635
LJ          -1.67129        0.843376         1.72565
LJ         -0.839637        0.840788        0.845716
LJ        0.00563223         1.65465        0.880558
LJ         -0.856929         1.72229         1.67095
LJ        -0.0945663        0.782448         1.66757
LJ          0.834849        0.748308        0.789358
LJ           1.67756         1.62345        0.889382
LJ          0.857693          1.6418         1.76605
LJ           1.80175        0.789212         1.69776
