108
#Comment!
LJ          -2.54335        -2.34223         2.37842
LJ          -1.74879        -1.59789         2.48115
LJ          -2.41391        -1.52491        -1.68856
LJ           -1.7164         2.55679        -1.62469
LJ          -0.82028          2.3927        -2.55228
LJ         0.0105764          -1.876        -2.44271
LJ          -1.08271        -1.54167        -1.80594
LJ        -0.0857784         2.21241        -1.87199
LJ          0.788702         2.56075         2.55161
LJ           1.78964        -1.69209         2.50828
LJ          0.792675        -1.92225        -1.71599
LJ           1.99134         2.36398        -1.84368
LJ             2.511       -0.829533          2.5183
LJ          -1.69235       0.0877004        -2.54351
LJ           2.52936       0.0801382        -1.80283
LJ          -1.84456        -0.50872        -1.66342
LJ          -1.02471       -0.773637        -2.37961
LJ        -0.0601205       -0.162514        -2.48092
LJ         -0.975059       0.0366256        -1.80124
LJ        -0.0981544        -1.13728        -1.82446
LJ          0.781232        -1.07294         2.55784
LJ           1.69136       0.0275866         2.48638
LJ          0.909817       0.0718904        -1.88986
LJ           1.69471       -0.682847        -1.71936
LJ          -2.55438        0.934229        -2.52867
LJ          -1.67391           1.821         2.37592
LJ          -2.39563         1.60084        -1.64074
LJ          -1.69896         0.88451        -1.77432
LJ         -0.483545        0.904748        -2.52548
LJ          0.143383         1.70067         2.36344
LJ          -1.15611         1.71695        -1.80895
LJ          0.122237         1.12246        -1.77155
LJ          0.913942        0.941244         2.52804
LJ           1.67571         1.75119         2.38726
LJ          0.901785         1.94945        -1.84446
LJ           1.68511         1.08316        -1.65036
LJ           2.55168         2.40369       -0.739753
LJ          -1.54114        -1.65337       -0.787764
LJ           -2.3688        -1.78671       -0.143465
LJ          -1.81438         2.35075      -0.0238107
LJ         -0.666847          2.5476        -1.04257
LJ          0.164195         -1.7102       -0.766824
LJ         -0.722934        -1.95022       -0.227335
LJ         -0.263608         2.32968       0.0936542
LJ          0.836816        -2.55057       -0.929062
LJ            1.7818        -1.78437        -1.04723
LJ          0.764933         -1.9307        0.267558
LJ           1.67747        -2.50422       -0.111239
LJ          -2.48864         -0.9395       -0.726873
LJ          -1.91508      -0.0599647        -0.72035
LJ          -2.53695        0.226222       0.0403009
LJ          -1.74376       -0.692908        0.138148
LJ         -0.706075       -0.875166       -0.696354
LJ         -0.124893        0.188353        -1.02823
LJ         -0.635354        0.110296       -0.080082
LJ        -0.0220463       -0.660713       0.0887831
LJ          0.953161        -1.07456        -0.86173
LJ           1.89148       -0.226657       -0.589512
LJ          0.720953       0.0204406       0.0724751
LJ           1.90707         -1.1225      -0.0907543
LJ          -2.56343        0.893969       -0.794448
LJ          -1.65825         1.86397       -0.855057
LJ           2.41477         1.70586      -0.0655031
LJ          -1.98172         1.13414        0.391582
LJ          -1.08663        0.725688       -0.892657
LJ          0.104332         1.67618        -0.95156
LJ         -0.809253          1.4858       -0.184463
LJ         0.0113909        0.875805       -0.178256
LJ           1.00737        0.908735       -0.726864
LJ           1.63728         1.76858       -0.688898
LJ          0.792608         1.97645      -0.0488621
LJ           1.74196        0.822004      -0.0835821
LJ           2.47295         2.40877         0.66818
LJ          -1.37562        -1.74925        0.666559
LJ           2.48786        -1.37666         1.66202
LJ          -1.97862        -2.36489         1.42647
LJ         -0.725319        -2.56262        0.969073
LJ          0.147371         -1.4887         1.00568
LJ         -0.873738        -1.82367         1.89072
LJ         0.0285157        -2.36003         1.67345
LJ          0.726693         2.35055         1.02364
LJ           1.80625        -1.66832        0.890952
LJ          0.946476        -1.83937         1.76624
LJ           1.81698        -2.41402         1.70383
LJ           2.51281       -0.600569        0.815224
LJ          -1.58033       0.0952247        0.830777
LJ           2.54244       0.0394325          1.7599
LJ           -1.7686       -0.751542         1.76255
LJ         -0.799094        -1.04786         1.05337
LJ          0.174057       -0.165336          1.0768
LJ         -0.939354        0.217528         1.93629
LJ          0.134485       -0.915561         1.83232
LJ           1.03034       -0.954123         0.83003
LJ           1.62066       -0.134205        0.605414
LJ          0.586909       0.0383917         1.96494
LJ           1.55715       -0.862805         1.76993
LJ           2.24206        0.758902        0.865879
LJ          -1.57819         1.91514         1.03532
LJ           2.43215         1.64893         1.52458
LJ          -1.83911          0.8449         1.57422
LJ         -0.814661        0.725232        0.763176
LJ          0.271343         1.42614         0.85061
LJ         -0.816822         1.40242         1.65356
LJ          0.128365        0.872094         1.68376
LJ           1.21165        0.722949        0.983224
LJ           1.46695         1.77693        0.658133
LJ           0.97676          1.5357         1.57447
LJ           1.67297        0.773781         1.85776
