108
#Comment!
LJ          -2.51126        -2.27081        -2.50934
LJ          -1.66004        -1.58023          2.5509
LJ           -2.4382        -1.52246        -1.71791
LJ          -1.74251        -2.45162        -1.81409
LJ         -0.817962         2.31228        -2.48417
LJ        -0.0303404        -1.52914         2.55966
LJ         -0.782436        -1.43356        -1.86798
LJ          0.125891        -2.53256        -1.82655
LJ           1.08045        -2.51435        -2.49685
LJ           1.57407        -1.51719         2.44272
LJ           1.04137        -1.66869        -1.72577
LJ             1.904        -2.53502        -1.67271
LJ            2.4605       -0.696819        -2.48566
LJ          -1.92478        0.038182         2.33513
LJ           2.55607       0.0165394        -1.62256
LJ          -1.68358       -0.625493        -1.56558
LJ         -0.751712       -0.649933         2.51511
LJ         0.0301465      -0.0355533        -2.33861
LJ         -0.821615       0.0609302        -1.78153
LJ          0.151824       -0.841079        -1.50326
LJ           0.73136       -0.987849        -2.48977
LJ           1.75402       0.0693373         -2.4816
LJ          0.911256         0.28255        -1.58895
LJ           1.39574        -0.72001        -1.53604
LJ          -2.51723        0.844987        -2.35599
LJ          -1.76051         1.90615         2.34932
LJ           -2.4303         1.75422        -1.47121
LJ          -1.60471         0.63333        -1.95733
LJ         -0.471726        0.884029         2.49603
LJ         0.0743563          1.8397         2.44367
LJ          -1.17277         1.58346        -1.72231
LJ         -0.206353         1.03287        -1.57308
LJ           1.03641         1.03646        -2.47465
LJ           1.84083         1.87317        -2.54021
LJ          0.926826         1.83813        -1.81223
LJ           1.73075         1.22263        -1.80869
LJ            2.4979        -2.40071       -0.678118
LJ          -1.34955        -1.57768       -0.936004
LJ          -2.24364        -1.68448       0.0934174
LJ          -1.68713         2.42221        0.377825
LJ         -0.685893         2.54248        -1.00347
LJ         0.0637756        -1.84244       -0.670248
LJ         -0.883036        -1.89333       0.0635437
LJ       -0.00896898         2.45614        0.011839
LJ           1.03847        -2.45035       -0.908136
LJ           1.90927        -1.51608       -0.859927
LJ          0.745918        -1.94107         0.22741
LJ               1.6        -2.51615        0.051855
LJ          -2.20072       -0.826634       -0.772402
LJ          -1.84512        0.296302       -0.927822
LJ          -2.46473       0.0219831       -0.027436
LJ          -1.58811       -0.565787      -0.0528181
LJ         -0.687629       -0.797732       -0.882385
LJ        -0.0478188       0.0485906       -0.773413
LJ         -0.702573       -0.105214        0.080511
LJ        -0.0867659        -1.12516       0.0505365
LJ           0.86394        -1.06443       -0.636147
LJ           1.84774       -0.324561       -0.565942
LJ          0.865136        0.081225      -0.0141763
LJ           1.89267        -1.02861        0.217572
LJ           2.32991        0.866977       -0.750315
LJ          -1.80944         1.68678       -0.663829
LJ           2.35068          1.6916       0.0103453
LJ          -1.81003         1.04355        0.104058
LJ         -0.864903        0.841653       -0.826497
LJ          0.045344         1.75937       -0.958059
LJ          -0.84183         1.65169       -0.122495
LJ          0.106197        0.944421       -0.169642
LJ          0.879739        0.992527       -0.938732
LJ           1.73481         1.78371       -0.821448
LJ          0.859984         1.84623      -0.0720026
LJ           1.63318        0.657173       0.0409758
LJ           2.45078          2.4172        0.692752
LJ          -1.58397        -1.72999        0.934357
LJ           2.44124        -1.47238         1.67268
LJ          -1.87386        -2.41233         1.65216
LJ         -0.722017          2.4331         1.04237
LJ         -0.173972        -1.56007         1.13578
LJ         -0.827545        -1.62486          1.8257
LJ         0.0572668        -2.31279         1.76129
LJ          0.851721         2.50852        0.863594
LJ           1.47937        -1.65396        0.968002
LJ          0.807294        -1.53455         1.75711
LJ            1.5269        -2.54104         1.59094
LJ          -2.32324       -0.767527        0.906979
LJ          -1.82565        0.193695        0.806599
LJ           2.34393         0.14619         1.62102
LJ          -1.62649       -0.893741         1.62056
LJ         -0.867291       -0.885447        0.886656
LJ          0.176337       -0.071166        0.919082
LJ         -0.991458      -0.0496991         1.59662
LJ         0.0559017        -0.61012         1.78719
LJ          0.922596       -0.878345        0.501696
LJ           1.65652       -0.249351        0.836091
LJ          0.991335      -0.0350009         1.81389
LJ           1.53701       -0.853385         1.73464
LJ           2.43435        0.955279         1.03846
LJ          -1.93365         1.60779        0.928775
LJ           2.43211         1.95915         1.65379
LJ          -1.62812        0.850672          1.6077
LJ         -0.904522        0.848343        0.900554
LJ          0.315975         1.42393        0.649896
LJ         -0.721286         1.50736         1.67588
LJ          0.109653        0.701024          1.6397
LJ           1.08613        0.673997         1.08153
LJ           1.59584         1.77748        0.918037
LJ          0.775715         1.76378         1.59786
LJ           1.77477        0.913327         1.90921
