108
#Comment!
LJ           2.49447        -2.51787         2.44565
LJ          -1.79063        -1.78097         2.42835
LJ          -2.47203        -1.69665        -1.52145
LJ          -1.77459        -2.50553         -1.8628
LJ           -1.0132         2.44325         2.49361
LJ        -0.0721134        -1.97356         -2.5134
LJ         -0.908606        -1.51164        -1.65702
LJ         0.0998586         2.35272        -1.65604
LJ          0.983099         2.45567        -2.37186
LJ           1.77036        -1.66479         2.50299
LJ          0.939863        -1.65009        -1.61504
LJ           2.02422        -2.51044        -1.54459
LJ           2.50888       -0.818764        -2.49255
LJ          -1.83396       0.0535885         2.47612
LJ          -2.47681         0.13167        -1.72588
LJ           -1.6638       -0.636694        -1.33746
LJ          -1.13822        -0.91263        -2.50543
LJ         -0.127014       -0.211374        -2.52401
LJ         -0.815049         0.10782        -1.78645
LJ        -0.0540723       -0.949329        -1.74903
LJ           1.00897        -1.08272        -2.44006
LJ           1.65331       0.0791363         2.53317
LJ          0.766449      -0.0143042        -1.56724
LJ           1.77502        -0.83733        -1.72617
LJ          -2.51942         1.04117         2.37087
LJ          -1.77052         1.85068         2.54025
LJ          -2.53162         1.69065        -1.78847
LJ          -1.70355         0.96048         -1.9027
LJ         -0.755805         1.04288         2.56183
LJ         0.0447313         1.83012         2.51896
LJ         -0.759359         1.66444         -1.7685
LJ          0.035804        0.868649        -1.89828
LJ           0.84959        0.837784         -2.4693
LJ           1.83711         1.84585         2.44949
LJ          0.934518         1.73258        -1.53631
LJ           1.83552        0.796124        -1.73303
LJ          -2.45184         2.42639       -0.661597
LJ          -1.54336        -1.83372       -0.613424
LJ           2.48588        -1.72643      -0.0852884
LJ          -1.60035         2.40047       -0.120644
LJ         -0.770002         2.45728       -0.943736
LJ         0.0508726         -1.7175       -0.888917
LJ         -0.657845        -1.82827       0.0842991
LJ         -0.230355           2.367     -0.00706986
LJ          0.852039        -2.48085       -0.881036
LJ           1.77769        -1.64021       -0.894043
LJ          0.722549        -1.98588        0.102345
LJ           1.62619        -2.35051       -0.147817
LJ          -2.54178        -0.87253       -0.775974
LJ          -1.81331        0.180461        -0.72154
LJ           2.41807      -0.0371951       0.0535131
LJ          -1.72949       -0.861129       0.0375275
LJ         -0.663499       -0.796919       -0.827873
LJ        0.00144895         0.22526       -0.938286
LJ         -0.741741       -0.133014      -0.0840782
LJ         0.0529005       -0.788925        0.181746
LJ           0.82677       -0.832372       -0.744914
LJ             1.751       -0.112043       -0.861413
LJ          0.760065       0.0206223      -0.0593465
LJ           1.62812       -0.949315      -0.0928086
LJ          -2.44927        0.995646       -0.909069
LJ          -1.66584         1.73428        -1.08586
LJ           -2.5496         1.59355       0.0849275
LJ          -1.91595        0.805691       0.0862944
LJ          -1.00661        0.758581       -0.804942
LJ        -0.0854539          1.5411       -0.839099
LJ         -0.804602         1.51562      -0.0450276
LJ         0.0899316        0.955366       0.0443234
LJ          0.839438         1.05471       -0.726356
LJ           1.78188         1.66358       -0.971765
LJ          0.846774         1.94119       0.0442744
LJ           1.77698        0.855878        -0.12118
LJ           2.37881        -2.51043        0.839146
LJ          -1.51361        -1.66569        0.761115
LJ          -2.56352        -1.44095         1.77462
LJ          -2.02239         2.52909         1.54762
LJ          -0.69503        -2.47806         1.00624
LJ          0.128571        -1.80635         0.97743
LJ         -0.973626        -1.69084         1.71664
LJ         0.0490944        -2.39697          1.7145
LJ           1.08379        -2.54894        0.933762
LJ           1.73179        -1.45741        0.783281
LJ           0.84999        -1.64639         1.68458
LJ           1.52626        -2.45529         1.83464
LJ           2.56246       -0.578214         1.09129
LJ          -1.81247       0.0338252        0.866575
LJ            2.5327        0.113303         1.85194
LJ          -1.65756       -0.900995         1.53209
LJ         -0.775113       -0.903009        0.926922
LJ           0.11783       -0.104186         1.05277
LJ         -0.859421        0.198758          2.0851
LJ          0.171261       -0.918988         1.61782
LJ          0.973973       -0.809416        0.838592
LJ           1.58437       -0.125264        0.554631
LJ          0.714975       -0.123419         1.87595
LJ           1.71056       -0.803365         1.74181
LJ           2.45251        0.694917        0.696736
LJ           -1.4501         1.95814        0.806068
LJ           2.55027         1.62447         1.44845
LJ          -1.49449        0.882076         1.59901
LJ          -0.86372        0.755505        0.697083
LJ          0.133011         1.66305         0.93393
LJ         -0.806978         1.67359         1.47304
LJ         0.0379525        0.884854         1.65081
LJ          0.808238         0.64311        0.928142
LJ           1.81538         1.68807        0.781915
LJ          0.955213         1.68272         1.72337
LJ           1.71951        0.742099         1.60148
