108
#Comment!
LJ          -2.52206        -2.44572         2.38705
LJ           -1.7481         -1.6892         2.52613
LJ          -2.39879        -1.50142        -1.73145
LJ          -1.74497         2.52064        -1.63451
LJ         -0.816992         2.48429        -2.45717
LJ         -0.103556        -1.94878        -2.48386
LJ          -1.07146        -1.53159          -1.809
LJ        -0.0477825         2.21777        -1.77858
LJ          0.799028         2.50709         2.44855
LJ           1.78351        -1.69987           2.564
LJ          0.739971        -1.85496        -1.76887
LJ           2.02918         2.46827        -1.70634
LJ           2.48531       -0.769381          2.5217
LJ           -1.7656       0.0642165        -2.53212
LJ           2.47779       0.0554153        -1.86259
LJ           -1.7297       -0.512353        -1.63548
LJ          -1.08509       -0.749382        -2.47274
LJ         -0.125619       -0.167939        -2.46485
LJ         -0.902657       0.0318689        -1.79337
LJ         -0.123754        -1.07694        -1.82216
LJ          0.822818        -1.14282        -2.54474
LJ           1.72295      0.00669479         2.48534
LJ          0.871825       0.0816887        -1.83778
LJ           1.67811       -0.647362        -1.74919
LJ           2.54921        0.969114         2.56478
LJ          -1.69847         1.89255         2.43284
LJ          -2.35344         1.58926        -1.58298
LJ          -1.61583        0.748154        -1.77247
LJ         -0.596477        0.905691        -2.55635
LJ         0.0883411         1.69977         2.31114
LJ          -1.05259         1.69714        -1.72115
LJ         0.0286187         1.12141        -1.84773
LJ          0.827764        0.901989         2.54385
LJ           1.73764         1.79846         2.42305
LJ          0.917124         1.94903        -1.83067
LJ           1.59951         1.05492        -1.65873
LJ           2.48528         2.44587       -0.753079
LJ          -1.48046        -1.75429       -0.833066
LJ          -2.34112        -1.84404       -0.199511
LJ          -1.74549         2.44255      -0.0439532
LJ         -0.753178         2.55403        -1.01292
LJ          0.180485        -1.69053       -0.793266
LJ         -0.713419        -1.94206       -0.158866
LJ         -0.188008         2.30917       0.0366269
LJ          0.821714        -2.50268       -0.926194
LJ           1.89508          -1.821         -1.0629
LJ          0.744033        -1.89055        0.327046
LJ           1.66046        -2.48593        -0.10422
LJ          -2.42244       -0.900236       -0.706012
LJ          -1.94956       0.0239671       -0.778185
LJ          -2.53645        0.228091      -0.0064133
LJ          -1.81725       -0.768939         0.12108
LJ         -0.612677       -0.900632       -0.699399
LJ         -0.112513        0.325992        -1.00913
LJ         -0.682969        0.109577      -0.0932482
LJ         -0.116629       -0.661404        0.141606
LJ          0.960549       -0.969747       -0.704082
LJ           1.89241      -0.0452614       -0.592218
LJ          0.700383       0.0368033       0.0864049
LJ            1.8286        -1.12868      -0.0935075
LJ          -2.48832        0.955932        -0.79966
LJ          -1.65737         1.84336       -0.798783
LJ           2.47008         1.66678      -0.0723611
LJ          -1.86994         1.14679        0.358847
LJ           -1.1209        0.774149       -0.818781
LJ           0.08202         1.63371        -1.01071
LJ         -0.855318         1.45253      -0.0843603
LJ        -0.0260816        0.905909       -0.238628
LJ          0.982423        0.942926       -0.801209
LJ           1.65063         1.77688       -0.766902
LJ          0.755759         2.01186      -0.0422577
LJ           1.70638        0.868361      -0.0521164
LJ            2.4646         2.32242        0.743455
LJ          -1.34402        -1.80381        0.760107
LJ           2.51127        -1.50324         1.75216
LJ          -2.06872        -2.38215         1.42704
LJ         -0.843194         2.51266         1.01489
LJ          0.115428         -1.4906        0.979585
LJ         -0.979212         -1.8465         1.88367
LJ         0.0470353        -2.37203         1.70925
LJ          0.807085         2.40805        0.973129
LJ           1.89882        -1.65025        0.824269
LJ          0.983173        -1.80067         1.78512
LJ            1.7641        -2.39239         1.63117
LJ           2.47694       -0.658806        0.838894
LJ          -1.59584       0.0406992        0.837563
LJ           2.42688       0.0259053         1.76642
LJ           -1.7664       -0.785584         1.73486
LJ         -0.712069        -1.01441        0.993317
LJ          0.149503       -0.144957         1.10523
LJ         -0.974047         0.10924         1.97835
LJ          0.157035        -0.91333         1.89778
LJ           1.01827        -1.02678        0.792651
LJ           1.60619       -0.177206        0.627468
LJ          0.668898        0.019866         2.04473
LJ           1.53529       -0.775724         1.75981
LJ            2.2797        0.817753         0.82691
LJ          -1.63366           1.865        0.976003
LJ           2.44653         1.61905         1.47986
LJ          -1.80344        0.892805         1.57965
LJ         -0.830338        0.714493        0.784342
LJ          0.261103         1.41951        0.781451
LJ         -0.908464         1.42318         1.56917
LJ          0.179445        0.884515         1.61522
LJ           1.15742         0.74462          1.0042
LJ           1.51362         1.66252        0.621935
LJ          0.924961         1.51511         1.66758
LJ           1.65063         0.81504         1.88047
