108
#Comment!
LJ          -2.56177        -2.44654         2.49224
LJ          -1.77659        -1.65993         2.45681
LJ           -2.4735        -1.67215        -1.67767
LJ          -1.74609         -2.3913        -1.70844
LJ         -0.872279         2.49323         2.51675
LJ         0.0406617        -1.94211        -2.49177
LJ         -0.957349        -1.48312        -1.55575
LJ         0.0421224         2.27461        -1.66505
LJ           0.99112         2.37856        -2.38974
LJ           1.80933        -1.69476         2.51941
LJ           1.03369        -1.83654        -1.69809
LJ           1.94136         2.55344        -1.49305
LJ           2.53131       -0.905065        -2.54502
LJ          -1.82038       0.0731411        -2.55685
LJ          -2.49507        0.166686        -1.85691
LJ          -1.65104       -0.476392        -1.40059
LJ          -1.16065       -0.881537        -2.53048
LJ        -0.0597011       -0.213247        -2.37107
LJ         -0.822913       0.0602512         -1.6972
LJ         -0.139211        -1.00957         -1.8095
LJ          0.971649        -1.11447        -2.48102
LJ           1.68586        0.041154        -2.55293
LJ          0.786133       -0.109883        -1.59618
LJ           1.68817       -0.868728        -1.71856
LJ          -2.42767         1.04526         2.39485
LJ          -1.72691         1.85642         2.53094
LJ          -2.49183         1.65768        -1.63982
LJ          -1.51988        0.867489         -1.6369
LJ         -0.648537         1.04692        -2.53417
LJ          0.132909         1.85279         2.56092
LJ         -0.797119          1.7392        -1.70565
LJ         0.0562047        0.984833        -1.79763
LJ           1.01234        0.803336         -2.4579
LJ            1.8532         1.85804         2.44993
LJ          0.957596         1.67771        -1.61846
LJ           1.84503        0.839818         -1.8062
LJ            2.5534         2.37174       -0.734968
LJ          -1.49924        -1.87141       -0.737504
LJ          -2.41057        -1.73052      -0.0990666
LJ          -1.76286         2.44444       -0.132385
LJ         -0.658256        -2.51045       -0.922127
LJ         0.0676939        -1.69179       -0.895661
LJ         -0.547289        -1.72258       -0.051729
LJ          -0.25567         2.36002        0.156004
LJ          0.767064        -2.49736       -0.932386
LJ           1.74034        -1.69727       -0.872406
LJ          0.589862        -2.02367        0.136736
LJ           1.61918         -2.3554       0.0301191
LJ          -2.41109        -0.94027       -0.706579
LJ          -1.84014        0.039189       -0.637338
LJ           2.42078       0.0771941      0.00777613
LJ           -1.6434       -0.872341       0.0638988
LJ         -0.578481       -0.781493        -0.80173
LJ         0.0258851        0.211824       -0.874058
LJ         -0.889787      -0.0500706      -0.0483221
LJ          0.068964       -0.788353        0.200742
LJ          0.859841       -0.948078       -0.734646
LJ           1.89696       -0.146149       -0.849864
LJ          0.810108       0.0206769      -0.0607399
LJ           1.73496       -0.825205      -0.0770946
LJ          -2.46895        0.981734       -0.899252
LJ          -1.59063         1.76088       -0.966266
LJ           2.49857         1.71923       0.0982297
LJ          -1.86563        0.895598      -0.0270027
LJ          -0.87324         0.74465       -0.829904
LJ         -0.108547         1.55931       -0.807034
LJ         -0.881268         1.45639     -0.00968568
LJ       -0.00891728        0.889011        0.107352
LJ          0.852735        0.973849       -0.647693
LJ           1.74241         1.62803        -0.85679
LJ          0.774462         2.01772       0.0305007
LJ           1.73641        0.853994       -0.107318
LJ           2.44962         2.54918        0.851702
LJ          -1.47249        -1.68977         0.65558
LJ           2.47746         -1.4818          1.7036
LJ          -1.96466         2.51839          1.5714
LJ         -0.744825        -2.46618         1.16703
LJ          0.134854        -1.54212        0.900053
LJ         -0.848624        -1.61583         1.69694
LJ          0.156736        -2.40104         1.68506
LJ          0.996525         2.48892        0.863326
LJ           1.90561        -1.59863        0.676341
LJ          0.953805        -1.73703         1.72694
LJ           1.60756        -2.46329         1.69829
LJ           2.47649       -0.638624         1.01398
LJ          -1.75918       -0.043374        0.837016
LJ           2.44848       0.0221082         1.92499
LJ           -1.6589        -1.01276         1.48914
LJ         -0.646821       -0.896713        0.988264
LJ         0.0542245      -0.0767033        0.992817
LJ         -0.861189        0.172613         2.03752
LJ          0.135429       -0.982843         1.78137
LJ           1.04471        -0.91746        0.794371
LJ           1.60024       -0.108234        0.661846
LJ          0.736598      -0.0467353          1.8538
LJ           1.56801       -0.832257         1.67008
LJ           2.51634        0.664719        0.940161
LJ          -1.55206         1.89657        0.736855
LJ           2.46764         1.62041         1.52658
LJ          -1.60853        0.938383         1.57446
LJ          -1.00182        0.640635        0.767163
LJ          0.250463         1.55285        0.867893
LJ         -0.792634         1.58501         1.54119
LJ         -0.115739        0.839259         1.51049
LJ          0.837669        0.643587        0.932813
LJ           1.71962         1.74975        0.697555
LJ          0.886191         1.56801         1.78602
LJ           1.79745        0.870151            1.73
