108
#Comment!
LJ          -1.27128        -1.61559       -0.460705
LJ           1.37677        0.398646       -0.288079
LJ        -0.0287314        0.104183      -0.0274694
LJ            2.2539         2.31133         1.10901
LJ           2.09783         2.53684       -0.516349
LJ         -0.520718         2.09192        -1.73097
LJ          -1.14988      -0.0994681         1.19332
LJ          -2.45692        0.626236          2.0524
LJ           2.53131        -1.60142        -1.98823
LJ         -0.273783        -1.48566        -1.71756
LJ            -1.917         -1.4284        0.930643
LJ          -1.47955         1.03804        -2.56421
LJ          -1.63357         1.88982        -1.77814
LJ           1.64968        0.685024         1.88306
LJ          0.752569        -1.59163        -1.22281
LJ           1.10278         1.75192       -0.535257
LJ        -0.0614543        -1.16779        -0.69181
LJ          0.637391       -0.299102       -0.675122
LJ            2.5324         2.53198          -1.729
LJ         -0.568054        0.162177       -0.934113
LJ          0.107974       -0.982984         2.01289
LJ          -1.38455        0.976534         1.51836
LJ           -2.2918         1.42003           1.299
LJ           2.14032       -0.468858         1.85847
LJ          0.390048        0.420715        -1.62071
LJ            1.4365         1.99575        0.426316
LJ          0.138177        -2.10365         1.73222
LJ          -1.37948        0.567726       -0.218685
LJ          0.384037         1.56991        -1.73166
LJ           1.94101       -0.730351      -0.0437859
LJ          0.683425      -0.0495981         2.52177
LJ         -0.407111      -0.0656444         1.87889
LJ         -0.888118       -0.649539       -0.115161
LJ          -2.08665       -0.941443      -0.0224038
LJ            1.2829         2.01259         1.76252
LJ           1.80405        -1.04005        -2.49702
LJ          -2.43984       -0.565197        -1.05307
LJ           1.61621        -2.04046        -1.55982
LJ          -1.19129       -0.903954         2.39821
LJ         -0.650964        -2.12865        0.982371
LJ         -0.584496        -2.45668          2.5611
LJ        -0.0360434       -0.679778        0.974416
LJ           2.55244         1.86986       0.0858052
LJ          0.642471        0.665307         0.40625
LJ          0.406744         1.78061        0.146716
LJ         -0.881219         2.53995      -0.0206491
LJ          -1.70108         -1.0832         -1.7918
LJ          0.119696        0.761675            2.25
LJ           1.25704        0.924457        -1.46452
LJ            1.2209         1.21956         1.09135
LJ         -0.344382       -0.365367        -1.95981
LJ           1.33586        -1.93604        0.493489
LJ          -0.74938         1.73941         2.33362
LJ          -1.52418        -2.16187         -2.0323
LJ           2.28023        -1.65959        0.291442
LJ           1.62535        -1.56529       -0.655424
LJ          -2.46964        -1.78518       -0.913289
LJ          0.612507          0.3713         1.48898
LJ           -2.3982         -2.1912         2.31792
LJ          -1.50998        0.144435         2.47836
LJ          -1.61994         2.27726        0.922785
LJ          0.628136         2.51609        -1.41015
LJ           1.87215        -1.04975         1.06161
LJ           1.95744         1.50048         2.44306
LJ           2.32331        0.871059        0.368057
LJ          0.851955        -1.66671         2.28286
LJ          -1.74928        0.490086        -1.61152
LJ         -0.671601        0.592183         -2.0734
LJ           2.05432         1.16408       -0.582231
LJ          0.834781        -1.29453       -0.117155
LJ           1.07604         1.11025         -2.4317
LJ              1.81        0.105468        0.885431
LJ           -2.0811        -1.22005         1.88591
LJ          -1.51875          1.7127       -0.180915
LJ          -2.03251         1.33852       -0.941123
LJ         -0.136141        -2.21473       -0.883244
LJ          0.574415       -0.922502        -2.16552
LJ          -1.02487        -1.14639         1.40962
LJ          -2.36322       -0.289709         1.05485
LJ           1.03616       -0.637678         1.62483
LJ           1.54659       -0.336739       -0.989626
LJ           2.32758         1.53125        -1.60222
LJ          -2.00526        -2.38258     -0.00547725
LJ          0.973685       -0.396083        0.374188
LJ            -1.307        -2.50306        -1.10127
LJ          -1.71427         2.00954         1.85809
LJ           2.53883       0.0817746       -0.309135
LJ          0.527255         2.50059        0.841263
LJ          0.761119        -2.31244        -0.28814
LJ          0.641244        -1.49622         1.24296
LJ         -0.516811         1.11486       0.0812472
LJ           1.70936        -2.33442         2.53283
LJ          0.216791         1.57708         1.59361
LJ         -0.249145        0.566671        0.905026
LJ          0.543562         2.25204          2.5531
LJ          -1.81051        0.750404        0.643472
LJ          -1.03085        -0.76991         -1.0728
LJ         -0.531393         1.89839       -0.789448
LJ        -0.0724805        -1.56373        0.261519
LJ           1.45451         1.98519         -1.9501
LJ          -1.38671        -2.13312         1.83628
LJ          0.305092         1.02001       -0.855996
LJ         -0.485057         1.92249        0.775687
LJ            1.6222        -2.17941         1.50355
LJ           1.57793        0.046361        -2.08648
LJ           2.27964        0.394425        -1.27199
LJ          -1.05508         1.21396        -1.30676
LJ           -2.4117        -0.16687        -2.23545
