108
#Comment!
LJ          -2.39973         -2.4147         2.51122
LJ          -1.75559        -1.58437         2.52864
LJ           -2.3598         -1.5745        -1.76511
LJ          -1.51544        -2.47066        -1.82679
LJ          -0.81644         2.43832         2.56241
LJ         -0.170604        -1.59963         2.44601
LJ         -0.960979        -1.59611        -1.80903
LJ          0.027062          2.4646        -1.91549
LJ          0.858819        -2.42411         2.55861
LJ           1.74308        -1.63532         2.45017
LJ           1.13972        -1.83493         -1.7088
LJ           1.90907         2.39791        -1.58845
LJ           2.48608       -0.691694         2.50577
LJ          -1.82649      -0.0641174         2.37721
LJ          -2.49997      -0.0744811        -1.86559
LJ          -1.61261       -0.604291        -1.64486
LJ          -1.06001       -0.683126        -2.52561
LJ         -0.025018       -0.256096        -2.42086
LJ         -0.832321       -0.011188         -1.7747
LJ          0.138415         -1.0063        -1.73041
LJ          0.826699       -0.973894        -2.56221
LJ           1.74172       -0.102479        -2.39823
LJ          0.780482         0.21233        -1.64585
LJ           1.54091       -0.789384        -1.62612
LJ          -2.50502        0.984424         -2.4605
LJ          -1.82842         1.91865         2.29893
LJ          -2.49671         1.68193        -1.50861
LJ          -1.69916        0.746752         -1.9888
LJ          -0.47429        0.704729         2.56245
LJ          0.105252         1.68712         2.35054
LJ          -1.19215           1.594        -1.66751
LJ        -0.0377384         1.06004        -1.69847
LJ            1.1479         0.93903         2.55444
LJ           1.79374         1.78059        -2.52903
LJ           1.01718         1.83265         -1.9396
LJ           1.65473        0.831076        -1.70073
LJ          -2.55499         2.46003       -0.763341
LJ          -1.43306        -1.70487       -0.815691
LJ          -2.37008        -1.71563      -0.0647377
LJ          -1.54433          2.5418        0.160009
LJ         -0.629166        -2.49427        -1.11986
LJ         0.0679388        -1.75717       -0.732672
LJ         -0.755624        -1.77943       -0.071194
LJ        -0.0609717         2.30861        0.145128
LJ          0.654502        -2.56177       -0.885334
LJ           1.95666        -1.61284       -0.958908
LJ          0.763585        -1.92075         0.22996
LJ           1.65343        -2.45045      0.00397197
LJ          -2.47324       -0.882318        -0.87332
LJ          -1.94436        0.122614       -0.882085
LJ          -2.44282        0.116586     5.20599e-05
LJ          -1.73112       -0.712707     0.000427487
LJ         -0.810819       -0.833839       -0.826809
LJ         -0.182566      0.00799634       -0.968209
LJ         -0.696011      -0.0369942       0.0539141
LJ         0.0280478       -0.789574       0.0921155
LJ          0.958676        -1.22181        -0.78319
LJ           1.82097       -0.178841       -0.671321
LJ          0.837886        0.105076        0.116116
LJ           1.94646        -1.07666      -0.0220593
LJ           2.54248         0.92268       -0.765741
LJ          -1.77351         1.69139       -0.800179
LJ           2.43098          1.5007       0.0858717
LJ          -1.81971          1.0746        0.200627
LJ           -1.0751        0.712259        -1.00581
LJ          0.152049          1.7101       -0.868409
LJ         -0.834947         1.71089       -0.161786
LJ          0.105096        0.867627       -0.108973
LJ          0.912219        0.961975       -0.873371
LJ           1.77586         1.67863       -0.787439
LJ          0.998264         1.61587       -0.137815
LJ            1.5858        0.789554       0.0703875
LJ          -2.48188         2.42765        0.592153
LJ           -1.4482        -1.83425        0.873185
LJ          -2.49175        -1.51286         1.59239
LJ          -1.98779        -2.34878          1.5859
LJ         -0.848101         2.38549        0.962847
LJ        -0.0269066        -1.48697        0.996891
LJ         -0.981963        -1.67145         1.85573
LJ          0.160928        -2.31529         1.73266
LJ          0.811978         2.42727        0.932398
LJ           1.67438        -1.46499         0.97619
LJ          0.915731        -1.61493         1.77586
LJ            1.8227        -2.44684         1.62286
LJ           -2.4847       -0.886322        0.749441
LJ          -1.59743       -0.035366        0.777149
LJ            2.4326      -0.0262185         1.65649
LJ           -1.6385       -0.802369         1.58986
LJ         -0.892709       -0.889159          1.0346
LJ          0.167374      -0.0908107        0.862379
LJ         -0.993066      -0.0423086         1.79253
LJ           0.21239       -0.788284         1.71797
LJ          0.899965       -0.924885         0.64509
LJ            1.8361       -0.331376        0.834477
LJ          0.842577       0.0457194         1.77509
LJ           1.55817       -0.795388          1.8549
LJ           2.32279         0.95404        0.976109
LJ          -1.79941         1.85825         1.12041
LJ           2.53342         1.93765         1.60713
LJ          -1.85622        0.826555         1.58669
LJ         -0.928279        0.887748        0.602784
LJ           0.38014         1.48328        0.806066
LJ         -0.834092         1.43581         1.64736
LJ         0.0627414        0.916562         1.52888
LJ            1.1874        0.751136        0.981626
LJ           1.52918         1.72388         0.78411
LJ           1.08295         1.67069          1.7082
LJ           1.89123         1.04398          1.8714
