108
#Comment!
LJ           -2.5062        -2.27821         -2.5108
LJ          -1.64474        -1.57974         2.55805
LJ          -2.43812        -1.53168        -1.73169
LJ          -1.76179        -2.44455        -1.81349
LJ         -0.810705         2.31535        -2.49524
LJ        -0.0363939         -1.5069         2.54311
LJ         -0.808798        -1.43749        -1.86361
LJ            0.1285        -2.54274        -1.81624
LJ           1.07088        -2.50061        -2.50621
LJ           1.58541        -1.51812         2.43621
LJ           1.03513        -1.67754        -1.72253
LJ           1.92456         -2.5232        -1.67219
LJ           2.47021       -0.697486        -2.48976
LJ          -1.92783      0.00694964         2.32935
LJ          -2.56451       0.0371985        -1.62287
LJ          -1.69415       -0.600161        -1.57426
LJ         -0.731116       -0.634163         2.51907
LJ           0.05508      -0.0494513        -2.30081
LJ         -0.804155       0.0441309        -1.78332
LJ          0.159565       -0.841337        -1.51976
LJ          0.735372       -0.985483        -2.48031
LJ           1.73216       0.0834731        -2.46819
LJ          0.919277        0.280199        -1.59192
LJ           1.41151       -0.724103        -1.53562
LJ          -2.54394        0.849234         -2.3667
LJ          -1.77011         1.89516         2.36335
LJ           -2.4221         1.75073        -1.45938
LJ          -1.59787        0.618377          -1.974
LJ         -0.466332        0.875018         2.49495
LJ          0.085272         1.85709         2.44689
LJ          -1.17376         1.57746        -1.73474
LJ         -0.200415         1.02859        -1.60297
LJ           1.03234         1.04816        -2.46142
LJ           1.83767         1.87286        -2.54537
LJ          0.931291         1.84668        -1.81095
LJ           1.74317         1.21912        -1.82173
LJ           2.48976        -2.38172       -0.665011
LJ          -1.36456        -1.58883       -0.928901
LJ          -2.26711        -1.65518       0.0952589
LJ          -1.70636         2.42034        0.390249
LJ         -0.702219          2.5554        -1.01337
LJ         0.0541251        -1.83488       -0.680419
LJ         -0.854299        -1.88255       0.0591175
LJ        -0.0184728         2.45048       0.0246156
LJ           1.03355        -2.45122       -0.926789
LJ           1.91323        -1.50493       -0.853469
LJ          0.724005        -1.95657        0.208492
LJ           1.63031        -2.50811       0.0467654
LJ          -2.21881       -0.821708       -0.760246
LJ          -1.83366        0.306041       -0.926644
LJ          -2.46395       0.0176726       -0.047119
LJ          -1.55715       -0.600283      -0.0472727
LJ         -0.703046        -0.80264       -0.860181
LJ        -0.0456657       0.0348561       -0.766003
LJ         -0.679771       -0.109056       0.0700684
LJ        -0.0800252        -1.10156       0.0545651
LJ          0.889635        -1.06357       -0.624438
LJ           1.86607       -0.316707       -0.569344
LJ          0.873137       0.0744168      -0.0116952
LJ           1.88141        -1.01648        0.210731
LJ           2.32967        0.842944       -0.752072
LJ          -1.77345         1.67209       -0.661062
LJ           2.34005          1.6851       0.0173942
LJ          -1.78394         1.03961       0.0919969
LJ         -0.856699        0.836254       -0.845894
LJ         0.0479222         1.77192       -0.948791
LJ         -0.836296         1.66291       -0.129431
LJ          0.119708        0.942308       -0.146795
LJ          0.897733        0.989762       -0.936133
LJ           1.72969         1.78562       -0.849271
LJ          0.849844         1.82817      -0.0846486
LJ           1.65056        0.648515       0.0322188
LJ            2.4472         2.42177        0.688822
LJ          -1.57867        -1.74696        0.914463
LJ           2.44673        -1.46531          1.6728
LJ           -1.8786        -2.41666          1.6529
LJ         -0.697474         2.43111         1.01008
LJ         -0.174266        -1.56355         1.12208
LJ         -0.815439        -1.61762         1.82076
LJ         0.0571993          -2.323         1.75181
LJ          0.864954         2.49578        0.866113
LJ           1.47178        -1.65592        0.970806
LJ          0.791593        -1.53627         1.75335
LJ           1.52505        -2.54846         1.57733
LJ          -2.30089       -0.771992        0.912699
LJ          -1.82336        0.207232        0.800607
LJ           2.34629        0.142841         1.64576
LJ          -1.63609       -0.892252         1.60037
LJ          -0.87749       -0.873739         0.87359
LJ          0.185064      -0.0788141        0.887188
LJ          -1.00395      -0.0591003           1.586
LJ         0.0562707       -0.607203         1.80739
LJ          0.938177       -0.871346         0.50748
LJ           1.65478       -0.249536        0.849473
LJ          0.982819      -0.0230438         1.78402
LJ            1.5582       -0.848768         1.73048
LJ           2.45389        0.944711         1.03659
LJ          -1.92919         1.61913        0.950055
LJ           2.44459         1.96735         1.65164
LJ          -1.63232        0.838968          1.6037
LJ         -0.926214        0.858576        0.890712
LJ          0.324875         1.45222        0.675412
LJ         -0.727509         1.51867         1.67982
LJ           0.12134        0.720019         1.64069
LJ           1.09337        0.678732         1.06985
LJ           1.58999         1.78318        0.905359
LJ          0.772706         1.77116         1.60646
LJ            1.7589        0.905771         1.91682
