108
#Comment!
LJ           1.91442         2.43553        0.746637
LJ          -1.73164        -1.45924        0.606085
LJ         -0.423591        -2.28413       -0.143293
LJ           -1.3508          2.2863        0.421104
LJ         -0.919422        0.137176         1.62868
LJ           1.23382       -0.766138        0.424603
LJ           1.87875       -0.578235          1.3188
LJ          0.899396         1.16572         1.74699
LJ          -1.33953        -2.48017        -2.48501
LJ          -1.12394        0.914358        -1.95284
LJ          -2.36727          2.0427        -2.38195
LJ           1.75598        -2.09676         2.42845
LJ          0.490854         1.93897        -2.51767
LJ          0.169345         1.34858        0.787335
LJ           1.81211         1.76062         2.31829
LJ          0.459512        -2.28797       -0.665952
LJ          0.160594        -1.25706         2.22946
LJ          0.687701        0.324668         2.34353
LJ          0.555419          2.4183        0.341436
LJ           2.01612        0.574529       -0.602388
LJ          -1.32614       -0.382805        0.663197
LJ          -1.64391         2.18167       -0.687008
LJ           1.66189        -2.32416       -0.870641
LJ           -1.3648       -0.441446       -0.410579
LJ            1.1928        -1.77785         1.59522
LJ         -0.275362        -2.39544        -2.34302
LJ           1.86379        -1.18706       -0.941822
LJ           2.55736        -1.22918         2.00421
LJ          -2.38572         2.36724          1.5574
LJ          0.583817       -0.915526         1.24349
LJ          -2.11638        -1.85813        -2.33803
LJ           1.22657      0.00247356       -0.160583
LJ            2.5094        -1.50965      -0.0100522
LJ           1.70886        0.191439         1.98389
LJ          0.936081         -1.2593       -0.658941
LJ         -0.775182        -1.70469         2.11479
LJ         -0.314693         2.20218        0.872924
LJ          0.945376        -2.03684        -1.55077
LJ         0.0719999        -1.91961         1.19594
LJ          -1.59259         1.29019       -0.165886
LJ          -1.52282         2.07013        -1.66621
LJ           2.54846         1.63088       -0.797322
LJ          -2.43101         1.39536         1.98745
LJ         -0.985307       -0.185947        -2.34588
LJ         -0.930789       -0.994667        -1.39291
LJ           2.26666       -0.450462        -1.50911
LJ            1.2426       -0.727786         2.17521
LJ         -0.755353         0.18349        -1.00639
LJ           1.50461        -1.86626        0.226896
LJ          -1.24365         2.33775          1.5572
LJ          -1.06837          1.1865         1.95219
LJ          -2.39517        0.569292        0.196731
LJ         -0.938141        -2.07769         0.86153
LJ           2.41038       -0.357249        -2.48495
LJ           2.47356       -0.476657        -0.33968
LJ           -1.5997       0.0180602        -1.69172
LJ         -0.416311        -2.41934        -1.22228
LJ           2.54493        -2.50506       -0.227014
LJ          0.800009          1.1394        -1.93181
LJ         -0.519312         1.71642        -2.23394
LJ           1.57978         1.89989       -0.424675
LJ         -0.543248           1.755         -0.1201
LJ           1.58761         2.30112        -1.88258
LJ          -1.27508        -2.05589        -1.49259
LJ          0.697976        0.251951        -1.35735
LJ           2.47887        0.979776        -2.31763
LJ         -0.355472         2.00185         1.85513
LJ         -0.183181        0.728183         1.59326
LJ           1.06665        0.979078       -0.632978
LJ          -1.98311        0.406095       -0.726544
LJ           1.59897        0.443566        -2.03837
LJ           1.78773         1.24336        -1.42276
LJ          -1.79378        -1.95762         1.55092
LJ           -1.7398       -0.952168        -2.21781
LJ           -2.0512         1.19965        -1.48891
LJ          0.740644        -2.10656         2.46912
LJ         0.0173811        -1.61596        -1.72903
LJ         -0.100235         -1.4709       -0.761598
LJ          -2.49042        -0.28033        0.660383
LJ           2.10754         1.09974         1.24874
LJ           1.19718        -0.85626        -1.81031
LJ         0.0711553       -0.374739       -0.434252
LJ          -1.60756        -1.95022       -0.247078
LJ         -0.127095        0.412517        -1.86838
LJ           2.43123          1.6044         0.26316
LJ           1.02738        0.170507         1.17943
LJ          -2.47491        0.246629         1.51868
LJ          -1.78895        0.356961          2.2795
LJ          0.422376         1.85215       -0.582508
LJ           2.12886        -1.66833         -1.7805
LJ          0.380485        -1.60186        0.206659
LJ          -1.93705         1.04959         1.13503
LJ          0.565605         2.41438         1.64474
LJ           2.15187        -1.79995         1.19989
LJ         -0.159019       0.0286818        0.844541
LJ           -2.3761        -2.52528        -1.43872
LJ          -1.00604          1.3648        -1.11292
LJ          0.495442         2.12689        -1.52576
LJ          -0.51023       -0.960136          1.4815
LJ        0.00985397       -0.607414        -1.40147
LJ        -0.0262655          1.0718        -1.06021
LJ           1.31967         1.63658        0.633608
LJ          -2.11757        -1.18003         -1.0412
LJ         0.0179406        0.742166      -0.0757929
LJ          -1.78399       -0.832335         1.59508
LJ           1.74241        0.645839        0.429224
LJ          -0.45309          -1.005        0.357677
LJ         -0.856626         1.10071        0.861599
