108
#Comment!
LJ          -2.52629        -2.28875          2.3723
LJ           -1.6513         -1.6419         2.51267
LJ          -2.28171        -1.57137        -1.69985
LJ          -1.74259        -2.49483        -1.68009
LJ           -0.6865         2.34765         2.48461
LJ        0.00382017        -1.88116        -2.53333
LJ          -1.14836        -1.57409        -1.73991
LJ        -0.0840824         2.28445         -1.8667
LJ          0.861023        -2.52947        -2.56336
LJ           1.70606        -1.66825         2.50449
LJ          0.854545        -1.88568         -1.6684
LJ           1.94332         2.45374        -1.82126
LJ           2.52583       -0.883546         2.32094
LJ          -1.77676       0.0736321        -2.56187
LJ           2.43777       0.0763882        -1.77865
LJ          -1.82377       -0.584331         -1.6775
LJ          -1.15135       -0.767837        -2.40675
LJ        -0.0161498       -0.200501        -2.42085
LJ          -1.02836        0.011801        -1.72671
LJ        -0.0183354        -1.03896        -1.75753
LJ          0.925181       -0.973201        -2.52334
LJ           1.57236      -0.0341786         2.54148
LJ           0.96564        0.126576         -1.7546
LJ           1.66115       -0.718806         -1.6728
LJ          -2.46985        0.962049        -2.54475
LJ           -1.7218         1.94112         2.36386
LJ          -2.52912         1.61285        -1.60879
LJ          -1.72599        0.832092        -1.81343
LJ         -0.515854        0.901724         -2.5259
LJ          0.168541         1.62546         2.38494
LJ          -1.19577         1.62548        -1.80743
LJ           0.12633         1.15428        -1.83634
LJ          0.913754        0.873014          2.5492
LJ           1.75381         1.72003         2.50304
LJ          0.993004         1.80054        -1.91382
LJ           1.72627         1.08864        -1.61955
LJ             2.553         2.39526       -0.736781
LJ          -1.47842        -1.79261       -0.826122
LJ          -2.28185        -1.79322      -0.0878232
LJ          -1.77369         2.48382       0.0958257
LJ         -0.630245        -2.47935        -1.04593
LJ         0.0764248         -1.5831       -0.841597
LJ         -0.812455        -2.06893      -0.0605555
LJ         -0.160236         2.31481       0.0955279
LJ          0.879426         -2.5239       -0.838073
LJ           2.03507        -1.70314       -0.958014
LJ          0.816375        -1.82497        0.343908
LJ            1.7084         2.48832      -0.0221902
LJ          -2.35781       -0.957441       -0.746205
LJ          -1.91927      0.00118037       -0.775454
LJ          -2.46284       0.0825111       0.0993989
LJ          -1.60483       -0.646368       0.0554274
LJ         -0.734203       -0.821853       -0.765026
LJ         -0.121525         0.07356        -1.04452
LJ         -0.744739       0.0113161      -0.0871288
LJ       -0.00512545       -0.642797       0.0231121
LJ           1.03096        -1.23868       -0.839776
LJ           1.92848        -0.10607       -0.585262
LJ          0.883995       0.0565121        0.150221
LJ           1.98578        -1.05421     -0.00340681
LJ           2.49584        0.955571       -0.823617
LJ          -1.62388         1.74414        -0.84664
LJ           2.33627         1.66394       -0.062834
LJ          -1.84586         1.01145        0.249829
LJ          -1.03815        0.669233       -0.826676
LJ         0.0618861         1.67227       -0.940702
LJ         -0.836942         1.50913       -0.276016
LJ        -0.0731751        0.894676       -0.236391
LJ           1.13867        0.820665       -0.793322
LJ           1.64301         1.71389       -0.753291
LJ          0.724817         1.86404       -0.204792
LJ            1.7463        0.824682      -0.0598674
LJ           2.40854         2.41645        0.729764
LJ          -1.30886        -1.82688        0.758757
LJ          -2.56332         -1.4405          1.5258
LJ           -1.9051        -2.38751         1.48594
LJ         -0.784599           2.499        0.914163
LJ         0.0167837        -1.50328         0.93705
LJ         -0.863464        -1.81754         1.88521
LJ         0.0918096        -2.38615         1.75257
LJ          0.681522         2.45247         1.04354
LJ           1.71196        -1.60394         0.91293
LJ          0.928333        -1.73183         1.63958
LJ            1.7548        -2.53654         1.59408
LJ          -2.48498        -0.73648         0.70189
LJ          -1.47236      -0.0201327        0.839828
LJ           2.42236     -0.00517799         1.70322
LJ          -1.78665       -0.721027         1.66739
LJ         -0.906991       -0.979357         1.08929
LJ          0.207258       -0.236901        0.976715
LJ          -1.00839        0.129191         1.83311
LJ           0.25066       -0.907734         1.77183
LJ          0.948614       -0.862829        0.713858
LJ           1.79784       -0.166422        0.678339
LJ          0.665116       0.0311465         1.99804
LJ           1.54828       -0.824896         1.69221
LJ           2.24775         0.84423        0.836692
LJ          -1.67306         1.89349         1.01095
LJ           2.42197         1.72053         1.59093
LJ          -1.84847        0.794836         1.41925
LJ         -0.774308        0.787599        0.583661
LJ          0.337836           1.516         0.80782
LJ          -1.03548         1.49031         1.59687
LJ         0.0380996         0.88578         1.53571
LJ           1.16843        0.680088          1.0104
LJ           1.47778         1.72947        0.659076
LJ          0.996068         1.54591          1.6828
LJ           1.76749        0.941863         1.91858
