108
#Comment!
LJ          -2.52336        -2.40819          2.5575
LJ          -1.71967        -1.68332         2.47094
LJ           2.48917        -1.64981        -1.73555
LJ          -1.70865        -2.35713        -1.79003
LJ         -0.771226        -2.54871         2.53766
LJ         0.0237699        -2.02331        -2.50881
LJ          -1.09159        -1.41736        -1.59545
LJ         0.0561244         2.21306        -1.70679
LJ           0.95441         2.35388        -2.53412
LJ            1.7132         -1.7815         2.50305
LJ           1.03674          -1.761        -1.71613
LJ           1.91387         2.42656        -1.61035
LJ           2.46502       -0.766668         2.54044
LJ          -1.82671       0.0721837         2.51367
LJ            2.5115        0.175918        -1.95467
LJ          -1.71181        -0.50045        -1.56644
LJ          -1.04973        -0.87574        -2.39541
LJ         0.0140629        -0.22269        -2.43883
LJ         -0.825342      0.00787244        -1.66221
LJ        -0.0949027        -1.01441        -1.90359
LJ           0.97907        -1.08361        -2.40999
LJ           1.68002       0.0295265        -2.49127
LJ          0.793899      -0.0138233        -1.80225
LJ             1.581       -0.733513        -1.72271
LJ          -2.48265         1.05219         2.50164
LJ          -1.79535         1.91747        -2.54229
LJ          -2.51686         1.65273        -1.65698
LJ          -1.53419        0.888322        -1.78773
LJ         -0.692364         1.15044         2.53313
LJ         0.0835762         1.82606         2.48281
LJ         -0.829444         1.69715        -1.65989
LJ          0.022697         1.05564        -1.74628
LJ           1.00338        0.905631        -2.53813
LJ           1.85478          1.8274         2.51132
LJ          0.922183         1.77597        -1.68649
LJ           1.78979        0.929563        -1.83781
LJ           2.43082         2.35342       -0.693989
LJ          -1.53928        -1.92277       -0.744867
LJ          -2.45605        -1.83819      -0.0771828
LJ          -1.75344         2.46357      -0.0336517
LJ         -0.718249        -2.50556        -1.03646
LJ          0.128602        -1.66928       -0.904541
LJ         -0.407299        -1.78434      -0.0122447
LJ          -0.31129         2.37861       0.0926612
LJ          0.797216        -2.53423       -0.933657
LJ            1.7129        -1.73781       -0.966056
LJ          0.646058        -2.11706       0.0939595
LJ           1.69737         -2.4326     -0.00255595
LJ          -2.45398       -0.891435       -0.649841
LJ          -1.84565       0.0433246       -0.727469
LJ           2.44966          0.1217       0.0292714
LJ           -1.5433        -0.94659       0.0278777
LJ         -0.608753       -0.879571       -0.759502
LJ        -0.0182145        0.270222       -0.987815
LJ         -0.963064        -0.10462       -0.102012
LJ       0.000304259       -0.711202        0.220145
LJ          0.881173        -1.01305         -0.7465
LJ           1.96808       -0.142681       -0.935004
LJ          0.691405       0.0250857      -0.0445955
LJ           1.61017       -0.914489      -0.0690308
LJ          -2.43636        0.915869       -0.974694
LJ           -1.5694         1.68742       -0.796667
LJ           2.47121         1.77625        0.135267
LJ          -1.96446          1.0153       0.0375369
LJ          -1.06241        0.690109       -0.884409
LJ         0.0152137         1.68372       -0.809078
LJ         -0.803651          1.5192       -0.161696
LJ        -0.0841702        0.865139       0.0876975
LJ          0.731985        0.969168       -0.667233
LJ           1.54489         1.61151       -0.924347
LJ          0.905397         2.01695      -0.0518022
LJ           1.69417        0.808461       -0.226331
LJ           2.46838         2.48115         0.86144
LJ          -1.42983         -1.7708          0.6563
LJ           2.49662        -1.60523           1.849
LJ          -2.04691        -2.56135         1.65123
LJ         -0.648988        -2.51013         1.12332
LJ          0.199368        -1.66313        0.971476
LJ         -0.878884         -1.7001         1.69309
LJ         0.0944964        -2.33543         1.71666
LJ          0.934265         2.37089        0.912991
LJ           1.94076        -1.50219        0.717387
LJ          0.995977        -1.79728         1.67905
LJ           1.73976        -2.56485         1.73159
LJ           2.54278       -0.666159        0.979834
LJ          -1.68455       -0.104205        0.884269
LJ          -2.56234      -0.0278699         1.84565
LJ           -1.7082       -0.864785         1.66884
LJ         -0.745972       -0.832144        0.991651
LJ         0.0294831      -0.0208555        0.984311
LJ         -0.856262        0.198798          1.9462
LJ           0.15689        -0.91983           1.914
LJ          0.999507        -1.04045        0.745964
LJ           1.68203       -0.155099        0.725572
LJ          0.876231     -0.00148067         1.86231
LJ           1.69119        -0.83713         1.67594
LJ           2.43639        0.887705        0.924421
LJ          -1.52778         1.90267        0.779718
LJ           2.42456         1.71731         1.61954
LJ          -1.72038        0.977533         1.51913
LJ         -0.903025        0.649935        0.834187
LJ          0.257147         1.45707        0.843594
LJ         -0.904258         1.60834         1.52764
LJ        -0.0492211            0.83         1.68311
LJ           1.01957        0.728609        0.821836
LJ           1.61849         1.70877        0.641751
LJ          0.867515         1.56317         1.78531
LJ           1.77991        0.808309         1.80238
