108
#Comment!
LJ           2.53184        -2.54834         2.53954
LJ          -1.75188        -1.71533         2.50363
LJ          -2.51361        -1.67179         -1.8227
LJ          -1.80572         2.50556        -1.61254
LJ         -0.883129         2.50368        -2.43464
LJ         0.0153677        -1.99006        -2.46439
LJ          -1.14123        -1.46874        -1.73809
LJ        -0.0394855         2.29769        -1.84017
LJ          0.785674         2.54618         2.44747
LJ           1.75753        -1.70226        -2.51615
LJ          0.799005        -1.97361        -1.78184
LJ           1.87461         2.50096        -1.69051
LJ           2.54175       -0.921014         2.53857
LJ          -1.79955       0.0664269         2.51832
LJ           2.48452        0.173288        -1.96441
LJ          -1.73044        -0.56302        -1.65976
LJ            -1.103       -0.762438        -2.42117
LJ        -0.0627114       -0.264045        -2.40328
LJ         -0.826665       0.0167664        -1.83581
LJ         -0.179223        -1.20679        -1.86929
LJ          0.880595        -1.20499        -2.50091
LJ           1.74414       0.0141495         2.53109
LJ          0.865622       0.0602132        -1.79994
LJ           1.64519       -0.567319        -1.77598
LJ          -2.56057        0.919726         2.48554
LJ          -1.67817         1.92063         2.46327
LJ          -2.37548         1.62595        -1.65191
LJ          -1.63007         0.79466        -1.84042
LJ         -0.623715        0.949206         2.47567
LJ         0.0743249         1.68993         2.40362
LJ          -1.09965         1.59631        -1.77319
LJ         0.0540069          1.1038        -1.76424
LJ          0.912033        0.800895         2.46478
LJ           1.79971         1.89089         2.44767
LJ          0.920536         1.97051        -1.72517
LJ           1.58678         0.93877        -1.64319
LJ           2.51367         2.44115       -0.788751
LJ          -1.42357        -1.69608       -0.762543
LJ          -2.42818        -1.89253       -0.122782
LJ          -1.63693         2.47713      -0.0773189
LJ         -0.806694         2.55572        -1.08751
LJ          0.093305          -1.681       -0.813707
LJ         -0.661487        -1.92524       0.0228787
LJ         -0.137487         2.33529       0.0339032
LJ          0.797625        -2.46399       -0.907551
LJ           1.85947         -1.7697        -1.01463
LJ          0.808017        -2.03017        0.221106
LJ           1.69878        -2.38417      -0.0966616
LJ          -2.44754       -0.958073       -0.737882
LJ          -1.89961        0.127243       -0.811137
LJ          -2.48762       0.0998516     -0.00674034
LJ          -1.76467       -0.911693        0.116152
LJ         -0.536105       -0.821809       -0.660334
LJ         -0.121783        0.326819       -0.934422
LJ          -0.65527     -0.00443793       0.0788078
LJ        -0.0325267       -0.836491        0.294104
LJ          0.785893       -0.898886       -0.679508
LJ           1.94781       -0.137107       -0.690121
LJ          0.640403      -0.0319367      -0.0258218
LJ           1.77444        -1.18702       -0.171256
LJ            2.5469         0.95229       -0.822048
LJ          -1.59766         1.80529        -0.79054
LJ           2.44534         1.67432      -0.0344722
LJ          -1.91763         1.10012        0.251444
LJ          -1.08886        0.771783       -0.860927
LJ          0.135759         1.76806       -0.829868
LJ         -0.719605         1.53296      -0.0633614
LJ          0.118413        0.914635      -0.0451082
LJ          0.814081        0.933853       -0.764689
LJ           1.68888         1.70651       -0.871009
LJ          0.768175         2.04814      -0.0743268
LJ           1.75506        0.850445      -0.0931697
LJ           2.41561         2.38014        0.768091
LJ          -1.38891        -1.80623        0.652375
LJ           2.46615        -1.54467         1.71747
LJ          -2.05627        -2.33904         1.46868
LJ         -0.635195         2.43382          1.1196
LJ         0.0659674        -1.62062        0.940634
LJ         -0.984604        -1.81819         1.78473
LJ         0.0592272        -2.33179         1.76766
LJ          0.846308         2.40365        0.941624
LJ           1.98618        -1.63769        0.788261
LJ           1.00378        -1.75789         1.77259
LJ           1.65152           2.505          1.6344
LJ           2.46188       -0.692273        0.992257
LJ           -1.7498       0.0971196        0.799519
LJ           2.50427       -0.016118         1.75731
LJ          -1.86668        -0.75848         1.78134
LJ         -0.674975       -0.953805        0.990935
LJ        -0.0138665        -0.12791         1.09196
LJ         -0.879019        0.145997         1.91459
LJ          0.212895        -1.03426         1.84525
LJ           1.06602        -1.02032        0.707905
LJ           1.57016       -0.079081        0.719534
LJ          0.841462       0.0128617         1.91163
LJ           1.61081       -0.772757         1.89647
LJ           2.34476        0.874356        0.826902
LJ          -1.57447         1.85162        0.856314
LJ           2.45095          1.5413         1.56708
LJ          -1.79831        0.978814         1.58164
LJ         -0.940673         0.73482        0.888899
LJ          0.192319         1.43663        0.812338
LJ          -0.76822          1.4783          1.5454
LJ         0.0760842        0.752991         1.59415
LJ           1.08335         0.75373        0.910487
LJ           1.57244         1.74229        0.535625
LJ          0.816052          1.5398         1.61857
LJ           1.68172        0.855854         1.74996
