108
#Comment!
LJ         -0.463308        -2.22765        -1.79481
LJ           2.27806       -0.614334        0.493276
LJ         -0.131415        0.828606       -0.228471
LJ          -2.36637         2.07069         1.20809
LJ           1.92312         -1.8211        -1.41713
LJ           1.03132         2.48751         1.68395
LJ         -0.924884       -0.133679       -0.351409
LJ          -1.24343      -0.0513961         1.97897
LJ          -1.18663        -2.29369        -0.87773
LJ          0.185201         2.04903        -1.85585
LJ          -1.82506        -1.27715        0.107332
LJ         -0.546301        0.748551         2.00225
LJ         -0.638852         1.58717       -0.825577
LJ           2.55558        0.437906        -1.90375
LJ           1.15911        -1.25472        -1.83811
LJ           1.27242       -0.772468        0.389251
LJ          0.978328         2.06524       -0.835198
LJ          0.604104       0.0512743        -1.85789
LJ          -2.03057         2.22664         2.44709
LJ           0.25999        0.887109         -2.4311
LJ          0.401219        -1.68702        -1.24669
LJ          -1.67378         1.03655        -2.53463
LJ          -1.37592       0.0557881        -1.43307
LJ          0.580332        0.941121         1.76728
LJ            1.2583         1.42364        -1.85716
LJ           2.34982         1.88747        0.104933
LJ           2.13654        -2.51904         1.96203
LJ          -1.07617        -1.11063       -0.709162
LJ          0.887283         1.73042         2.39194
LJ          0.887004        -1.65575        0.474637
LJ         -0.404622        0.914249        0.978815
LJ         -0.531617         1.71372        0.349259
LJ          -0.75772        -2.53463       0.0120091
LJ            -1.882       -0.143118       -0.182179
LJ          -1.85507        -1.77066         2.00134
LJ          -2.41469        0.367916         2.20155
LJ          -1.99145        -2.36235      -0.0327357
LJ           1.78165     -0.00015282         1.91014
LJ          -1.40523        -1.73659        -2.05072
LJ          0.172164        -1.32408         1.38514
LJ         -0.908249        -1.40019         1.61226
LJ          -1.06654       -0.598627        0.836046
LJ          -2.03275         1.88418       -0.531019
LJ           1.30066         2.53053        0.293366
LJ            1.1543        -1.91356       -0.624939
LJ          -0.13326        -1.70404       -0.112368
LJ          -0.26881       -0.818859        -1.57858
LJ           1.82355         1.94177         1.17738
LJ           1.23514       -0.515435        -1.16477
LJ           2.30572         1.02982        0.700536
LJ         -0.315869       -0.241835         1.43508
LJ          -2.16975        -1.82886        0.942004
LJ          -1.15275           1.777         1.56133
LJ          -1.22968         2.09578        -1.93348
LJ         -0.990091        -1.70962        0.617403
LJ           2.49893        -1.99612        -2.28156
LJ          -2.27366         2.50854        -1.45937
LJ         -0.361727        0.414376        -1.25096
LJ          -2.01348       -0.779531         1.18393
LJ          -1.39279         0.49291        0.862403
LJ           1.83569        -2.09956         1.04911
LJ           1.77994        -1.38345        -2.53399
LJ           1.47568        0.688479         1.12396
LJ           2.23871         0.17136       -0.470469
LJ          -1.92135         1.20178         1.58181
LJ           1.20812          -1.622         1.64113
LJ         -0.720996        -1.07787        -2.46637
LJ         -0.107172         1.83259         1.90055
LJ           2.09594          2.4711       -0.652433
LJ          0.855842        0.468136       -0.822471
LJ           2.49018          1.6439        -1.39174
LJ           2.03998        -1.72641       0.0726299
LJ          -2.40167        0.207551        0.942935
LJ          0.355668         2.17541      -0.0536607
LJ          -1.55678         1.22425        -1.38238
LJ           1.28132         1.31193        0.227478
LJ          0.493022       -0.100574         2.19608
LJ        0.00496563        -0.84042         0.49112
LJ          -2.45636       -0.607565         2.25639
LJ           1.93679       -0.582175        -1.89503
LJ           2.19188        -0.98866       -0.702968
LJ         -0.412184       0.0590435        -2.36602
LJ          -1.63485         1.68419        0.426787
LJ           0.72254       -0.248163         1.13118
LJ          0.310049         1.36252        -1.06589
LJ          -1.00988         2.43958         2.30482
LJ          -2.29712        0.960703       -0.214713
LJ           2.03007       -0.914103         1.38068
LJ           1.34209        -2.53369        -1.81053
LJ         -0.312642        0.115384        0.423286
LJ         0.0399412        -2.19964        0.749984
LJ           2.09641         1.91605        -2.41619
LJ          0.757467        -2.13589         2.50856
LJ          0.619552         1.72366         1.08113
LJ          0.624257        -1.02264         2.53704
LJ          -1.23248        0.885626       -0.262557
LJ         -0.530523         1.28031        -1.80549
LJ          0.581033        0.653796        0.659535
LJ          0.506595       -0.333975       -0.252255
LJ           1.78524        0.422426        -1.35235
LJ          -1.38668        -2.47443         1.16109
LJ           1.96008         1.23252       -0.706395
LJ         -0.242818        -2.02338         2.16673
LJ           1.43958        0.397927         -2.3474
LJ          -1.86523       -0.925002        -2.05048
LJ           2.01267         1.23491         1.86777
LJ         -0.141396         2.47979       -0.874235
LJ          -2.17581         -1.5563        -0.96407
