108
#Comment!
LJ           2.53232        -2.56191         2.54051
LJ          -1.71631        -1.81318         2.54601
LJ          -2.50112        -1.78959        -1.74961
LJ          -1.83995        -2.54154           -1.72
LJ         -0.899741          2.4826         2.47184
LJ         -0.199637        -1.79475        -2.48166
LJ         -0.819813        -1.63999        -1.50695
LJ        0.00332976        -2.49966         -1.5876
LJ          0.948043         2.48079         2.45062
LJ           1.66154        -1.74663        -2.53759
LJ          0.873079        -1.54699        -1.57191
LJ           1.86795        -2.50362        -1.72741
LJ           2.39564       -0.872611           2.495
LJ          -1.60726       0.0107479         2.49091
LJ           2.48717     -0.00300055        -1.72324
LJ           -1.6859       -0.922478        -1.64853
LJ          -1.03077       -0.947644        -2.56352
LJ         0.0817143        -0.14557         2.53065
LJ         -0.889002        0.109592         -1.7046
LJ        0.00991922       -0.892843        -1.68653
LJ          0.802022        -1.00688        -2.55496
LJ           1.80408        0.120348        -2.54033
LJ          0.755296        0.154867        -1.70376
LJ           1.71813       -0.884799        -1.62889
LJ             2.514        0.859216         2.53611
LJ          -1.76028         1.69836         2.55486
LJ          -2.47268         1.57356        -1.77987
LJ          -1.79603        0.877863        -1.64565
LJ         -0.806445         1.00536          2.4092
LJ          0.141845         1.63969         2.39505
LJ         -0.840786         1.77151        -1.65579
LJ         -0.058661        0.867431         -1.8331
LJ          0.872049        0.944404        -2.40071
LJ           1.77144         1.78104        -2.55663
LJ           1.07307         1.76383        -1.75665
LJ           1.71453        0.813225        -1.65579
LJ          -2.54917        -2.44174        -0.88206
LJ          -1.57747        -1.77807       -0.754778
LJ           2.49941        -1.77334        -0.04553
LJ          -1.65097         2.47412        0.068931
LJ         -0.797536         2.56327       -0.862349
LJ        -0.0458527        -1.69285       -0.896524
LJ         -0.903102        -1.70382        0.134313
LJ        -0.0625758         2.48086      -0.0258395
LJ          0.888279         2.54073       -0.809299
LJ           1.65296        -1.79552       -0.770021
LJ          0.692694        -1.92562        0.153903
LJ           1.65722        -2.52243      -0.0774096
LJ          -2.52774       -0.826854       -0.804675
LJ          -1.86043        0.122781       -0.858438
LJ            2.4142      -0.0185067       0.0100889
LJ          -1.68012       -0.880407      -0.0104718
LJ          -0.92283       -0.711772       -0.793239
LJ        -0.0779127        -0.10479       -0.893203
LJ         -0.883043       -0.080097      0.00396935
LJ        -0.0407324       -0.715433       0.0447708
LJ          0.880905       -0.810099        -0.82259
LJ           1.67041       -0.126853       -0.884602
LJ          0.952814      -0.0370132      -0.0939988
LJ           1.72079       -0.985342       -0.207734
LJ          -2.46536        0.927712       -0.814132
LJ          -1.78068         1.75802       -0.923948
LJ          -2.54872          1.6995       0.0720214
LJ             -1.68        0.886818        0.130374
LJ         -0.836906        0.757712        -0.63182
LJ         -0.108456         1.74338       -0.926401
LJ         -0.951989         1.73641       -0.106428
LJ        -0.0824305        0.948026       0.0551813
LJ           0.73638         0.94162       -0.856759
LJ           1.68435         1.83609       -0.873696
LJ          0.677738          1.6744       -0.189202
LJ            1.7178        0.780455       0.0514526
LJ           2.53413         2.52399        0.960797
LJ          -1.62372        -1.73893         1.05485
LJ           2.40074        -1.67326         1.78809
LJ          -1.84407        -2.50819         1.71794
LJ          -0.85249         2.38779        0.836247
LJ         0.0948154        -1.76138        0.959329
LJ          -0.86349         -1.6376         1.81138
LJ        0.00134228        -2.48089         1.84177
LJ           1.06286          2.4623        0.892013
LJ           1.73354        -1.84939        0.805022
LJ          0.998339        -1.70857         1.59005
LJ           1.74462        -2.49244          1.7229
LJ           2.43958       -0.678942        0.977807
LJ          -1.72961      -0.0532831        0.797171
LJ          -2.53342       -0.004505         1.87184
LJ          -1.70164        -0.92799         1.81886
LJ         -0.822347       -0.909936        0.819508
LJ         0.0798685      -0.0164297        0.837872
LJ          -0.72455     -0.00458885         1.65074
LJ       -0.00023711       -0.935786         1.62016
LJ          0.813558       -0.897887        0.900394
LJ           1.66614       -0.112672        0.767857
LJ          0.822505       -0.114392         1.66858
LJ            1.7517       -0.832297         1.74552
LJ            2.5339         0.94409        0.800876
LJ          -1.74899         1.71287        0.834241
LJ          -2.55052         1.72807         1.82459
LJ           -1.6331        0.731001         1.77191
LJ         -0.866938        0.702946        0.832799
LJ        -0.0337088         1.59035         0.88566
LJ         -0.841333         1.73498         1.69612
LJ         0.0458658        0.794888         1.48734
LJ           0.87199        0.712036        0.759599
LJ           1.74043         1.62905        0.780403
LJ          0.840827         1.62521           1.674
LJ           1.70655          1.0028         1.66673
