108
#Comment!
LJ         -0.979921         -1.5884         2.14467
LJ         -0.294058        0.220605         1.76643
LJ            1.8665         1.52004        -2.12272
LJ           1.77353         2.46634         2.53838
LJ         0.0562636          1.0385      -0.0381848
LJ          -2.18482        0.821626        -2.27014
LJ         -0.448533       -0.594768         2.45051
LJ           1.93499       -0.857079        -0.87547
LJ           1.95366        0.505062        0.878644
LJ          0.989469         2.43392        0.193444
LJ         -0.573837        -2.15231       0.0806069
LJ           1.17634       -0.340355        -1.73575
LJ          -1.05751         2.10104        -2.41179
LJ          -1.49771       -0.587143        0.733635
LJ          0.450326        -2.34101       -0.981289
LJ          -2.10182         1.92015        0.766298
LJ          -1.52798       -0.352592        -2.24384
LJ          0.893841        0.804894         1.46071
LJ          0.195043       -0.980381        -1.44295
LJ          0.266605        -2.56349         1.15789
LJ          -1.93548        -1.36741        -2.46712
LJ          0.220339        0.375227        0.765186
LJ           2.35371        0.232065       -0.632762
LJ        -0.0371288         2.07181        0.339372
LJ          -1.50112       -0.601635         1.93998
LJ           1.29095        -1.55853         1.18565
LJ           1.90922         1.67764        0.527458
LJ          -1.64132        -2.52409         2.10155
LJ           1.37581         2.51605         1.27944
LJ          -1.64668        -1.88677       -0.697289
LJ          -1.59628          2.5229        0.168193
LJ          -1.75919      -0.0804624       -0.402189
LJ           1.77925         1.50563         1.87036
LJ          0.592218        -1.00435         2.50244
LJ           1.22633        0.344893         2.47827
LJ           -2.5004         1.41778       -0.195802
LJ        -0.0532833        -1.88551        -2.00407
LJ          0.555677         1.76202         1.86387
LJ          -2.54395       -0.636206        0.122787
LJ         -0.635259        0.828992       -0.919232
LJ          0.208236        0.273136        -1.83204
LJ           2.38916         1.14174        -1.22102
LJ           2.12024         2.43005        -1.56888
LJ         -0.771402        0.415928        -2.29062
LJ          -2.39472      -0.0443077         1.42194
LJ         -0.507388         1.27207         2.16806
LJ          -1.69436        -2.41063        -1.87962
LJ          -1.95884         1.68636         2.39586
LJ           2.44969     -0.00223788         -1.7682
LJ        -0.0380923        -1.39004         1.72673
LJ          0.220553        -1.23075        0.832885
LJ         -0.799621         2.23351         1.04896
LJ          0.975767       -0.698477       -0.637917
LJ           1.13041        0.478009       -0.300476
LJ          0.491418          1.8766        -0.54666
LJ           2.50939          2.4797      -0.0505802
LJ         -0.591534        -1.95709       -0.952506
LJ           1.69152       -0.311955         1.56967
LJ          -1.79388        -1.50598         1.51054
LJ         -0.780332       -0.481659        -1.54505
LJ           1.99218         -1.8244         1.97531
LJ        -0.0134692         1.31847         1.14784
LJ           1.09854         2.06344        -1.41269
LJ          -1.01875        0.298259         1.10956
LJ          -1.92272         -1.6728        0.444547
LJ          -1.80384         2.07713       -0.694606
LJ           0.67865         1.14753        -2.36078
LJ          -0.96172        -1.55261        -1.79912
LJ           1.41139        -1.70367        -2.26656
LJ          -1.64193          1.6003        -1.57691
LJ         -0.919313         1.24672        0.501304
LJ           2.07671        -1.54121       0.0150429
LJ          0.893516        -1.50679       0.0188476
LJ          0.754611         1.18843        -1.31271
LJ           2.20677       -0.993344         1.04202
LJ           1.55609         0.63541        -1.66229
LJ           1.64178         1.45702       -0.531109
LJ           -2.4486        -2.31932         1.10326
LJ          -2.08857        0.924405        0.583122
LJ           1.58067       -0.775909         2.46182
LJ          -1.57034        0.522739         1.95227
LJ          -2.37155         1.10682         1.54959
LJ          0.274049        0.299297       -0.687521
LJ         0.0527542       -0.500836        0.150304
LJ           1.25779        -1.54839        -1.22252
LJ         -0.790897          2.2507        -1.45995
LJ          0.504269         2.24079        -2.25478
LJ          0.739812        -2.25502         2.03223
LJ       -0.00900038        -1.30004       -0.448523
LJ          -1.97476       -0.818378        -1.43056
LJ         -0.789615        -1.78938         1.20806
LJ         -0.680963        0.178388       -0.182659
LJ           0.49249       -0.534036         1.48512
LJ          -1.73217        0.501458        -1.30925
LJ         -0.526509         1.81574       -0.584629
LJ           1.35853       -0.500832        0.487005
LJ           1.43409        -2.33513       -0.628838
LJ           2.27874        -1.14347         -2.0164
LJ          0.939774         1.15721        0.492124
LJ          -0.59452       -0.679995         1.11399
LJ          -2.40987        -0.52315         2.42788
LJ         -0.346265         2.55643         2.19216
LJ          -1.11608        -1.20133       -0.233673
LJ           2.54078         2.11169         1.73287
LJ          -1.33579         1.45638         1.56736
LJ          -2.56093        -1.77003        -1.15308
LJ         -0.316698         1.47403        -1.88077
LJ           2.12244        0.550347         2.05205
