108
#Comment!
LJ           2.47507        -2.52719         2.44234
LJ          -1.79347        -1.77854         2.42989
LJ          -2.48906        -1.69186        -1.51256
LJ          -1.78762        -2.49146        -1.86567
LJ          -1.02306         2.44046         2.48369
LJ        -0.0744512        -1.99069        -2.51278
LJ         -0.899224        -1.51705         -1.6453
LJ          0.100472         2.33114        -1.64315
LJ          0.969621         2.47178        -2.37214
LJ           1.77586        -1.67035         2.50577
LJ           0.92992        -1.63803        -1.61191
LJ           2.01956        -2.51065         -1.5557
LJ           2.49773       -0.829514         -2.4858
LJ          -1.82396       0.0436018         2.46256
LJ           -2.4772        0.123931        -1.72365
LJ          -1.66996       -0.628748        -1.32561
LJ          -1.13789       -0.906787        -2.50469
LJ         -0.124674       -0.191997        -2.50691
LJ         -0.815445       0.0995038        -1.79745
LJ        -0.0521224       -0.947663        -1.73882
LJ           1.00486        -1.06673        -2.43038
LJ           1.67012        0.079367         2.56291
LJ          0.769264      -0.0294672        -1.56117
LJ           1.76121       -0.847156        -1.70487
LJ          -2.52129         1.03481         2.36296
LJ          -1.75959         1.84673          2.5589
LJ          -2.52963         1.68798        -1.79856
LJ          -1.69427        0.960809        -1.91126
LJ          -0.75256         1.04182         2.55586
LJ         0.0605466         1.84512         2.50879
LJ         -0.758529         1.66851        -1.77232
LJ         0.0406249        0.852652        -1.89193
LJ          0.861897        0.840562        -2.45912
LJ           1.83174         1.86394         2.44512
LJ           0.94322         1.73859        -1.52987
LJ           1.83558        0.813308        -1.74924
LJ          -2.45502         2.42378       -0.671583
LJ          -1.52648        -1.82969       -0.595902
LJ            2.5012        -1.73938      -0.0847039
LJ          -1.60442         2.39848       -0.110545
LJ         -0.770166         2.46234       -0.934188
LJ         0.0564499        -1.72227       -0.880673
LJ         -0.667345        -1.83533       0.0995028
LJ         -0.227869         2.35786      -0.0234402
LJ          0.867655        -2.48034       -0.873692
LJ           1.79002        -1.63238       -0.897378
LJ          0.725456        -1.98952       0.0998437
LJ           1.62049        -2.35376       -0.132134
LJ          -2.55232        -0.87085       -0.761154
LJ          -1.80679        0.177681       -0.728302
LJ           2.41417       -0.041301       0.0546567
LJ          -1.72797       -0.864321       0.0434335
LJ          -0.66753       -0.799502       -0.828144
LJ        0.00162526        0.237851       -0.948234
LJ         -0.747829       -0.131839      -0.0977827
LJ         0.0426962       -0.775259        0.167975
LJ          0.827907       -0.826065       -0.750248
LJ           1.77051        -0.11375       -0.856989
LJ          0.735339       0.0241506      -0.0657483
LJ           1.61069       -0.944808       -0.100618
LJ          -2.44556        0.995878       -0.890976
LJ          -1.65323         1.72176        -1.08961
LJ          -2.55013         1.59998        0.069458
LJ          -1.92841         0.81901       0.0763555
LJ          -1.00424        0.746512       -0.811683
LJ         -0.101501         1.55558       -0.837672
LJ         -0.814555         1.50768      -0.0522832
LJ         0.0831204        0.982957        0.041235
LJ          0.849111          1.0612       -0.732829
LJ           1.79113         1.65409       -0.979137
LJ          0.850669         1.94255       0.0388803
LJ           1.77231        0.856486       -0.117622
LJ           2.39033        -2.51088        0.848426
LJ          -1.51539         -1.6577        0.760835
LJ          -2.56213        -1.44478         1.76102
LJ          -2.02626         2.51683         1.53812
LJ         -0.716907        -2.47448        0.993308
LJ          0.120704         -1.8024        0.965952
LJ         -0.972137        -1.68139           1.734
LJ         0.0690357        -2.39868         1.70511
LJ           1.09363        -2.55745        0.938631
LJ           1.72513        -1.45591        0.780744
LJ          0.858817         -1.6511         1.67278
LJ           1.54647        -2.46176         1.82362
LJ          -2.55979       -0.573015         1.08006
LJ          -1.81411        0.014023        0.863355
LJ           2.52877        0.116511         1.84524
LJ           -1.6638       -0.897795         1.52565
LJ         -0.766042       -0.898297        0.914885
LJ          0.121977      -0.0985502          1.0511
LJ         -0.848979        0.200068         2.08174
LJ           0.15386       -0.931224         1.60087
LJ          0.977824       -0.832164        0.850218
LJ           1.57768       -0.116904        0.549159
LJ          0.730313       -0.125775         1.87506
LJ           1.70541       -0.810633          1.7409
LJ           2.44272        0.687831        0.708858
LJ          -1.45982         1.95739        0.822074
LJ           2.54568         1.63203         1.44637
LJ          -1.49488        0.880371         1.59503
LJ         -0.866826        0.752837        0.670078
LJ          0.122972         1.67601        0.943583
LJ         -0.807361         1.67558         1.46262
LJ          0.029846        0.889103         1.64557
LJ          0.804269        0.645842        0.933509
LJ           1.81135         1.68694        0.770438
LJ          0.964643         1.68828         1.72384
LJ           1.72203        0.748178         1.60616
