108
#Comment!
LJ           2.54706         -2.5047         2.54599
LJ          -1.72754        -1.88032        -2.56262
LJ          -2.46906        -1.69416        -1.70723
LJ           -1.8141        -2.54904        -1.71932
LJ         -0.891769         2.39573         2.47561
LJ         -0.215319        -1.79848        -2.52727
LJ         -0.856124        -1.65031        -1.55131
LJ         0.0192466        -2.55709        -1.70153
LJ          0.891732         2.47921          2.5396
LJ           1.63193         -1.8196        -2.52526
LJ          0.890751        -1.55464        -1.66501
LJ           1.92217        -2.48181        -1.73303
LJ           2.42409       -0.860886        -2.55218
LJ          -1.55189       0.0732709          2.5483
LJ           2.54858        0.063892        -1.79551
LJ           -1.7974       -0.915262        -1.72004
LJ          -1.13688       -0.897306         2.56211
LJ         0.0374112       -0.141088         2.49549
LJ          -0.88742        0.113468        -1.70218
LJ          0.023825       -0.882828        -1.70649
LJ          0.884275       -0.991264        -2.50705
LJ           1.83375        0.146305        -2.54675
LJ          0.766897        0.188524        -1.68199
LJ           1.64333       -0.863125        -1.68553
LJ           2.56159        0.832045         2.55878
LJ          -1.76157         1.75086         2.54568
LJ          -2.51305         1.56584        -1.77592
LJ          -1.78296        0.926901          -1.657
LJ          -0.72553        0.943135         2.26802
LJ          0.195073          1.7354         2.42501
LJ         -0.842809         1.66814        -1.63062
LJ        -0.0538911        0.858211        -1.87049
LJ          0.822671        0.912993         -2.3621
LJ           1.79039         1.73576        -2.44094
LJ           1.02028         1.84666        -1.61805
LJ           1.74064        0.893693        -1.68963
LJ          -2.49494        -2.46138       -0.849908
LJ          -1.48549        -1.67506       -0.728982
LJ           2.49674        -1.76232     -0.00683298
LJ          -1.61836        -2.55594       0.0154716
LJ         -0.743535         2.55384       -0.862535
LJ        -0.0567035        -1.73586       -0.906782
LJ         -0.890004        -1.72401        0.110285
LJ        -0.0821742          2.4288     -0.00987463
LJ          0.825767         2.55559       -0.852122
LJ           1.59506         -1.8197        -0.78288
LJ          0.748313        -1.79909        0.171689
LJ           1.63406        -2.54605       -0.059257
LJ          -2.50963       -0.859689       -0.832421
LJ          -1.94086        0.207877       -0.787683
LJ           2.43267      -0.0172743      -0.0712163
LJ          -1.70565       -0.903289      -0.0677935
LJ         -0.878218       -0.754685       -0.848895
LJ        -0.0571516      0.00303873       -0.842666
LJ         -0.892885      0.00937211      -0.0350672
LJ         -0.048265       -0.696014       0.0155174
LJ          0.868917       -0.875498       -0.724047
LJ           1.68904       -0.182187       -0.819299
LJ           0.95935      -0.0688615       -0.137594
LJ           1.70459       -0.992416      -0.0872792
LJ          -2.47389          1.0581       -0.852856
LJ          -1.72036         1.75444       -0.989999
LJ          -2.52486         1.78969       0.0774451
LJ          -1.70428          0.9463        0.119013
LJ         -0.886889        0.795781       -0.688471
LJ          -0.12896         1.71636       -0.995068
LJ         -0.877292         1.76331       -0.195342
LJ        -0.0818831        0.959809       0.0191781
LJ          0.686176        0.872702       -0.840182
LJ           1.73597          1.8611       -0.885633
LJ          0.681655         1.75141       -0.146823
LJ           1.70974        0.769168       0.0373866
LJ            2.5222         2.54976        0.983935
LJ          -1.63539        -1.74989        0.926131
LJ           2.32754        -1.70115         1.70642
LJ          -1.87043         2.54198         1.65145
LJ         -0.830865         2.45745         0.77062
LJ         0.0501411        -1.72199        0.903398
LJ         -0.863105        -1.70233         1.73494
LJ         0.0766285        -2.50179         1.88393
LJ            1.0514         2.43623         1.00432
LJ           1.65314        -1.79951        0.844554
LJ          0.929846        -1.58983         1.66762
LJ           1.64827        -2.53711         1.74655
LJ           2.43999       -0.577794        0.882047
LJ          -1.74878      -0.0183498        0.808599
LJ          -2.50068      -0.0388255         1.99808
LJ          -1.75862        -0.85465         1.73151
LJ         -0.710732       -0.875528        0.820011
LJ         0.0649882      -0.0439023         0.82008
LJ         -0.664268       0.0388279         1.72619
LJ        -0.0189058       -0.904232         1.62002
LJ          0.729125       -0.955253        0.733567
LJ           1.65253      -0.0525247        0.736252
LJ          0.882077        -0.13719          1.7413
LJ           1.70668       -0.851791         1.73685
LJ           2.46675        0.919258         0.80885
LJ          -1.78172         1.75481        0.806227
LJ          -2.56478         1.71114          1.7774
LJ          -1.72424        0.761259         1.71092
LJ          -0.90491        0.665397        0.835708
LJ       -0.00459369         1.57777        0.960583
LJ         -0.808589         1.71144         1.65555
LJ        -0.0120498        0.789254         1.54573
LJ          0.880828         0.76913        0.794003
LJ           1.76979         1.75802        0.740928
LJ          0.809506         1.58999         1.69558
LJ           1.66286         1.04952         1.61921
