108
#Comment!
LJ          -2.53224        -2.29858          2.3918
LJ          -1.64462        -1.63716         2.51605
LJ          -2.28539        -1.58648        -1.70066
LJ          -1.74186        -2.49177        -1.69746
LJ         -0.739019         2.33796         2.46662
LJ       -0.00101666        -1.85776        -2.51843
LJ          -1.14718        -1.52781        -1.77606
LJ        -0.0709793          2.2689        -1.85761
LJ          0.848523        -2.51359         2.54768
LJ           1.70237        -1.67075         2.49673
LJ          0.882359        -1.85106        -1.68374
LJ             1.918         2.46278        -1.80747
LJ           2.53981       -0.905573         2.33615
LJ          -1.80249       0.0333427         -2.5226
LJ           2.46847       0.0810662        -1.79221
LJ          -1.83364       -0.594201         -1.6889
LJ          -1.14946       -0.790639        -2.40395
LJ       -0.00410031       -0.208852        -2.43482
LJ           -1.0196       0.0229195         -1.7127
LJ       -0.00584192        -1.05528         -1.7549
LJ          0.922282       -0.994399        -2.51243
LJ           1.54977      -0.0295607        -2.55911
LJ          0.982083        0.138515        -1.73572
LJ           1.63395       -0.704604        -1.69359
LJ          -2.47825        0.987827        -2.54094
LJ          -1.73934         1.96784         2.36349
LJ          -2.50206         1.62404        -1.59539
LJ          -1.77518          0.8392        -1.83465
LJ         -0.501153        0.919326          2.5354
LJ          0.145867         1.65491         2.40989
LJ          -1.21177         1.63179         -1.8404
LJ          0.116404         1.15633        -1.84431
LJ          0.932601        0.922396        -2.54352
LJ           1.76134         1.74805         2.52729
LJ          0.971658         1.79009        -1.91477
LJ           1.72689         1.05503        -1.65131
LJ           -2.5526         2.39489       -0.760249
LJ          -1.46713        -1.77938       -0.806448
LJ          -2.24581        -1.80291      -0.0852813
LJ          -1.78907         2.46206        0.121325
LJ         -0.615582        -2.46663        -1.03721
LJ         0.0992681          -1.591       -0.864124
LJ         -0.825574        -2.05256      -0.0681284
LJ         -0.144388         2.31586        0.107235
LJ          0.864305        -2.54623       -0.837699
LJ           2.03292        -1.68045       -0.950668
LJ          0.801609        -1.83375        0.339585
LJ           1.72421         2.53281      -0.0434419
LJ          -2.35787       -0.972576       -0.749317
LJ           -1.9063      -0.0411985       -0.811801
LJ          -2.46247       0.0846997       0.0866395
LJ          -1.59072       -0.632846        0.076748
LJ         -0.747565       -0.809239       -0.774557
LJ         -0.118109       0.0612487        -1.06266
LJ         -0.735694      0.00425319      -0.0905562
LJ       -0.00347947       -0.636662       0.0217499
LJ           1.03345         -1.2223       -0.829707
LJ            1.9139       -0.108793       -0.602943
LJ          0.885392       0.0769917        0.122347
LJ           1.98509        -1.06676       0.0211392
LJ           2.48272         0.91318       -0.814205
LJ          -1.61142         1.76929       -0.872452
LJ           2.35611         1.69952      -0.0575392
LJ          -1.82135        0.998444        0.258535
LJ          -1.05957        0.688695        -0.83068
LJ         0.0518321         1.67983       -0.930677
LJ         -0.841095         1.47456       -0.258071
LJ        -0.0961953        0.880218       -0.226875
LJ           1.13846        0.834345        -0.81684
LJ           1.63273         1.70378       -0.739906
LJ          0.729765         1.89628        -0.20052
LJ            1.7273        0.814307      -0.0561371
LJ           2.42691          2.4238         0.71115
LJ          -1.29356        -1.83239        0.728865
LJ          -2.54737        -1.44266         1.53562
LJ           -1.9236        -2.37241         1.46323
LJ         -0.801406         2.48567        0.934091
LJ         0.0390986        -1.49959        0.975676
LJ         -0.862475        -1.82277         1.90578
LJ         0.0876783        -2.35937         1.75525
LJ          0.669468         2.45988         1.05953
LJ           1.70446        -1.58867        0.896149
LJ          0.913391        -1.74601         1.63512
LJ           1.77084        -2.54465         1.57476
LJ          -2.47245         -0.7276         0.74496
LJ          -1.48282      -0.0391804        0.834211
LJ           2.45774      -0.0304946         1.67716
LJ          -1.77815       -0.708317         1.66873
LJ         -0.870087          -0.944         1.06091
LJ          0.203348       -0.236831         1.00778
LJ         -0.991843        0.120813         1.82969
LJ          0.227062       -0.910175         1.78696
LJ          0.939353       -0.878033         0.72695
LJ           1.81633       -0.159282        0.703162
LJ          0.690222       0.0606787         1.98229
LJ           1.55234       -0.840519         1.68298
LJ           2.19171        0.841552        0.844308
LJ          -1.66018         1.88424        0.993112
LJ           2.38598         1.72475         1.59466
LJ          -1.85244        0.795776         1.39915
LJ         -0.781085          0.7985        0.583362
LJ          0.345753         1.50974        0.795573
LJ           -1.0197         1.44703         1.59965
LJ         0.0562156        0.873706         1.55152
LJ           1.14806        0.665534         1.02629
LJ           1.43507           1.729        0.631249
LJ          0.991194         1.55438         1.68917
LJ           1.76571         0.95252         1.92545
