108
#Comment!
LJ           2.47102        -2.49089         2.55586
LJ          -1.76804        -1.69654         2.44747
LJ           2.51463        -1.71518        -1.78022
LJ          -1.75789        -2.54696        -1.59096
LJ         -0.876592         2.48508          2.5502
LJ         0.0517581        -2.06367        -2.45222
LJ          -1.20193        -1.45234        -1.71954
LJ        -0.0807947         2.23053        -1.80987
LJ          0.881869         2.52293         2.45222
LJ           1.78523        -1.73224        -2.54477
LJ          0.821109        -1.84849        -1.76141
LJ             1.897         2.54745        -1.69723
LJ            2.4747        -0.92811         2.55645
LJ          -1.87375       0.0301795         2.54815
LJ           2.51184        0.110426        -1.99748
LJ          -1.79064       -0.545123         -1.5832
LJ          -1.19103       -0.772399        -2.43554
LJ         0.0265808       -0.202131        -2.47182
LJ         -0.706561      0.00235082        -1.75969
LJ         -0.158791        -1.11915        -1.85795
LJ          0.890019        -1.12349        -2.53767
LJ           1.76045       0.0453738         2.54031
LJ          0.932684       0.0849911        -1.80079
LJ           1.67469       -0.614177        -1.71808
LJ          -2.51654        0.945958         2.46414
LJ          -1.73666         1.93251         2.47452
LJ          -2.48624          1.6515        -1.59894
LJ          -1.58383        0.771819        -1.77107
LJ         -0.576319         1.02308         2.48726
LJ          0.200334         1.74823         2.48834
LJ          -0.97505         1.64751        -1.75396
LJ         0.0718251        0.993896        -1.82585
LJ          0.883724        0.829622         2.48472
LJ           1.87778         1.84833          2.4962
LJ          0.904484         1.84966        -1.60485
LJ           1.61148        0.947295        -1.65757
LJ           2.43074         2.33444       -0.729393
LJ          -1.49999        -1.70919       -0.773956
LJ          -2.42936        -1.90972      -0.0660151
LJ          -1.66702         2.51906      0.00852046
LJ         -0.848809         2.54742         -1.0274
LJ          0.199088        -1.74787       -0.911851
LJ         -0.600443         -1.8384       0.0195263
LJ         -0.176232          2.3578       0.0730556
LJ          0.851285        -2.49192       -0.912461
LJ           1.83067        -1.75964        -0.95405
LJ           0.78076        -2.02368        0.232694
LJ           1.66062        -2.41754       0.0172104
LJ          -2.55002       -0.918837        -0.68861
LJ          -1.90964        0.173897       -0.790362
LJ          -2.51553       0.0375479       0.0633331
LJ          -1.75794       -0.912904       0.0019543
LJ         -0.576561       -0.864693       -0.677998
LJ         -0.135193        0.304424       -0.949767
LJ         -0.719402      -0.0341483      -0.0379617
LJ          0.129759       -0.757856        0.280062
LJ           0.78226       -0.935185       -0.579777
LJ           2.03625        -0.15908       -0.805889
LJ          0.734773      -0.0222548      -0.0321844
LJ           1.73263        -1.06997       -0.106407
LJ          -2.55549        0.980488       -0.882914
LJ          -1.61188         1.82965       -0.782008
LJ           2.35623         1.69741        0.046064
LJ          -1.97711         1.08965        0.175034
LJ          -1.07122        0.724592       -0.972445
LJ          0.142973         1.87214       -0.904202
LJ         -0.771558         1.58557       -0.118045
LJ        0.00260661        0.872568       -0.100093
LJ          0.730612         1.00526       -0.771745
LJ           1.68659          1.6989       -0.845596
LJ          0.774619         2.07997       -0.031217
LJ           1.73577        0.846424       -0.162396
LJ           2.40174         2.31593        0.820135
LJ          -1.40248        -1.88481        0.684645
LJ           2.54529        -1.58736         1.69268
LJ          -1.99781        -2.41666          1.5054
LJ         -0.588695         2.54998         1.09809
LJ         0.0964954        -1.60657        0.967862
LJ          -0.90896        -1.87165         1.73321
LJ         0.0584983        -2.29975         1.70495
LJ          0.805295         2.32118        0.973848
LJ           1.98881        -1.62612        0.728131
LJ          0.977936        -1.78499           1.717
LJ           1.68472         2.54755         1.70407
LJ           2.48527       -0.701511        0.901385
LJ          -1.74581       0.0513146        0.888773
LJ           2.51504     -0.00567506          1.7113
LJ          -1.91025       -0.770458         1.77545
LJ         -0.710574       -0.913548          1.0037
LJ          0.019083      -0.0802028         1.01025
LJ         -0.898675        0.213171         1.87352
LJ          0.270423       -0.973679         1.81274
LJ           1.08886       -0.999387        0.664922
LJ           1.63698       -0.160619         0.75386
LJ           0.83165      -0.0234089         1.91425
LJ           1.56875       -0.844333         1.81499
LJ           2.37708        0.816713        0.878571
LJ          -1.42182         1.96848        0.857981
LJ           2.44931         1.63311         1.56297
LJ           -1.8368        0.982464          1.5809
LJ         -0.873601        0.645432        0.851193
LJ          0.219991         1.49363        0.647816
LJ         -0.781924         1.60913         1.62046
LJ         0.0365897        0.807819         1.60006
LJ           1.06891        0.763313        0.897206
LJ           1.56509          1.7264        0.565882
LJ          0.854387         1.58342         1.68168
LJ           1.74766        0.793968          1.8603
