108
#Comment!
LJ           2.56235         2.49608        -2.56368
LJ          -1.69993        -1.85436        -2.55685
LJ           2.53025        -1.75452         -1.6718
LJ          -1.77813         2.49068        -1.69082
LJ         -0.913291         2.47702         2.46331
LJ        -0.0504989        -1.71361        -2.47201
LJ         -0.693622        -1.68926        -1.71959
LJ        0.00847838        -2.54295          -1.604
LJ          0.884209         2.55863         2.49018
LJ           1.72455        -1.81141        -2.49709
LJ          0.877406        -1.69022        -1.63929
LJ           1.72504         2.56357        -1.68512
LJ           2.54017       -0.771414          2.5253
LJ          -1.61274       0.0371541        -2.54699
LJ          -2.53702     -0.00166433        -1.68958
LJ          -1.64994        -0.86411         -1.7067
LJ         -0.919017       -0.775387        -2.55762
LJ          0.122666      -0.0620039          2.5605
LJ         -0.856116       0.0903333        -1.67731
LJ        -0.0657803       -0.876496        -1.67409
LJ          0.908314       -0.928072        -2.45766
LJ           1.70989        0.101386         2.51099
LJ          0.710933       0.0374495        -1.69271
LJ            1.6398       -0.846222        -1.66488
LJ          -2.51155         0.80905         2.55499
LJ           -1.7637         1.67089         2.52513
LJ          -2.54852         1.55552         -1.7274
LJ          -1.66892        0.803597        -1.69848
LJ         -0.745823        0.905743         2.45646
LJ         0.0300542         1.64827         2.44663
LJ         -0.775287         1.66423        -1.73813
LJ         0.0393018        0.861828        -1.84639
LJ           0.85115        0.909805        -2.53669
LJ           1.67371         1.66637         2.55246
LJ          0.970486         1.73483        -1.75534
LJ           1.60691        0.824193        -1.67976
LJ           2.56396         2.53319       -0.799983
LJ          -1.59598        -1.68512       -0.872412
LJ          -2.52779        -1.81553      0.00820956
LJ          -1.71666         2.56202      -0.0214805
LJ         -0.806265         2.50699       -0.812597
LJ       -0.00668411         -1.6482       -0.898834
LJ         -0.870739        -1.70045       0.0118067
LJ         -0.103834         2.49797      -0.0331539
LJ          0.886103         2.52792       -0.714174
LJ           1.58142        -1.75449       -0.836726
LJ          0.837006        -1.77614       0.0409847
LJ           1.71881        -2.47911     -0.00137906
LJ           2.51764         -0.8769       -0.787179
LJ          -1.78082       0.0523913          -0.916
LJ           2.52761       0.0216787      -0.0628925
LJ          -1.70155       -0.928172     -0.00312877
LJ         -0.767114       -0.809642       -0.792014
LJ         0.0631692       -0.179083       -0.846537
LJ         -0.906597      -0.0303557       0.0619066
LJ        -0.0312473       -0.706345        0.123145
LJ          0.910421       -0.774708       -0.884417
LJ           1.69753       0.0157995       -0.889553
LJ          0.868046     -0.00375819         -0.1032
LJ           1.59262       -0.867799       -0.146543
LJ          -2.54163        0.875614        -0.82564
LJ          -1.73537         1.71963       -0.915313
LJ           2.54856         1.65198       0.0315752
LJ          -1.71693        0.937667        0.105441
LJ         -0.795303         0.84177       -0.760421
LJ         -0.101459         1.70345       -0.916126
LJ         -0.877869         1.76067       0.0213251
LJ        -0.0571646        0.856978        0.118636
LJ          0.897279        0.906011       -0.845724
LJ           1.83724          1.7216       -0.796137
LJ          0.768948         1.76447       -0.115017
LJ           1.66898        0.823858       0.0364848
LJ          -2.45713        -2.50737        0.852986
LJ          -1.68477        -1.81681        0.841366
LJ          -2.55823        -1.67023         1.66984
LJ          -1.84277        -2.55384         1.64624
LJ         -0.860051        -2.47823        0.793967
LJ         0.0411486        -1.69858        0.852253
LJ         -0.836956        -1.72991         1.75635
LJ          0.126987        -2.52761          1.7274
LJ          0.871119         2.37167        0.937343
LJ           1.75217        -1.86025         0.86331
LJ          0.957522        -1.81009         1.56328
LJ           1.79271         2.54915         1.72391
LJ           2.53699       -0.759007        0.920388
LJ          -1.66983      -0.0137999        0.848283
LJ           2.54834      -0.0493063         1.77761
LJ          -1.71046         -0.8216         1.82239
LJ         -0.904468       -0.801789        0.792199
LJ         0.0858876      -0.0330466        0.956492
LJ         -0.799314      -0.0366233         1.64236
LJ      -0.000509938       -0.902384         1.69535
LJ          0.889534       -0.895405        0.797376
LJ           1.62046      -0.0766395        0.800035
LJ          0.784711     -0.00677796         1.74925
LJ           1.79577       -0.736262         1.69039
LJ          -2.54954        0.916455        0.855158
LJ          -1.70924         1.59466         0.89824
LJ          -2.55062         1.73059         1.77812
LJ          -1.62458        0.821902         1.73047
LJ         -0.801955        0.826624        0.885432
LJ         0.0344955         1.67025        0.946706
LJ         -0.862065         1.70685          1.6784
LJ       -0.00320448        0.711559         1.67332
LJ          0.818403         0.75563        0.740847
LJ           1.67471         1.62906        0.835212
LJ          0.879329          1.6516         1.75232
LJ           1.76482        0.854876         1.65549
