108
#Comment!
LJ          -2.45648        -2.40131         2.52242
LJ          -1.79972        -1.56199         2.51165
LJ          -2.32892        -1.60199        -1.81292
LJ          -1.51285        -2.44416        -1.80762
LJ          -0.82487         2.39447        -2.50333
LJ          -0.11253        -1.64038         2.44604
LJ           -1.0208        -1.58235        -1.92235
LJ          0.100658         2.43211        -1.89604
LJ          0.989876        -2.42134         -2.5246
LJ           1.72456        -1.63634         2.41999
LJ           1.24028        -1.71453        -1.68928
LJ           1.91331         2.43894        -1.55825
LJ           2.49121       -0.623268         2.54104
LJ            -1.809      0.00650908         2.37337
LJ          -2.42757      -0.0700993        -1.87058
LJ          -1.60869        -0.61113         -1.6214
LJ          -1.04673       -0.743325        -2.48001
LJ       -0.00686794       -0.172091         -2.4156
LJ         -0.778673        0.108115        -1.74413
LJ         0.0852628       -0.968387        -1.66831
LJ          0.824319       -0.969106          2.5166
LJ           1.67682      -0.0202173        -2.41039
LJ          0.752272        0.125606        -1.64718
LJ           1.54577        -0.74188        -1.56652
LJ          -2.55742        0.967311        -2.43195
LJ          -1.74494         2.00455         2.40274
LJ          -2.50123         1.71793          -1.481
LJ          -1.58425        0.733599        -2.01347
LJ         -0.471304        0.783697         2.51132
LJ          0.128561         1.67344         2.36966
LJ          -1.26755         1.71468        -1.64736
LJ        -0.0688872         1.09033         -1.7009
LJ           1.12757         1.01489        -2.54894
LJ           1.79976         1.84814         2.50155
LJ           1.00177         1.85617        -1.82088
LJ           1.71994        0.784941        -1.70904
LJ            2.4891         2.49468       -0.709999
LJ          -1.44245        -1.71299       -0.859334
LJ          -2.35541        -1.64035       -0.158797
LJ          -1.64373          2.4964       0.0861708
LJ         -0.624813        -2.47849        -1.10704
LJ          0.062813        -1.77443       -0.728161
LJ         -0.731378        -1.76525      -0.0786981
LJ        -0.0456929         2.31077        0.135851
LJ          0.687677         2.52368       -0.906253
LJ           1.91498        -1.62902       -0.922182
LJ          0.787592        -1.88058        0.204641
LJ           1.63847        -2.44794      -0.0110944
LJ          -2.43418       -0.816395       -0.850102
LJ          -1.84544       0.0878005       -0.966192
LJ          -2.40123        0.131219       0.0272555
LJ          -1.66182       -0.769969      -0.0423383
LJ         -0.778663       -0.697806       -0.764033
LJ         -0.140846       0.0801824        -1.01189
LJ         -0.650153      -0.0389509        0.120805
LJ         -0.033566       -0.854262        0.129167
LJ          0.918283        -1.22939       -0.748708
LJ           1.86519        -0.19533       -0.645006
LJ          0.709736       0.0684388       0.0993564
LJ           1.98944       -0.992292      -0.0518598
LJ           2.46347         0.81472       -0.822279
LJ          -1.75281         1.69016        -0.74377
LJ            2.4314         1.60421      0.00999598
LJ          -1.86547          1.0576        0.150515
LJ          -1.07272         0.77054       -0.954008
LJ          0.197075         1.71434       -0.832982
LJ         -0.861327         1.74322      -0.0533804
LJ         0.0439013        0.851451       -0.176877
LJ           0.87063         0.93648       -0.882419
LJ           1.73809         1.68068       -0.866142
LJ          0.917837         1.73707       -0.111821
LJ           1.59215        0.864864        0.141175
LJ          -2.52212         2.46993        0.628353
LJ          -1.53379        -1.81315        0.815264
LJ          -2.53131        -1.46949          1.6005
LJ          -1.97907        -2.34202         1.70135
LJ         -0.833041         2.41936         1.01985
LJ         0.0175994        -1.48166         1.05639
LJ          -1.00673        -1.71385         1.77856
LJ         0.0597084        -2.20774          1.7788
LJ          0.824971          2.3914        0.918202
LJ           1.65156        -1.50942         1.08082
LJ          0.877879        -1.67755         1.79269
LJ           1.80707        -2.49116         1.55818
LJ          -2.47008        -0.83769        0.703847
LJ          -1.58035       0.0705749        0.811906
LJ           2.39146     -0.00700632         1.60825
LJ          -1.70342       -0.931779         1.61179
LJ         -0.840943       -0.888722        0.999381
LJ          0.166424       -0.086733        0.886563
LJ         -0.999243      0.00919523          1.8256
LJ          0.228746       -0.710778         1.70114
LJ          0.884433       -0.939016        0.642126
LJ           1.81484       -0.313167        0.791901
LJ          0.845833       0.0177944         1.78999
LJ           1.47761       -0.763156         1.78115
LJ           2.28336        0.975621          1.0169
LJ           -1.7994         1.76428         1.07096
LJ            2.5193         1.91815         1.63419
LJ           -1.8495         0.76546         1.65522
LJ         -0.930347        0.894647        0.709148
LJ          0.395735         1.41161        0.717857
LJ         -0.714873         1.38693          1.6928
LJ          0.141701        0.846138         1.54195
LJ           1.16627        0.660009        0.977541
LJ           1.47354         1.71304        0.716961
LJ           1.03385         1.65167         1.67661
LJ           1.87594         1.16059         1.88585
