108
#Comment!
LJ           2.42927         2.54664         2.50402
LJ          -1.68076         -1.9041        -2.56018
LJ           -2.5213         -1.6941        -1.79936
LJ          -1.79766         2.50217        -1.67978
LJ         -0.945614         2.38515         2.48783
LJ         -0.152789        -1.83874         -2.4496
LJ         -0.813265        -1.61675        -1.56845
LJ       -0.00630578          2.5562        -1.65151
LJ          0.885346         2.54549        -2.50321
LJ           1.61852        -1.82302        -2.51941
LJ          0.829203        -1.51005         -1.6175
LJ           1.87243        -2.40518        -1.71958
LJ           2.45935       -0.891541         2.49493
LJ          -1.61431       0.0616464         2.54325
LJ          -2.52989        0.147285         -1.8173
LJ          -1.82685       -0.971288        -1.74413
LJ          -1.11997       -0.820417         2.49425
LJ         0.0128009       -0.110727         2.50409
LJ         -0.789635       0.0607403         -1.7101
LJ         0.0297605       -0.829173         -1.6567
LJ          0.869579       -0.917566        -2.56117
LJ           1.82589        0.127338        -2.54076
LJ          0.728607         0.18378        -1.62681
LJ           1.69264       -0.789318        -1.70573
LJ          -2.55275         0.84011         2.53508
LJ          -1.76685         1.77536         2.52713
LJ          -2.56468         1.63233        -1.80395
LJ          -1.78866        0.919745         -1.6998
LJ           -0.6656         1.01501         2.30994
LJ          0.170066         1.76243         2.38113
LJ         -0.872078         1.66964        -1.61441
LJ        -0.0962741        0.950613        -1.81953
LJ          0.750508        0.939946        -2.34413
LJ           1.80207          1.7228         -2.5149
LJ            0.9048         1.76953        -1.60032
LJ            1.7367        0.858293        -1.71912
LJ          -2.48529        -2.43295       -0.809539
LJ          -1.47177         -1.7279       -0.752368
LJ           2.48392        -1.82996     -0.00220031
LJ          -1.56633         2.51037     -0.00970835
LJ           -0.7946        -2.54532       -0.782726
LJ        -0.0355431         -1.7483       -0.989391
LJ         -0.869442         -1.7802        0.143811
LJ         -0.121587         2.42033      -0.0143429
LJ          0.826807         2.51859       -0.825423
LJ           1.55438         -1.8219       -0.815106
LJ          0.729882        -1.78967        0.146857
LJ           1.66145        -2.47698      -0.0893163
LJ          -2.46803       -0.910999        -0.78782
LJ          -1.96697        0.200962       -0.821713
LJ           2.51644       0.0402113      -0.0419567
LJ          -1.64461       -0.883281      -0.0582606
LJ         -0.885838       -0.695878       -0.822447
LJ        -0.0509606     -0.00589186       -0.749741
LJ         -0.865912       0.0158753       -0.100598
LJ        -0.0386165       -0.660645      -0.0412302
LJ          0.977827       -0.833217       -0.755029
LJ           1.74593       -0.168532        -0.84612
LJ          0.881727       -0.026772       -0.070661
LJ           1.68787        -1.01141       -0.140702
LJ          -2.54639         1.04604       -0.856323
LJ          -1.71084         1.73099       -0.978217
LJ           2.53258         1.77691        0.151796
LJ          -1.78228        0.918254       0.0591018
LJ         -0.782128        0.741446       -0.807358
LJ         -0.130565         1.68861        -0.93775
LJ         -0.876166         1.70238       -0.184505
LJ         -0.119681         0.97745      -0.0688402
LJ          0.667471        0.945659       -0.837041
LJ           1.76755         1.90948       -0.881849
LJ          0.647714         1.80214      -0.0663599
LJ           1.60881        0.763802       0.0753187
LJ           2.49754         2.50184         0.88172
LJ          -1.58746        -1.72268        0.917919
LJ           2.39515        -1.72207         1.71579
LJ          -1.83615         2.49698          1.6449
LJ         -0.814022         2.48268        0.784026
LJ        0.00571843        -1.70712        0.820906
LJ         -0.865653        -1.77116          1.7239
LJ          0.151658        -2.50468          1.8494
LJ           1.07798         2.51508        0.984007
LJ           1.72022        -1.79176        0.849853
LJ          0.930012        -1.61224         1.65799
LJ           1.68432        -2.50539         1.80164
LJ           2.47978        -0.60088        0.881692
LJ           -1.7939      0.00726766        0.867592
LJ          -2.43192      -0.0166822         1.96545
LJ          -1.78739        -0.82932          1.6376
LJ         -0.665977         -0.8811        0.793804
LJ         0.0578641      -0.0319636        0.809491
LJ         -0.648911       0.0976371         1.77654
LJ            0.0503       -0.875702          1.6119
LJ          0.777998       -0.905403        0.844598
LJ           1.57996     0.000494667        0.748795
LJ          0.795122        -0.17488           1.813
LJ           1.66862       -0.897133         1.70759
LJ           2.39079        0.919811        0.856813
LJ           -1.8143         1.74169        0.804623
LJ          -2.53681         1.71409         1.81773
LJ          -1.80526        0.783268          1.6535
LJ         -0.853422        0.703945        0.862705
LJ        -0.0669302         1.64534        0.886267
LJ         -0.876024          1.7443         1.63997
LJ         0.0270892        0.801671         1.56261
LJ          0.855312        0.767382        0.824794
LJ           1.76055         1.80211        0.827302
LJ          0.876496         1.58381         1.68448
LJ           1.69706         1.04593         1.65226
