108
#Comment!
LJ          -2.53011        -2.44424         2.55499
LJ          -1.66803        -1.52498          2.4662
LJ          -2.27754        -1.54643        -1.78832
LJ          -1.60785        -2.45038        -1.77259
LJ         -0.754226         2.29046        -2.43648
LJ          -0.12844        -1.51986         2.50293
LJ         -0.971095        -1.55061        -1.97869
LJ          0.113192        -2.52021        -1.90845
LJ           1.03368        -2.38621        -2.40815
LJ           1.71824        -1.50018         2.44554
LJ           1.17821        -1.66467        -1.69566
LJ           1.85215         2.53815        -1.67021
LJ           2.47342        -0.67253        -2.52724
LJ          -1.81713      -0.0138689         2.29239
LJ          -2.49849       0.0168582        -1.74715
LJ          -1.58717       -0.548466        -1.74854
LJ         -0.857201       -0.736913         2.53364
LJ         0.0771929      -0.0955908        -2.38503
LJ         -0.829858       0.0649668        -1.71485
LJ          0.187861       -0.979867        -1.66329
LJ          0.748617       -0.978895        -2.52067
LJ            1.6502       0.0707088        -2.39522
LJ          0.880063        0.147647        -1.70063
LJ           1.53772       -0.547703        -1.50824
LJ          -2.46954        0.832603         -2.4058
LJ          -1.78995         1.97523         2.39583
LJ          -2.44418         1.73302        -1.56993
LJ          -1.59483        0.728231          -2.025
LJ         -0.545531        0.734017         2.55377
LJ         0.0399756         1.70375         2.27711
LJ          -1.34928         1.74753        -1.72097
LJ         0.0157984         1.02915        -1.71489
LJ           1.02144         0.99749        -2.51758
LJ           1.73524         1.89421         2.44536
LJ          0.946589          1.9095        -1.78386
LJ           1.79314        0.917706        -1.78016
LJ          -2.54559         2.54563       -0.791641
LJ          -1.39994        -1.68119       -0.942406
LJ          -2.34223        -1.62133      -0.0822251
LJ           -1.6211         2.38573        0.158009
LJ         -0.719942        -2.46794       -0.998678
LJ         0.0495153        -1.81922        -0.71319
LJ         -0.760468        -1.76103      -0.0050728
LJ        -0.0191203         2.34648        0.132482
LJ          0.824166        -2.55064        -1.02155
LJ           1.90294        -1.60365       -0.886538
LJ          0.908423        -1.87421        0.280965
LJ           1.72909        -2.50726       0.0716012
LJ          -2.38921       -0.790988       -0.761889
LJ          -1.80213        0.183652       -0.940552
LJ          -2.32684       0.0655515      -0.0548634
LJ          -1.61448       -0.710934      -0.0641466
LJ         -0.738697       -0.773581       -0.711855
LJ        -0.0569862       0.0741942        -1.02871
LJ         -0.661984      -0.0844006       0.0679958
LJ         0.0107315       -0.956381        0.127052
LJ          0.991718        -1.08311       -0.654358
LJ           1.80936       -0.256499       -0.693903
LJ          0.782619       0.0742117        0.107924
LJ           1.88776        -1.05445       0.0192946
LJ           2.46103        0.749051       -0.748656
LJ          -1.86499         1.74828       -0.689104
LJ           2.52216         1.68923      -0.0348871
LJ          -1.74122        0.899296        0.139449
LJ          -1.00463        0.746543       -0.938606
LJ         0.0319482         1.70005       -0.815761
LJ         -0.679239         1.63295      -0.0882987
LJ          0.044245        0.851816       -0.119329
LJ          0.842574         1.04452       -0.964356
LJ           1.68409         1.70273       -0.835883
LJ           0.87185         1.66599       -0.139868
LJ           1.65731         0.74757       0.0454161
LJ           2.43932         2.47764         0.72488
LJ          -1.46816        -1.80892        0.787395
LJ           2.48954         -1.4098         1.60447
LJ          -1.90866        -2.34201         1.68349
LJ         -0.899668         2.47374        0.922574
LJ       -0.00468589        -1.44839         1.05068
LJ         -0.871647        -1.66945            1.76
LJ        0.00723436        -2.31859         1.78786
LJ          0.789411         2.38305         0.92763
LJ           1.66469        -1.62794         1.01183
LJ          0.805142        -1.68782         1.68301
LJ           1.68829        -2.48703         1.52439
LJ          -2.34161       -0.804805        0.785028
LJ          -1.69801       0.0898951        0.856803
LJ           2.44891       0.0531559         1.66824
LJ          -1.61017       -0.891895         1.55976
LJ          -0.86262       -0.856237         0.99998
LJ          0.156871       -0.184482        0.844385
LJ         -0.913505     -0.00678253         1.77902
LJ           0.11314       -0.774267         1.79833
LJ           1.01192       -0.896253        0.540224
LJ           1.79492       -0.269345        0.861417
LJ           0.83748      -0.0043271         1.70635
LJ           1.42181       -0.753023         1.71311
LJ            2.3202        0.869597         1.09282
LJ          -1.82402         1.69368        0.974302
LJ           2.43535           1.856         1.59473
LJ          -1.74379        0.838058         1.71339
LJ         -0.886633        0.967183         0.83809
LJ          0.338487         1.37259         0.72873
LJ         -0.726564         1.50055         1.68784
LJ          0.143501        0.769219         1.71068
LJ           1.15573        0.589601        0.980167
LJ           1.56044         1.79139        0.684355
LJ          0.979223         1.68798         1.72569
LJ           1.83912         1.04921         1.95485
