108
#Comment!
LJ          -2.37197        -2.34084         2.40776
LJ          -1.74169        -1.62369         2.51573
LJ          -2.24909        -1.51622        -1.75299
LJ          -1.59478        -2.47911        -1.80478
LJ         -0.738441         2.41933        -2.55456
LJ         -0.109723         -1.5344         2.45653
LJ          -1.02951        -1.53666        -1.81645
LJ         0.0701756         2.43432        -1.90266
LJ          0.871781        -2.50108         2.54331
LJ           1.76386        -1.61107         2.44393
LJ           1.02531        -1.80256        -1.63309
LJ           1.92859         2.39896        -1.66192
LJ           2.56308        -0.67437         2.54837
LJ          -1.85809      0.00940889         2.34596
LJ          -2.47592      -0.0390665        -1.83162
LJ          -1.65761       -0.652678        -1.62616
LJ          -1.06822       -0.779063        -2.56257
LJ         0.0162926       -0.179406        -2.31727
LJ         -0.902423        0.038727        -1.79396
LJ         0.0439523        -1.08753        -1.72418
LJ          0.818642        -0.96767        -2.53946
LJ           1.73689    -0.000429161        -2.43646
LJ          0.783569        0.151764        -1.70588
LJ           1.57401       -0.740177        -1.70326
LJ          -2.47936        0.995127         -2.4876
LJ          -1.76817         1.97887         2.33735
LJ          -2.44791          1.6042        -1.53667
LJ          -1.62643        0.766911        -1.87096
LJ         -0.541878        0.684645         2.50951
LJ          0.133511         1.66993         2.30591
LJ          -1.20217         1.61713        -1.64088
LJ        -0.0430972          1.1809        -1.74588
LJ           1.11252        0.937916         2.47022
LJ           1.82023          1.7339         2.54805
LJ          0.948765         1.79686        -1.94974
LJ            1.6373        0.826217        -1.70192
LJ           2.56168         2.33189       -0.817787
LJ          -1.47131        -1.67373       -0.899769
LJ           -2.2662        -1.68414      -0.0713789
LJ          -1.59172         2.53537        0.159947
LJ          -0.60221        -2.47047        -1.10193
LJ        0.00720195        -1.70251       -0.849996
LJ         -0.814428        -1.84661      -0.0525093
LJ        -0.0742788         2.25856       0.0903549
LJ           0.72402        -2.43644       -0.908831
LJ           1.93691        -1.69929       -0.917918
LJ          0.823106        -1.86066        0.255699
LJ           1.65516        -2.50493        0.037563
LJ           -2.3946       -0.854218        -0.82429
LJ          -1.94317        0.136414       -0.911848
LJ          -2.43887        0.119251       0.0585293
LJ          -1.63254       -0.749598       0.0578843
LJ         -0.829877       -0.855973       -0.841945
LJ          -0.23066      -0.0362099        -1.02645
LJ         -0.726967      0.00765361       0.0317006
LJ        -0.0161692       -0.789278        0.100803
LJ          0.961096        -1.29494       -0.784417
LJ           1.81221        -0.18063       -0.669502
LJ          0.850932        0.109053       0.0821373
LJ             1.954        -0.95366      -0.0168871
LJ           2.50129        0.859696       -0.862556
LJ          -1.66008          1.6547       -0.826779
LJ           2.36529         1.55102       0.0732844
LJ          -1.77001         1.10013        0.239121
LJ          -1.09793         0.70753       -0.991802
LJ          0.144047         1.72043       -0.831257
LJ         -0.875156         1.63394        -0.13208
LJ         0.0852756        0.891445       -0.173406
LJ          0.984214        0.923833       -0.841774
LJ           1.70751         1.71616       -0.738745
LJ          0.900286          1.6067       -0.155888
LJ           1.62368        0.806036       0.0428015
LJ           2.56436         2.38133        0.657491
LJ          -1.38169        -1.81521        0.811459
LJ          -2.49044        -1.47529         1.54072
LJ          -1.94533        -2.28109         1.50794
LJ         -0.830793         2.37405        0.932046
LJ          -0.14551        -1.54774        0.964553
LJ         -0.955412        -1.63302         1.87002
LJ         0.0726852          -2.331          1.6833
LJ           0.78365          2.4729        0.990229
LJ            1.6627        -1.54687         0.98281
LJ          0.923441        -1.61072         1.73851
LJ           1.81704        -2.56153         1.60809
LJ          -2.46538       -0.938269        0.772812
LJ          -1.51395      -0.0193048        0.775498
LJ           2.44624      -0.0477217         1.62935
LJ          -1.73256        -0.78737         1.62452
LJ         -0.858055       -0.934386         1.10727
LJ          0.188147       -0.106518        0.939171
LJ         -0.939184    -0.000531731          1.7391
LJ          0.184094       -0.790401         1.73512
LJ          0.933196       -0.913237        0.645907
LJ           1.72922       -0.269642        0.828936
LJ          0.796837       0.0195714         1.81648
LJ           1.58898       -0.767027         1.77103
LJ           2.28343        0.935788        0.974406
LJ          -1.72336         1.78013         1.05421
LJ           2.51117          1.8398         1.68579
LJ          -1.89879        0.825361         1.43369
LJ         -0.858554        0.857122        0.583181
LJ          0.465749         1.53937        0.791476
LJ         -0.899585         1.40064         1.66119
LJ          0.013747        0.894512          1.4918
LJ           1.21737        0.707198         1.03343
LJ           1.51814         1.72064        0.672694
LJ           1.12183         1.68004         1.74448
LJ           1.85332         1.03135         1.85859
