108
#Comment!
LJ           1.56858          2.1956        0.937545
LJ          -1.86926         -1.1788        0.508933
LJ         -0.261666        -2.12942       0.0317745
LJ          -1.55562         2.47192        0.357419
LJ          -1.56054        0.340551         1.49795
LJ            1.2757       -0.881153        0.418053
LJ           1.52529       -0.666843         1.49078
LJ          0.342735         1.03003         2.04955
LJ          -1.01826         1.98128        -2.33971
LJ          -1.36196         1.09021        -1.94356
LJ          -2.49527         2.38597        -2.41653
LJ           2.02583         1.96053         1.81647
LJ          0.311989         1.89771        -2.37033
LJ        -0.0569136         1.53802        0.867527
LJ           1.59502          1.5999         -2.4113
LJ           0.84254         2.56432       -0.183228
LJ           1.10986        -1.52239          2.1314
LJ          0.719069       0.0494879         2.12391
LJ          0.363175        -2.49557        0.839484
LJ           2.46326        0.860204       -0.553647
LJ          -1.62195       -0.252542        0.709652
LJ          -1.05055         2.50838       -0.725668
LJ           1.87411        -2.26615       -0.996834
LJ          -1.15672        -0.57584       -0.758064
LJ           1.02468        -1.77474          1.0956
LJ        -0.0206436        -2.39833         2.13332
LJ           2.07406       -0.971326        -0.95336
LJ           2.27965        -1.23336         2.09518
LJ          -2.40361         2.36413        0.998493
LJ          0.348398       -0.560559         1.45317
LJ          -2.05466        -1.72156        -2.53994
LJ           1.65631      -0.0390371       -0.689541
LJ          -2.44377        -1.41666       -0.249868
LJ           1.66796        0.541496         2.33449
LJ           0.80823        -1.01899       -0.701687
LJ         -0.832245        -1.67336         2.15748
LJ         -0.609636         2.28512        0.698099
LJ          0.793568        -2.04171        -1.34567
LJ        -0.0133368        -1.57782          1.4795
LJ          -1.64241         1.28607       -0.127319
LJ          -1.63112         1.96796        -1.49656
LJ          -2.27718         1.84373       -0.658251
LJ          -1.96671         1.91859         1.91161
LJ         -0.247464       -0.928683        -2.55853
LJ         -0.878279        -1.06865         -1.7836
LJ          -2.49642       -0.526207        -1.71211
LJ           1.66469       -0.588137        -2.53187
LJ         -0.117265       -0.172123       -0.728318
LJ           1.55412        -1.81574       -0.059128
LJ          -1.20753        -2.51555         1.66298
LJ           -1.2234         1.21587         2.07565
LJ          -2.44523        0.621898        0.457572
LJ           -1.1123        -1.68558         1.03297
LJ          -2.53463       -0.360287         2.40991
LJ          -2.25388       -0.282505       -0.545869
LJ          -1.31206      0.00504376        -1.68507
LJ        -0.0466733        -2.54533       -0.915395
LJ           2.38867        -2.39176        0.102325
LJ           0.91366        0.989866        -1.92786
LJ         -0.516928         1.84775        -1.44816
LJ           1.73657         1.78696       -0.524074
LJ         -0.572033         1.72661       -0.171321
LJ           1.70895        -2.52955        -2.03135
LJ          -1.05213        -2.13069         -1.5798
LJ          0.740089      -0.0157287        -1.21625
LJ          -2.49335         1.10195         2.49138
LJ         -0.401105         1.87362         1.81384
LJ         -0.433395        0.308306         1.97639
LJ            1.4433        0.828115       -0.813463
LJ          -1.23382        0.276147      -0.0641339
LJ           1.86486        0.420806        -1.77355
LJ           2.44942         1.57326        -1.60218
LJ          -2.11783        -1.69257         1.45826
LJ          -1.53454       -0.647215         2.56392
LJ          -2.23173        0.600615        -1.37386
LJ          0.965997        -2.54806         2.45963
LJ         -0.152312        -2.04884        -1.99732
LJ          -0.33781        -1.56412       -0.894278
LJ           2.35814       -0.483063        0.633798
LJ           2.05717         1.17289         1.26089
LJ           1.06111        -1.06884        -1.67422
LJ          0.628546      0.00799078       0.0925585
LJ          -1.22165        -1.69813      -0.0885651
LJ          -0.38365         1.13811        -2.35041
LJ           2.50745         1.68008        0.257103
LJ           1.04595         0.38653         1.24746
LJ           2.28747        0.188655          1.5342
LJ           -1.6559        0.349336         2.53658
LJ          0.431504          1.6087       -0.630889
LJ           2.18837        -1.48784        -1.92842
LJ          0.273857        -1.18709        0.275477
LJ          -2.04028         1.16392         1.22141
LJ          0.791079         1.79325         1.55243
LJ            2.1949        -1.48732        0.811683
LJ        -0.0042923        0.335014        0.974732
LJ          -2.20812        -2.26899        -1.54027
LJ         -0.937984         1.06113        -0.96072
LJ          0.949277         1.99946        -1.52088
LJ         -0.780454       -0.523759          1.3842
LJ          0.121308       -0.761258        -1.63637
LJ         0.0906246        0.889306        -1.34479
LJ           1.07834         1.35123        0.234542
LJ          -1.83869        -1.34543        -1.43713
LJ        -0.0832461         0.80411       -0.128048
LJ          -2.21143       -0.547312         1.52746
LJ           1.64833        0.436916        0.210743
LJ         -0.741776       -0.719139        0.231768
LJ          -1.00729         1.05024        0.766826
