108
#Comment!
LJ          -2.45639        -2.40369         2.52226
LJ          -1.80365        -1.56516         2.51302
LJ          -2.33158         -1.6037        -1.82033
LJ          -1.50928        -2.44939        -1.81234
LJ          -0.82224         2.39526        -2.50597
LJ         -0.111928        -1.63935         2.44791
LJ          -1.01632        -1.58488        -1.92239
LJ          0.110399         2.43225        -1.89564
LJ          0.988094        -2.42226        -2.52155
LJ           1.72587          -1.634         2.42994
LJ           1.24866        -1.71435        -1.68494
LJ           1.91189         2.44073        -1.55853
LJ           2.49031       -0.626006         2.52902
LJ          -1.80549       0.0131199         2.37439
LJ          -2.43665      -0.0643376        -1.86895
LJ          -1.60749       -0.607579        -1.61824
LJ          -1.05056       -0.746808        -2.47734
LJ       -0.00656077       -0.175928        -2.42176
LJ         -0.780276        0.118774        -1.74962
LJ         0.0823941       -0.966015        -1.67068
LJ          0.826626       -0.962665          2.5173
LJ           1.67813      -0.0196553        -2.41054
LJ          0.753734        0.128294        -1.65391
LJ           1.54691       -0.737024        -1.56439
LJ          -2.55485        0.967571        -2.43185
LJ          -1.73621          2.0034         2.40443
LJ          -2.49652         1.71614        -1.47758
LJ          -1.58615        0.736854        -2.01401
LJ          -0.46778        0.784497         2.51237
LJ          0.124812         1.68256         2.36887
LJ          -1.27009         1.71863        -1.64976
LJ        -0.0700295         1.09263        -1.69552
LJ           1.12556         1.01456        -2.54577
LJ           1.79838         1.84533         2.49946
LJ           1.00001         1.85807         -1.8172
LJ           1.72151        0.785974        -1.71408
LJ           2.49634         2.50106        -0.71954
LJ          -1.44091        -1.70459       -0.860666
LJ          -2.35494         -1.6382       -0.158453
LJ          -1.65019         2.49741       0.0863731
LJ         -0.626149         -2.4815        -1.11071
LJ         0.0566133        -1.77738       -0.725076
LJ         -0.729416        -1.76815      -0.0780281
LJ        -0.0437868         2.31383        0.132543
LJ          0.680876         2.53121       -0.908283
LJ           1.91175        -1.63173       -0.921058
LJ          0.785396         -1.8772        0.213486
LJ           1.63785        -2.44338     -0.00429134
LJ          -2.43548       -0.818294       -0.844201
LJ          -1.84313        0.092206       -0.969642
LJ          -2.40529        0.126536       0.0239046
LJ          -1.66171       -0.770441      -0.0428174
LJ         -0.775366       -0.699006       -0.760533
LJ          -0.14091       0.0811113        -1.01851
LJ         -0.646803      -0.0377366        0.120139
LJ         -0.037768       -0.854529        0.136811
LJ          0.920402        -1.23428       -0.748429
LJ           1.86293       -0.194965       -0.648907
LJ          0.713577       0.0664041        0.100881
LJ           1.99179       -0.993428      -0.0523008
LJ           2.45571        0.812636       -0.825601
LJ          -1.74973          1.6888       -0.745297
LJ           2.43205         1.60114       0.0106695
LJ          -1.86946         1.05063        0.146352
LJ          -1.06485        0.771192       -0.947935
LJ          0.198872         1.71483       -0.828109
LJ         -0.860984         1.74334      -0.0555972
LJ          0.050889        0.852079       -0.178283
LJ           0.86627        0.941147       -0.886095
LJ           1.74307          1.6755       -0.869548
LJ          0.917998         1.73283       -0.109397
LJ           1.59257        0.870373        0.134722
LJ          -2.52374         2.46857        0.623209
LJ          -1.53951        -1.80948        0.812493
LJ           -2.5355        -1.46932         1.60863
LJ          -1.98264        -2.35137         1.70689
LJ         -0.828651         2.41675          1.0167
LJ         0.0157869         -1.4831         1.05171
LJ           -1.0018        -1.72176         1.78968
LJ         0.0492636        -2.20353         1.78163
LJ          0.828109          2.3945        0.916032
LJ           1.65496        -1.49962         1.08369
LJ          0.880045        -1.67944         1.79596
LJ           1.81034        -2.49324         1.55713
LJ          -2.47218       -0.835005        0.700564
LJ           -1.5845         0.07096         0.81417
LJ           2.38695     -0.00730205         1.60731
LJ           -1.6962       -0.928037          1.6036
LJ         -0.837729       -0.882321          1.0052
LJ          0.171407      -0.0902622        0.884599
LJ          -0.99886      0.00262839         1.82886
LJ          0.220703       -0.711348         1.69934
LJ          0.886545       -0.938074        0.639016
LJ           1.80941       -0.308701        0.792937
LJ          0.846444       0.0181927         1.79149
LJ           1.47993       -0.756642         1.78145
LJ           2.27753        0.968814         1.01501
LJ          -1.79915         1.76284         1.07247
LJ           2.51414         1.91743         1.63602
LJ          -1.85396        0.763597         1.65054
LJ          -0.92999        0.894834        0.707065
LJ          0.388002         1.41429        0.716975
LJ          -0.71778          1.3843         1.68129
LJ          0.141481        0.840444          1.5409
LJ           1.16646        0.656713        0.979223
LJ           1.48087         1.71304        0.718653
LJ           1.03231         1.65258         1.67736
LJ           1.87241         1.16584         1.88428
