108
#Comment!
LJ          -0.17504        -2.06045        -2.00673
LJ           2.53861        -0.62755        0.277911
LJ          0.123708         1.28576      -0.0254149
LJ          -2.44947         2.30886          1.3576
LJ           2.24218        -1.62709        -1.81715
LJ          0.919686        -2.47794         1.46342
LJ          -1.04805       -0.395379       -0.461173
LJ          -1.16123       -0.477899         2.09623
LJ          -1.04981        -2.46222       -0.823895
LJ          0.590251         2.15001        -2.14264
LJ          -1.86911        -1.13336       -0.299454
LJ         -0.262782         0.97097         2.23126
LJ         -0.753492         1.46746       -0.690304
LJ          -2.28097        0.101893        -2.13479
LJ           1.24103        -1.26975        -1.66152
LJ           1.36625       -0.856656       0.0913182
LJ           1.02036         2.02444       -0.895742
LJ          0.700698      -0.0321327        -1.83949
LJ          -2.16794         2.14834         2.37284
LJ          0.517362        0.921414        -2.25148
LJ          0.279692        -1.53745        -1.09907
LJ          -1.70032        0.920372        -2.42376
LJ          -1.21508        -0.50918         -1.6552
LJ          0.494231         1.08635         1.50932
LJ           1.20894         1.19225        -1.47204
LJ           2.05732         2.21745      0.00696592
LJ           1.71435         2.44161         1.98135
LJ          -0.82698         -1.1817       -0.956964
LJ           1.10781         1.74199         2.23618
LJ           1.00852        -1.69843        0.620194
LJ         -0.496229        0.717199        0.969077
LJ         -0.480233         1.71731        0.913638
LJ         -0.813446         2.48611        0.197094
LJ          -1.96541      0.00642756    -0.000866189
LJ          -2.17105        -1.82955         1.71229
LJ          -1.85997        0.266143         1.85894
LJ          -2.09472          2.5554         0.21503
LJ           1.84039        -0.14946         1.85717
LJ          -1.25159        -1.85806        -1.80951
LJ         -0.201421       -0.876005         1.68596
LJ          -1.12894        -1.42413         1.59063
LJ          -1.34133       -0.675658         0.52149
LJ          -2.08897         1.84596       -0.650151
LJ           1.14663         2.55996       0.0683016
LJ           1.15779        -1.69642       -0.672346
LJ       -0.00838426        -1.93485      -0.0656322
LJ         -0.111783       -0.454548        -1.25265
LJ            1.9202         1.81617        0.972686
LJ           1.13922       -0.554764       -0.935443
LJ           2.49818         1.05244        0.232039
LJ         0.0835002        0.127863         1.57601
LJ          -2.13115        -1.57626        0.710303
LJ          -1.11284         1.42729         1.76906
LJ          -1.25273         2.24207        -1.74903
LJ          -1.05056        -1.66705        0.442084
LJ          -1.95279        -1.57747        -2.45474
LJ          -2.39024         2.47635        -1.75662
LJ          -0.30626        0.554818        -1.08312
LJ          -2.06343       -0.561762         1.28784
LJ          -1.63796         0.48876        0.870374
LJ           1.87743        -2.10006         1.05431
LJ           2.02462        -1.74107         2.10735
LJ           1.75929        0.888154         1.42663
LJ           1.71594       0.0626017       0.0316124
LJ          -2.32416         1.16255         1.26876
LJ          0.788823        -1.32211         1.57382
LJ         -0.777409         -1.1867        -2.52533
LJ        -0.0306317         2.01579         1.79921
LJ           1.95227         -2.3615        -0.96996
LJ          0.910238        0.607585       -0.646636
LJ          -2.25371         1.23802        -1.73788
LJ           2.19664        -1.92755        0.111873
LJ           2.34974        0.157741        0.864637
LJ          0.260539         2.19599        0.203448
LJ          -1.40856        0.684476        -1.08636
LJ           1.25183         1.16652        0.350041
LJ          0.956978           0.304         2.11568
LJ          0.139999       -0.967481        0.752403
LJ          -2.40007       -0.640583         2.27263
LJ           1.71114       -0.486768        -2.15369
LJ           2.07104       -0.830117       -0.607034
LJ         -0.196212       -0.209778        -2.48128
LJ          -1.64522         1.52173        0.462086
LJ           1.22348       -0.420614         1.04628
LJ          0.141022          1.5462        -1.21888
LJ          -1.11047        -2.17883         2.33611
LJ          -2.33611        0.749374       -0.795478
LJ           2.14148        -1.01292         1.36946
LJ           1.57599        -2.36635        -1.93985
LJ         -0.345639       -0.127392        0.344623
LJ        -0.0627515        -1.98552         1.00236
LJ           1.99812          1.7875        -2.08879
LJ          0.919139        -1.87824        -2.53962
LJ          0.776811         1.82965         1.01931
LJ          0.743538       -0.678691          2.3349
LJ          -1.09984        0.648033      -0.0517837
LJ         -0.504863          1.5746        -2.09695
LJ          0.599452        0.466207         0.80062
LJ           0.53002       -0.243149      -0.0918577
LJ           1.99951        0.201013        -1.22778
LJ          -1.47499         2.49734         1.22965
LJ           2.03654         1.55914       -0.835163
LJ         0.0667748        -2.24217         2.08944
LJ           1.67254        0.686299        -2.38409
LJ          -2.12236       -0.551645        -1.24196
LJ           2.23538         1.51075         2.09678
LJ        -0.0580453        -2.53428        -1.05847
LJ          -2.14104        -1.97924       -0.987697
