108
#Comment!
LJ          -2.55233        -2.45396         2.51206
LJ          -1.67522        -1.69145          2.3941
LJ          -2.49564        -1.67522        -1.63711
LJ          -1.68538        -2.40323        -1.78002
LJ         -0.860362         2.42947         2.48087
LJ         0.0408307        -2.04031        -2.46707
LJ          -1.02658        -1.50637        -1.56645
LJ         0.0679497         2.21976        -1.65529
LJ           1.00501          2.3725         -2.4876
LJ           1.84844        -1.71701         2.56304
LJ           1.07136        -1.80945        -1.66083
LJ           1.92457         2.55605        -1.54085
LJ           2.41215       -0.859621          2.5404
LJ          -1.76483       0.0210632         2.54445
LJ          -2.55172        0.153022        -1.87068
LJ          -1.67328       -0.465443        -1.46903
LJ          -1.16007       -0.862113        -2.46255
LJ        -0.0222871       -0.203155        -2.36669
LJ         -0.764571        0.045688        -1.69757
LJ         -0.125905         -1.0004        -1.82246
LJ          0.948749        -1.10706        -2.44872
LJ           1.70143       0.0553964        -2.55285
LJ          0.732887      0.00134763        -1.69799
LJ           1.67864       -0.808859        -1.76355
LJ          -2.39074         1.10841         2.42275
LJ          -1.76145         1.83916         2.49459
LJ          -2.48831         1.71177        -1.64703
LJ          -1.51926        0.851235        -1.65089
LJ         -0.662715          1.1023         -2.5156
LJ          0.125386         1.81785        -2.56378
LJ         -0.855175         1.70614        -1.72331
LJ         0.0268379        0.997285        -1.71933
LJ           1.02676        0.833715         -2.4292
LJ           1.83937         1.88586         2.52836
LJ          0.970833         1.71403        -1.64204
LJ           1.82724        0.859665        -1.78135
LJ           2.52807         2.35577       -0.642423
LJ          -1.55274        -1.90488       -0.733643
LJ          -2.39822        -1.77845       -0.129716
LJ          -1.72377         2.41958       -0.110474
LJ          -0.69041        -2.48177       -0.953219
LJ          0.107059        -1.75204       -0.896081
LJ          -0.48157        -1.69357      -0.0329396
LJ         -0.276304         2.36205        0.201587
LJ          0.745361        -2.51836        -0.97158
LJ            1.7735        -1.63232       -0.943603
LJ          0.605915        -2.00661       0.0939494
LJ           1.69545        -2.29134      -0.0521595
LJ          -2.38165       -0.894826       -0.712021
LJ          -1.81502       0.0299054       -0.583543
LJ           2.45751       0.0504234       0.0422671
LJ          -1.62776       -0.856881       0.0484499
LJ         -0.575069       -0.831525       -0.778649
LJ        0.00253406        0.239327       -0.872159
LJ         -0.934516      -0.0822925       -0.025867
LJ         0.0814653        -0.81125        0.233889
LJ          0.873722       -0.997999       -0.770472
LJ           1.90787       -0.136476       -0.813713
LJ          0.806057       0.0626238      -0.0041296
LJ           1.65293       -0.910799       -0.133235
LJ          -2.39309        0.901674        -0.95634
LJ          -1.61455         1.75667        -0.87298
LJ           2.50687          1.6539          0.1631
LJ          -1.95457        0.973401      -0.0518645
LJ         -0.968352         0.74506       -0.793024
LJ        -0.0321629         1.64033       -0.819176
LJ         -0.824706         1.48753      -0.0814406
LJ        -0.0514639        0.844598        0.065494
LJ          0.836608        0.930911       -0.616254
LJ           1.68401         1.64884       -0.911248
LJ          0.818345         2.03232     -0.00887201
LJ           1.72515        0.796941       -0.178102
LJ           2.41201         2.53206        0.859976
LJ          -1.47149        -1.69295        0.679782
LJ           2.48043        -1.51719         1.70983
LJ          -1.97453         2.50528         1.60137
LJ         -0.761994        -2.49012         1.17778
LJ          0.144283        -1.56704        0.911653
LJ         -0.890148        -1.64929         1.72186
LJ          0.115837        -2.33838          1.7171
LJ          0.977353         2.43781        0.849614
LJ           1.98281        -1.54321        0.705335
LJ           0.96921        -1.74849           1.661
LJ           1.68246        -2.53778         1.63305
LJ           2.53177       -0.642524        0.989616
LJ          -1.66652      -0.0923069        0.921948
LJ           2.49895       0.0495213         1.91305
LJ          -1.70879       -0.988682          1.5866
LJ         -0.710236       -0.930459        0.971913
LJ         0.0631245     0.000956267         1.07916
LJ         -0.867585        0.157853         2.07619
LJ          0.076567       -0.915312         1.82121
LJ           1.05022       -0.987935        0.746742
LJ           1.64573       -0.131201        0.721947
LJ          0.759247      -0.0399852         1.83623
LJ           1.60524       -0.853202         1.70903
LJ           2.46678        0.753149        0.948343
LJ           -1.4719         1.83848        0.778452
LJ           2.44992          1.6588         1.57238
LJ          -1.63005        0.982327         1.57088
LJ         -0.991613        0.618837        0.815326
LJ          0.258765         1.51769        0.823579
LJ         -0.814223         1.60949         1.61141
LJ        -0.0829692        0.837503         1.56131
LJ          0.888151        0.671524        0.860941
LJ           1.70237         1.76289        0.717174
LJ           0.86721         1.56377         1.79387
LJ           1.81333        0.837132         1.77277
