108
#Comment!
LJ           1.47849        -0.29276         1.09245
LJ           2.43391        -1.04839        0.932181
LJ         -0.441227        0.435081         1.76237
LJ           0.11629       -0.289672         -1.1679
LJ          0.948683         1.11923         1.26329
LJ           2.02439         2.36459       -0.369562
LJ          0.932694      -0.0879375        -1.75622
LJ           1.81108        0.912705          0.3699
LJ           1.56421        0.988896         2.33975
LJ          -1.17931         1.23478          1.1914
LJ           1.60299        -0.27364        -0.35996
LJ          0.170588      -0.0700879         1.06468
LJ          -1.49605        -1.54956       -0.812602
LJ           1.13751         2.18356          1.8814
LJ           2.54337        0.278353         1.29875
LJ         -0.847092       -0.996667      -0.0819006
LJ          -1.01283        -1.80861         2.10064
LJ          -2.11595        0.741536        0.323728
LJ       -0.00987504        -2.50418         2.36729
LJ           2.47574       -0.711592       -0.807328
LJ          0.417497         1.72175         -2.3486
LJ         -0.716451         1.56086       -0.711164
LJ         -0.687719        0.416643         -1.0698
LJ          -1.26712       0.0968161        -2.00753
LJ           1.48486       -0.814154        -1.28857
LJ          -1.84411         2.50649        0.844707
LJ           2.20016        -1.45247       -0.204861
LJ         -0.209193      -0.0549524        -2.24255
LJ          0.638085         2.06679        0.942127
LJ          -1.01157         -1.0162        -2.36871
LJ           1.69897        -1.91381        -1.34261
LJ          -2.18697        -1.98841        -2.35603
LJ           2.52247        -0.87621        -1.79134
LJ        -0.0647319        -2.41121        -0.99765
LJ          -2.09911        -2.09107       -0.140671
LJ         -0.472408         2.10796         1.33587
LJ            1.6706         1.91781        0.555788
LJ         -0.589845       -0.497807         1.47843
LJ           1.57507        -1.28342        -2.19259
LJ          0.812978        0.100322        0.334777
LJ           1.19382         -1.9486       -0.482935
LJ          -1.91203        -1.04054       0.0215837
LJ         -0.872504       -0.581687        -1.02354
LJ          -1.63088         1.40787        -2.47698
LJ           1.20081        -2.16775        0.834206
LJ          -1.39514         2.45573       -0.558207
LJ         -0.384071        0.978783         -2.5178
LJ           1.56548     -0.00305665         2.02008
LJ          0.106366        -1.99598         1.28157
LJ          0.826606        -1.88565         2.40876
LJ          -1.54773       0.0332653         1.83455
LJ          0.207318         1.34918         1.83527
LJ           1.62552         1.92734        -2.21578
LJ         -0.332488          2.2075        0.167274
LJ          -2.09018         1.49655         1.53863
LJ           2.54637         1.30473         -1.6642
LJ         -0.780875         1.92199         2.25778
LJ         -0.376538        -1.34836        -1.63263
LJ           1.26404        -1.07841          0.3303
LJ           1.03886         1.02846        -1.67186
LJ          -1.85109        -1.58296        0.888722
LJ          0.404625       -0.991023        -2.19294
LJ          -1.26757         1.81433        0.345174
LJ          -2.49804        0.518449         2.35352
LJ          -2.53849       -0.157203      0.00440602
LJ           1.06383        0.592355       -0.783943
LJ          -1.02508        0.547247        0.189145
LJ          0.866256       -0.766094         1.66046
LJ          -1.13814        -2.06857        0.265836
LJ          -2.31494        0.178717        -1.63528
LJ           1.79285        -2.31273        -2.53608
LJ          -1.40025         1.31063        -1.41986
LJ          0.587873         1.80873       -0.919602
LJ          -2.42447         1.71597        0.431812
LJ           2.43159         2.31976        -1.57963
LJ         -0.896334         -1.4427          1.1104
LJ          0.712819        -1.75185        -1.54734
LJ          -1.71683      -0.0625997       -0.583073
LJ         -0.120153        -1.21942         1.99847
LJ         -0.169319       0.0425766         0.07311
LJ          -1.72324       -0.834923        -1.53974
LJ           0.13463        0.998575       -0.409414
LJ            2.2739        -2.08404        0.763296
LJ         -0.130294         1.05508        0.646145
LJ           1.77613        0.280865         -2.0042
LJ           2.18804         2.26034         1.37453
LJ           2.54409       -0.660663         2.18137
LJ          0.562929       0.0927362         2.30753
LJ          0.416034        -1.22492       -0.730081
LJ          0.333027        -1.81282        0.136969
LJ           2.51293        -1.97174         1.82277
LJ         0.0973607       -0.888927         0.44162
LJ          -2.55053         2.03731         2.26426
LJ          -1.53029       -0.960185         1.91655
LJ          -2.26561        -1.90692        -1.28833
LJ           2.09484         1.22544         1.34753
LJ           1.71173         1.52017       -0.790878
LJ         -0.513345         1.89521        -1.79284
LJ           1.60513        -1.62957         1.69106
LJ          -1.56377       -0.550314        0.909897
LJ          0.909991         1.19179        0.227637
LJ          0.849421         2.40103      -0.0216569
LJ           -1.9922         1.38404       -0.663301
LJ           2.20569        0.526795       -0.659203
LJ           1.25556         2.32746        -1.39314
LJ          -1.68884        -2.49169         1.88022
LJ          -1.57094          2.3281        -1.98955
LJ          0.137643        0.773115        -1.52755
