108
#Comment!
LJ         -0.986061         1.68593         1.31547
LJ           1.55643         1.21051        -1.31021
LJ          -1.96968         1.20035         2.56377
LJ         -0.541598         1.64956        0.352082
LJ          -1.05854        -1.60856        0.204222
LJ          -2.07729        -2.40032        -2.47612
LJ           2.50911       -0.134041         1.03895
LJ           1.22947        0.581738        0.872652
LJ           2.33094        -2.22412         0.57568
LJ         -0.032006         1.17287          1.2251
LJ           1.71222       -0.927185          -1.005
LJ          -1.83055       -0.551458         1.44702
LJ          -1.93749        -1.58191        0.746666
LJ           1.17871       -0.131353       -0.174317
LJ           2.16394       -0.157564       -0.252401
LJ          0.528554         2.20355       -0.468615
LJ         0.0944083        -1.94925          1.8794
LJ          0.739983        0.824161         2.08872
LJ           1.51383        -1.66147        -2.06343
LJ          -2.16817         1.36993         1.53533
LJ         -0.449466       -0.714342        -1.90378
LJ          0.479526         1.09772        -2.08602
LJ          -2.50698          1.7777        0.322998
LJ           1.97132         2.44612        -2.07861
LJ         -0.282866       -0.770381       -0.316538
LJ          -2.29268        -1.34958       -0.466154
LJ          0.507132        -1.73949         -2.1931
LJ          -0.14662       -0.455663         1.48343
LJ          0.677016       -0.825218       -0.887819
LJ         -0.886108       -0.657951         2.39863
LJ          -0.14375        -1.61077        -1.39825
LJ           2.55532         1.48905        -1.63803
LJ          0.265483        -2.06705        0.426736
LJ           1.73809        0.791871       -0.333352
LJ         -0.966312         -2.1061         1.94913
LJ           1.33409         -2.1868       0.0551321
LJ           -1.5969        -1.34488        -2.08763
LJ         -0.714295         1.61631        -1.95636
LJ           -2.3136       -0.694228        -1.17528
LJ          -1.92124       -0.573457       0.0883668
LJ            1.1865         0.22781         -1.0826
LJ          -1.10935        -2.44622        -1.87744
LJ          -1.35725         2.02882         2.38718
LJ         -0.688679        0.315877         1.30727
LJ         -0.270158         0.22636          2.4067
LJ           1.42332         1.59504         -2.4823
LJ          0.859654       -0.647453        -1.89354
LJ           -1.0438       -0.465871        0.679811
LJ           1.31898       -0.481916        0.809253
LJ          0.867254        -1.19166        0.214743
LJ          0.247486       -0.773393         2.36013
LJ           1.21747        -1.76817          1.0787
LJ           2.21077        0.888212        0.930121
LJ          -1.84963         1.06939        -0.87465
LJ           2.55488         2.01041       -0.744248
LJ           1.63037         1.96436        -0.21392
LJ         -0.248991         2.35479           2.357
LJ          -2.30056        0.648679       0.0170665
LJ          0.853631         1.79674         1.75611
LJ         0.0311144        0.145972        -1.60953
LJ           -1.8402        -2.25419      -0.0539625
LJ          0.744848         2.23075        0.610957
LJ          -1.11234         2.11732       -0.963356
LJ          -2.02689        -2.53305         1.60275
LJ          -1.28815        -1.24033       -0.897311
LJ           1.13027        -2.45978         2.50165
LJ           2.35549         1.87272         2.23236
LJ           2.32431        0.444034        -1.08863
LJ         -0.551537        -1.62099         -2.3895
LJ           0.51078         1.17499       -0.919785
LJ           2.44337        0.538224        -2.20687
LJ          -1.57382         1.45186        0.155986
LJ           1.21739        -2.08486        -1.07472
LJ          -1.76405        -1.58568         1.84442
LJ         -0.494457        -2.48827       -0.123623
LJ           -1.0681        0.460089        -1.91159
LJ          -1.98255        -2.20884        -1.20004
LJ           1.50446         -1.1817         1.88053
LJ          0.566098         1.26113        0.300339
LJ          -1.31847         -2.5438        0.793431
LJ         -0.531625        -1.52352         1.18295
LJ          0.103499       0.0934721       -0.509014
LJ           2.53881        -1.31785        -2.41223
LJ           1.56391      -0.0873811         1.83535
LJ           1.29792        0.504341        -2.16742
LJ         -0.807974         1.27903       -0.571664
LJ           1.86913        0.975671         2.07322
LJ           1.92543        -2.36876         1.56109
LJ           2.49537       -0.264913          2.1266
LJ          -1.33841        0.302289     -0.00459582
LJ          -1.17664       -0.158229        -0.97671
LJ         -0.151328         2.29725         1.09687
LJ          -1.03143         1.03153         2.07849
LJ          -0.30819        0.660051        0.193535
LJ           1.04341         2.13448        -1.67121
LJ          -1.73923        0.509345         1.07135
LJ          0.265998        -1.78317       -0.560968
LJ           2.22898        -2.26044       -0.532139
LJ             1.808         1.84198         1.18785
LJ        -0.0806173         1.40784         2.15162
LJ           2.50638        -1.25971          1.4865
LJ          -1.85565      -0.0868122        -1.78968
LJ         -0.181472         2.50937        -1.41006
LJ           2.42587        -1.61186        -1.39596
LJ          -1.61879        0.202044         2.25062
LJ           1.89798       -0.317443        -2.00674
LJ           2.07336        -1.19023        0.251593
LJ          0.143605       -0.214966        0.568468
