108
#Comment!
LJ          0.832923        0.976414        0.716743
LJ          -1.73055         2.01685        -1.78032
LJ         -0.156998       -0.440485         2.15381
LJ         -0.499874         -2.1816       0.0120369
LJ         -0.705393        -2.01345         1.00965
LJ          -1.64267         1.46691         2.52094
LJ          -1.06859        -1.21758        0.326575
LJ          0.287925       -0.886685         1.14837
LJ         -0.939089          1.7997        0.492911
LJ           1.48043       -0.722574        0.890882
LJ           2.35455         1.22853       -0.800485
LJ           2.35985        -2.12846         1.64117
LJ          -1.67092        -1.66246         1.22428
LJ            1.8156       0.0945701       -0.350502
LJ          -1.98309       -0.647495        -1.22702
LJ          -2.10782        -2.14573        -1.03253
LJ          -0.82085         -1.7951         2.19221
LJ           1.13646        0.162315        -1.10027
LJ           2.29607        0.232722        -2.51782
LJ         -0.371501        0.880804         1.86864
LJ          -1.32877        0.121481         1.89406
LJ          -1.78044         1.12517        -1.17685
LJ           2.15165        0.848252        0.128773
LJ           2.25863         2.27581        -1.58184
LJ          0.227084      -0.0812319        -1.83219
LJ          -1.11542         2.54798        -1.12515
LJ          0.162909       -0.267128       -0.769564
LJ          0.818602       -0.216305           0.436
LJ           1.39265         1.68291        0.107341
LJ          0.484039        -1.21758         2.48071
LJ          -1.39856        -1.81085        -1.84275
LJ         -0.801467         0.13071        -2.25101
LJ            1.3993        -1.39116       0.0286099
LJ          -2.34089        0.318621       -0.702752
LJ          -1.83686         2.49601         2.00699
LJ          -1.65358         2.53515        0.582634
LJ         -0.764685       -0.777347         1.25166
LJ          -1.06066         2.41228        -2.44932
LJ           2.16512        0.609766        -1.54026
LJ           0.24169        0.341078         1.15361
LJ          -1.86916        0.577531        -2.10197
LJ         -0.893238         1.49057       -0.675041
LJ          0.265884         1.67893         1.51578
LJ         -0.202753        -1.21433       -0.256297
LJ           1.06826       -0.221417         2.12203
LJ           1.32617        -1.95619       -0.749856
LJ           1.04591       -0.721125        -1.73544
LJ         -0.809917         -0.4484       -0.531281
LJ          -1.96935        -1.49509      -0.0420563
LJ          0.157746        -1.30061        -1.70134
LJ           1.22301        0.457375        -2.10121
LJ           2.18935       -0.877427        0.175871
LJ          -1.91046        -0.49332       -0.174664
LJ         -0.141943         1.18093        0.406216
LJ           -1.9602         1.22655       -0.075864
LJ           2.53163         1.96632        0.498401
LJ          0.572515         2.13668        -1.84973
LJ          0.422001        0.552644       -0.282595
LJ           1.81184         1.00387         2.29628
LJ          0.237745         1.00938        -1.18021
LJ          -1.17833         -1.5442       -0.684966
LJ           1.86951         1.23962        0.983366
LJ          0.914827        -2.00287        -1.68343
LJ          -1.78504          1.5837          1.2112
LJ          -1.11006       -0.773834         2.40926
LJ           1.94864        -1.62092         -2.0563
LJ          -2.41866        -2.35239        -2.27783
LJ           2.53173         1.43916        -2.10583
LJ           1.47526        -1.67107         1.94759
LJ           1.37134        -2.37655        0.217087
LJ           1.78408         2.54966         2.47079
LJ         -0.125255        -2.25317        -2.18508
LJ          0.494654         -2.4675       -0.396051
LJ           -1.8575        -1.64307         2.29644
LJ          0.632401        -1.12602       -0.883943
LJ         -0.521174         1.65742        -2.19558
LJ          -1.73617         2.13021       -0.439786
LJ          0.318276        -1.83155         1.54976
LJ           1.31099         1.80744         1.95541
LJ         -0.246956         2.38987         1.93311
LJ          -1.63517       -0.221466        0.883613
LJ           1.30275          1.0168       -0.652952
LJ            2.3985        -1.09536         1.75382
LJ          -2.14468        0.658361        0.910055
LJ           1.45084         1.43093         -1.9073
LJ         -0.021935         2.24977        0.736985
LJ          0.938068         0.76647         1.81655
LJ           2.41462         1.76796         1.68201
LJ           1.77742        0.255197         1.33146
LJ         -0.268012         -0.2474        0.392173
LJ         -0.549521        0.473791       -0.836712
LJ          0.819854        -2.48504         2.28239
LJ           2.04497         2.29917        -0.47477
LJ           0.45782        -1.65134        0.521965
LJ         -0.238367         2.06039        -1.18818
LJ          -1.20257        0.360057       0.0405331
LJ         -0.790318        -1.00184        -1.69763
LJ           2.13525       -0.416019        -1.32684
LJ           1.29709        -2.54154         1.26473
LJ          0.286904        0.879019        -2.39248
LJ           2.44911        -1.99296        0.619355
LJ          -2.18823        0.845518         1.96722
LJ          0.180896          1.7203       -0.371677
LJ         -0.169498        -1.91873       -0.961683
LJ         -0.949628        0.452288        0.954372
LJ          -2.48493        -0.82226        -2.28339
LJ           2.30378        -1.41471       -0.721946
LJ           1.08947          2.1397       -0.976631
