108
#Comment!
LJ          -2.54866         -2.3685         2.39485
LJ          -1.77736        -1.60754         2.43931
LJ          -2.38166        -1.55501        -1.65378
LJ          -1.73854        -2.53159        -1.59907
LJ          -0.78884         2.34235         2.53156
LJ         0.0420369         -1.8333        -2.42529
LJ          -1.12064        -1.54667        -1.77792
LJ        -0.0499768         2.20676        -1.86331
LJ          0.775848        -2.55866         2.50175
LJ            1.7794        -1.64681         2.48724
LJ          0.761101        -1.96012        -1.69169
LJ           1.98063         2.37108        -1.82101
LJ           2.53682       -0.846839         2.51571
LJ          -1.71712         0.11531        -2.53653
LJ            2.5045         0.10701        -1.82432
LJ          -1.82844       -0.503165        -1.62919
LJ          -0.99242       -0.779552        -2.36576
LJ        -0.0574318       -0.176564        -2.50165
LJ         -0.993485       0.0747573        -1.75283
LJ         -0.130557        -1.11126        -1.79341
LJ          0.795847        -1.09986         2.55507
LJ           1.71396       0.0575905          2.4599
LJ          0.925621       0.0426171         -1.8715
LJ           1.70218       -0.717105        -1.72067
LJ          -2.51394        0.909634        -2.47239
LJ          -1.68396         1.81366          2.3963
LJ          -2.42241         1.54053        -1.62947
LJ          -1.73544        0.903172        -1.76682
LJ         -0.496966         0.90688         2.55316
LJ          0.108005         1.73903         2.38091
LJ          -1.16567         1.72042        -1.82286
LJ          0.150997         1.07476        -1.78447
LJ          0.894841        0.972643         2.53344
LJ           1.70159          1.7649         2.38819
LJ          0.935897         1.93719        -1.91347
LJ           1.68053         1.08035        -1.65598
LJ           2.48309         2.34836       -0.759335
LJ          -1.52275        -1.69564        -0.76346
LJ          -2.39877         -1.8335       -0.121529
LJ          -1.79213         2.39573      -0.0321599
LJ         -0.690793         2.54939        -1.06962
LJ          0.156265        -1.72503       -0.787247
LJ         -0.728367        -1.95965       -0.199622
LJ         -0.221826         2.31617       0.0745161
LJ          0.853383        -2.52209       -0.932307
LJ           1.78817        -1.74199        -1.06836
LJ          0.776226        -1.89904        0.285892
LJ           1.68562        -2.50385       -0.141558
LJ          -2.44017       -0.962211       -0.751532
LJ          -1.89887      -0.0576081       -0.725626
LJ           -2.5336        0.167801       0.0802282
LJ          -1.68837       -0.676312        0.144901
LJ         -0.725957       -0.829015       -0.692586
LJ        -0.0880756        0.193409         -1.0258
LJ         -0.632221       0.0938775      -0.0652073
LJ       -0.00948418       -0.710825        0.121864
LJ          0.957699        -1.06401       -0.846113
LJ           1.89916       -0.236487        -0.61448
LJ          0.754341      0.00691035        0.097198
LJ           1.91444        -1.08051       -0.119575
LJ           2.52041        0.913931       -0.801035
LJ          -1.63051         1.85611       -0.858026
LJ           2.44528         1.67339      -0.0420559
LJ          -1.91478         1.08465          0.3574
LJ          -1.07184        0.751612       -0.925303
LJ         0.0969346         1.64135       -0.955997
LJ         -0.834666          1.5348        -0.20545
LJ        -0.0412213        0.889202       -0.124638
LJ          0.948216        0.875807       -0.779921
LJ           1.64702         1.72831       -0.657605
LJ          0.790462         1.94596      -0.0723987
LJ           1.72968        0.788255      -0.0836645
LJ           2.45213         2.40313        0.647498
LJ          -1.33695        -1.78762        0.680626
LJ           2.48571        -1.39613         1.64367
LJ          -1.99488        -2.35296         1.43135
LJ         -0.770923         2.55688        0.970932
LJ          0.141933        -1.45659         1.00938
LJ         -0.887806        -1.82954         1.85598
LJ         0.0291086        -2.39838         1.70815
LJ          0.707291         2.36335          1.0222
LJ           1.80375        -1.63248        0.909805
LJ          0.932466        -1.82198         1.75847
LJ           1.79567        -2.44957         1.64761
LJ           2.54746       -0.649048        0.804214
LJ          -1.53834       0.0878034        0.854261
LJ           2.48449       0.0671169         1.71136
LJ          -1.78099       -0.787497         1.76901
LJ         -0.805817        -1.00254          1.0997
LJ          0.212002       -0.199378         1.08603
LJ         -0.949808        0.174508         1.94392
LJ          0.140821        -0.86136         1.85025
LJ            1.0021        -0.95295        0.830727
LJ           1.67496       -0.129789        0.616859
LJ          0.567721       0.0346918         1.94181
LJ           1.53756       -0.874445         1.80343
LJ           2.25023        0.799453         0.85962
LJ           -1.5935         1.92142         1.03733
LJ           2.40052         1.66789         1.47968
LJ          -1.81409        0.845104         1.49215
LJ         -0.815189        0.753268        0.770361
LJ          0.248548         1.38426        0.847113
LJ         -0.853301         1.42284         1.61697
LJ          0.150571         0.88557         1.70221
LJ           1.20878        0.739512        0.956643
LJ           1.50746         1.75078        0.640064
LJ           1.00239         1.55993         1.56937
LJ           1.70731        0.796874         1.82893
