108
#Comment!
LJ           1.45347        0.141056        -1.84514
LJ          -2.47847       -0.573268        -1.83313
LJ         -0.134909         2.24491         1.94529
LJ          -1.41936        -1.60368        -2.36052
LJ          -2.22807         1.37018        -1.65747
LJ           2.41373         0.44672        -1.96698
LJ           1.74641       -0.784313        -2.24036
LJ           1.60675        0.531469        0.450968
LJ          0.699678         1.22754        -1.35419
LJ           1.78064         -2.4433        0.382132
LJ          -2.11415        -2.37967       -0.841008
LJ         -0.917009        -2.24654         1.96374
LJ           2.30701        -1.37384       0.0449059
LJ         -0.710819       -0.171868         1.12063
LJ          0.867586         2.29958        0.593435
LJ           2.11501         2.33134        -1.78643
LJ          0.935425        -1.44338       -0.555891
LJ          0.193685       -0.737995       -0.118222
LJ          -1.25025           1.181       -0.949456
LJ          -1.82362          1.5268         1.04556
LJ          -1.34686        0.693973         1.48901
LJ         -0.212017         1.64511         1.01041
LJ          0.883625       -0.612437        -1.24107
LJ         -0.396176         2.00306        -0.98838
LJ           1.24471        -1.40513         2.02459
LJ          0.820454        -2.40092         1.93481
LJ          -2.48277        -2.47832         1.24862
LJ          0.140423        -1.66013         1.90486
LJ            1.8544        -1.84054         1.28062
LJ           2.02135         1.84208        -0.65961
LJ          -2.20976       -0.160158         1.21897
LJ            2.3028          1.3812        -2.55222
LJ           1.54206         2.24263         2.40703
LJ           -1.5033         2.10647        -1.37264
LJ        -0.0161771        -1.21284        -1.19497
LJ           0.73475         1.62615         2.06818
LJ           -1.9703         2.34733        -2.31155
LJ         -0.838382        -1.87006        -1.17798
LJ            1.9156       -0.745779         1.02612
LJ           1.88378         1.24563        -1.49121
LJ           2.50082        0.468716       -0.900465
LJ         -0.703856        0.325306        -1.72058
LJ           1.41517         1.60388        0.172296
LJ          -1.88972        0.208568         2.37416
LJ           2.44496        0.673037          1.6795
LJ          -1.78121        0.304654        -1.46753
LJ           1.52833        -1.92713        -2.14328
LJ           1.24837         2.09488        -1.29114
LJ          0.495921        0.211379       -0.492948
LJ         -0.277288        -2.23211         1.10733
LJ          -1.36947       -0.539684        -1.83677
LJ          -0.96141         1.30675         2.54646
LJ        -0.0760833        -2.32828      -0.0689621
LJ          0.279295         -1.4253        0.621641
LJ           1.43491        0.885831       -0.512552
LJ          0.436124         2.15212        -1.96914
LJ           1.86201         1.61409          1.5138
LJ          -1.68147        -1.37046       -0.133586
LJ          -2.23456       -0.603219       -0.793369
LJ          0.924559      -0.0150961         2.39094
LJ          0.416736        0.273465        -1.57507
LJ          -1.04942         1.84885         1.74963
LJ         -0.744934       -0.546518        -0.97569
LJ         -0.824955         2.23503        -2.08905
LJ           2.36767         1.34777        0.466946
LJ          -1.69207         0.56754       -0.297704
LJ         -0.668674        0.159351         2.40591
LJ            1.9783       -0.400393        -1.11623
LJ        -0.0756582         1.08483        -2.12508
LJ          0.310958        0.784653         1.91433
LJ         -0.868299         1.01805        0.609174
LJ         -0.982401        -1.37046        0.839999
LJ           2.03722        -1.40255        -1.24645
LJ         -0.591619       0.0332769      -0.0397337
LJ          -2.15366        -1.15543          1.0414
LJ         -0.260167       -0.762804        -2.42613
LJ           1.30602        -1.43517        0.498879
LJ           2.31531        -2.21255         2.26074
LJ           2.20224       -0.290102         2.11414
LJ           0.11466          -2.239        -1.09643
LJ          -2.43633        -1.29175         2.31257
LJ           2.46387       -0.372733        0.233181
LJ          -2.26898        -1.81743        -1.92384
LJ          0.872937         1.33088         1.09501
LJ         -0.550643         1.82419      -0.0558741
LJ        -0.0439958        -1.91578        -2.11938
LJ          0.298653         1.14754         0.15865
LJ         0.0780901       -0.482243         1.70972
LJ          -2.26157         -2.2406         0.19089
LJ          0.472365         2.03254        -0.49913
LJ          -1.74316        -1.76088         1.74968
LJ          -1.56603       -0.442728         0.41483
LJ          -1.36141         2.36944        0.659081
LJ           1.42836       -0.502182       -0.139668
LJ           1.73727         -2.2633       -0.682084
LJ           1.12408        0.934396        -2.39296
LJ          -0.28479         0.85215       -0.561712
LJ          0.737756       -0.931358        -2.24302
LJ         -0.758359         -1.0317         1.88726
LJ          -1.72953       -0.702657         1.97142
LJ           1.41083        0.540691         1.62028
LJ          -1.25157        -2.42165       -0.251708
LJ          -1.93553         0.62792        0.640642
LJ          -1.67391        -1.38415        -1.24631
LJ          -1.88739         1.42697         2.14181
LJ         -0.583921         -1.4272         -0.1302
LJ          -2.03218         1.83699       -0.210822
LJ          0.704116      -0.0254745        0.745176
