108
#Comment!
LJ           2.51672        -2.43449          2.5558
LJ          -1.74489        -1.65383          2.4299
LJ           2.51859        -1.73091        -1.71417
LJ          -1.82089        -2.43275        -1.66048
LJ         -0.814623         2.52714         2.48155
LJ         0.0184729        -2.03695        -2.50585
LJ          -1.08164        -1.49544        -1.59469
LJ         0.0267666         2.29632         -1.7389
LJ           0.94889         2.46631         2.51692
LJ            1.7259        -1.82032         2.52989
LJ          0.928772        -1.77791        -1.78537
LJ           1.90134        -2.55468        -1.67942
LJ           2.48995       -0.840802         2.54719
LJ          -1.90453      -0.0431558         2.53852
LJ            2.5055        0.152236        -1.98456
LJ          -1.72696       -0.533653        -1.50356
LJ          -1.17213       -0.814653        -2.45918
LJ         0.0243789       -0.189825        -2.50394
LJ         -0.728714       0.0621592        -1.81139
LJ          -0.10051        -1.16226        -1.93707
LJ          0.860386        -1.12527        -2.55806
LJ           1.63173       0.0142645        -2.52221
LJ          0.827354       0.0953598        -1.79513
LJ           1.68784       -0.744146        -1.68144
LJ          -2.42727         1.00998         2.47237
LJ          -1.68407         1.93378        -2.54691
LJ          -2.51295             1.7        -1.66243
LJ          -1.59224        0.817911         -1.8322
LJ         -0.638356         1.05911         2.50813
LJ          0.157107         1.80939         2.47758
LJ         -0.897177         1.64327        -1.74488
LJ         0.0412055         1.02758        -1.84232
LJ          0.970726        0.930797        -2.54962
LJ            1.9339         1.82761         2.48764
LJ          0.908869         1.86694        -1.63624
LJ           1.67617         0.89179        -1.68678
LJ           2.34617          2.3816        -0.76005
LJ          -1.51447        -1.77414       -0.768984
LJ           -2.4331        -1.85341      -0.0657322
LJ          -1.60562         2.52502      -0.0257107
LJ         -0.854684        -2.55863        -1.10148
LJ          0.146664        -1.72296       -0.889621
LJ         -0.532426        -1.77285      -0.0246241
LJ         -0.224879         2.38701       0.0660935
LJ          0.900538        -2.51457        -0.88526
LJ           1.76944        -1.72722       -0.942089
LJ          0.652921        -1.95806        0.118153
LJ           1.68346        -2.37017      -0.0236097
LJ          -2.52745       -0.949048       -0.677006
LJ          -1.92149        0.108425       -0.748147
LJ          -2.56045        0.109284       0.0542999
LJ          -1.70352       -0.940645      -0.0171256
LJ         -0.620796       -0.893559       -0.669216
LJ        -0.0772724        0.270118          -1.022
LJ         -0.777796       -0.101085      -0.0625905
LJ          0.151725       -0.732704        0.228912
LJ          0.812666       -0.951101       -0.622025
LJ           2.05269       -0.093463       -0.872608
LJ           0.68692       0.0846073      -0.0260272
LJ           1.74729        -1.01742       -0.138612
LJ          -2.47409          1.0481       -0.876728
LJ           -1.5601         1.79741       -0.822564
LJ           2.37007          1.7636        0.071896
LJ          -1.98356        0.975007        0.118257
LJ          -1.06717        0.648041       -0.953087
LJ         0.0586175         1.83694       -0.878872
LJ         -0.804242          1.5319       -0.096605
LJ        -0.0164979         0.88535       0.0173895
LJ          0.743793        0.965928       -0.665079
LJ           1.59805         1.63534       -0.912304
LJ          0.787137         2.00124       -0.109527
LJ           1.67952        0.822947       -0.200236
LJ           2.46126         2.37349           0.856
LJ          -1.41938        -1.84364        0.724033
LJ           2.53834        -1.60412         1.79802
LJ          -2.01278        -2.48947         1.65085
LJ         -0.683831         2.53957         1.13729
LJ           0.16005        -1.62561        0.901827
LJ           -0.8913        -1.78462         1.72928
LJ          0.123744        -2.34758         1.71586
LJ          0.878228         2.29581        0.921094
LJ           1.97383        -1.55422        0.701297
LJ          0.970877        -1.77902         1.73091
LJ           1.69116        -2.50304         1.67197
LJ            2.4675       -0.612246        0.941875
LJ          -1.73497       0.0610808        0.795458
LJ           2.51362      -0.0253029         1.78032
LJ          -1.88337       -0.797245         1.71307
LJ         -0.732194       -0.875252         1.03061
LJ        -0.0125147      -0.0527996        0.982036
LJ         -0.851138        0.181764         1.93768
LJ          0.224425       -0.942257         1.85006
LJ           1.03219        -1.02687        0.715883
LJ           1.59795       -0.194724        0.735615
LJ          0.865291       0.0525852         1.92856
LJ            1.5579       -0.881483         1.79057
LJ           2.35093        0.704924        0.811287
LJ          -1.43678         1.99711         0.80918
LJ           2.47995         1.65423           1.595
LJ          -1.79182        0.945115         1.60319
LJ         -0.855915          0.6592        0.851697
LJ          0.259922         1.48902        0.737353
LJ         -0.845526          1.6172         1.58062
LJ       -0.00883693        0.826811         1.57129
LJ          0.985069         0.79112        0.837419
LJ           1.56864         1.68755        0.566583
LJ          0.856889         1.60223         1.72421
LJ           1.89148        0.822704         1.77149
