108
#Comment!
LJ           2.50361         -2.5453         2.52121
LJ          -1.78106         -1.6985         2.48637
LJ          -2.51663        -1.73583        -1.62703
LJ          -1.75855        -2.43664        -1.78843
LJ         -0.955255         2.43242          2.5215
LJ        0.00503791        -1.98091        -2.49241
LJ         -0.897866        -1.58344         -1.6042
LJ         0.0832224         2.26776         -1.7161
LJ           1.00928         2.42696        -2.35436
LJ           1.81886         -1.7303         2.49154
LJ          0.927878        -1.74271          -1.667
LJ           2.05542        -2.50684        -1.48394
LJ           2.45181       -0.816192        -2.50132
LJ          -1.77628      0.00750308        -2.55868
LJ          -2.53228        0.197971        -1.74768
LJ          -1.62172       -0.566385        -1.36362
LJ          -1.17625       -0.850531        -2.45128
LJ         -0.136776       -0.257718        -2.44334
LJ         -0.805675        0.139757        -1.84578
LJ        -0.0846513       -0.972948         -1.7703
LJ           1.04918        -1.09949        -2.48721
LJ           1.62542        0.108615         2.52437
LJ          0.765877      -0.0940335        -1.52907
LJ           1.69618       -0.817284        -1.67263
LJ          -2.46937         1.06599         2.31962
LJ          -1.76353         1.81396         2.54871
LJ          -2.51671         1.69691        -1.74178
LJ          -1.66065        0.968103        -1.86801
LJ         -0.700866         1.08896        -2.48957
LJ         0.0957762         1.85725        -2.56297
LJ         -0.772521         1.73377        -1.75653
LJ         0.0483685        0.845044        -1.87457
LJ          0.862745        0.823423        -2.43327
LJ           1.78532         1.84177         2.40196
LJ          0.950763         1.59957        -1.58598
LJ           1.82025        0.803085        -1.78087
LJ          -2.50447         2.46325       -0.733703
LJ          -1.46807        -1.82772       -0.723096
LJ            2.5585        -1.74893       -0.199035
LJ          -1.69353          2.4443       -0.089277
LJ         -0.696884         2.53339       -0.938146
LJ         0.0109207        -1.73498       -0.928108
LJ           -0.5986        -1.78478        0.117862
LJ         -0.185023         2.29027        0.113028
LJ          0.846316        -2.46106       -0.953343
LJ           1.78566        -1.65634       -0.833152
LJ          0.724639        -1.94335       0.0889628
LJ           1.64027        -2.37533      -0.0765165
LJ          -2.52748        -0.91333       -0.763469
LJ          -1.93407        0.107099       -0.694913
LJ            2.4064      -0.0253809      -0.0534749
LJ          -1.61109       -0.897822       0.0125833
LJ         -0.653814       -0.818622        -0.85071
LJ        -0.0114358        0.177866       -0.949754
LJ         -0.781772      -0.0628913      -0.0276043
LJ         0.0787274       -0.786881        0.163472
LJ          0.754411       -0.866198       -0.767517
LJ           1.83141       -0.154644       -0.866736
LJ          0.729274       0.0375834       -0.140673
LJ           1.70688       -0.917252      -0.0482812
LJ          -2.35898        0.964289       -0.958612
LJ          -1.66597         1.68777        -1.02115
LJ           2.52888         1.60081       0.0614395
LJ          -1.95124        0.826041       0.0741313
LJ         -0.985686        0.733396       -0.888341
LJ        -0.0706507         1.55505       -0.850094
LJ         -0.835788         1.48908      -0.0851306
LJ         0.0138395        0.984653       0.0506263
LJ           0.82329          1.1114       -0.710501
LJ           1.75737         1.71638       -0.923711
LJ          0.869771          1.9958     -0.00018081
LJ           1.82533        0.839237       -0.134139
LJ           2.47683        -2.50845        0.821494
LJ          -1.48289        -1.68737        0.723098
LJ           2.52959        -1.50334         1.69014
LJ          -1.92512         2.47547         1.57586
LJ         -0.733062        -2.50964         1.05946
LJ          0.107608        -1.74207        0.917718
LJ         -0.916587           -1.67         1.74446
LJ          0.116983        -2.40271           1.746
LJ           1.01063         2.55094        0.946174
LJ           1.83059        -1.54089        0.747695
LJ          0.902001         -1.6813         1.66303
LJ           1.59896        -2.53839         1.77409
LJ           2.51542       -0.588257         1.08837
LJ          -1.84756     -0.00626906        0.798129
LJ           2.51495       0.0831996         1.90072
LJ          -1.63275       -0.916184         1.48123
LJ         -0.773426       -0.882324         0.96341
LJ         0.0949861      -0.0635516         1.02644
LJ         -0.847142        0.130403         2.09391
LJ          0.124828       -0.958001         1.69347
LJ          0.920171       -0.831949        0.788114
LJ           1.59956      -0.0636346        0.566247
LJ           0.71348       -0.114483         1.90267
LJ           1.67941       -0.856114         1.67674
LJ           2.47777         0.62631        0.790037
LJ          -1.42717         1.92157        0.764858
LJ          -2.51013         1.61634         1.49839
LJ          -1.58735         0.92667         1.61219
LJ         -0.879705        0.743224        0.689024
LJ          0.213108         1.60926        0.908601
LJ         -0.760261         1.68287         1.52492
LJ          0.022122        0.932683         1.60145
LJ          0.852599        0.629807        0.904366
LJ           1.74131         1.64056        0.734329
LJ          0.908104         1.60786         1.71836
LJ           1.70323        0.769212         1.65691
