108
#Comment!
LJ          -1.51539         2.21667       -0.431534
LJ           1.11633         1.16242        0.543382
LJ         -0.403099    -0.000833351         1.92177
LJ          -2.39328       -0.780235         1.24633
LJ           1.56818         2.53077       -0.304574
LJ           2.29353         -1.2667       -0.637383
LJ           1.93448        -1.57427          1.7075
LJ          -1.84547         1.32509        0.525124
LJ           2.26932        -1.74777        -2.35496
LJ           1.58771        -2.25065        -1.44669
LJ           2.41757         2.20976        -1.04638
LJ           1.47546       -0.605856         1.25313
LJ          -1.97491         1.20452        -1.40422
LJ          0.840278         1.40264         1.91594
LJ          0.245237       -0.936886       -0.829908
LJ         -0.249357         2.22254       -0.870482
LJ           2.49164       -0.654532        0.234694
LJ        -0.0485299        0.812732        -1.87307
LJ           2.24548         1.22317         2.52459
LJ         -0.902775        0.852602        0.482874
LJ          -1.71381         1.38388        -2.43102
LJ           1.24345        0.589233         -2.3162
LJ           2.16212       0.0386356       -0.604702
LJ          0.991225         1.88435        -2.25829
LJ           1.68989       -0.453999         2.45151
LJ         -0.627857         2.55573      -0.0333735
LJ          -0.73205         1.03075         2.03639
LJ           1.61474       -0.111036        0.446091
LJ          -1.54777        0.468483       -0.500351
LJ           1.76811         1.19736         1.61828
LJ          0.297733       0.0746325       -0.970266
LJ           1.04276       -0.867828        -1.64555
LJ         -0.949953       -0.910611        0.917536
LJ           2.51277          1.9533       0.0256889
LJ           2.47565        -2.25843        0.921702
LJ          0.411534       -0.205659        -2.29936
LJ          -2.37136        -2.10343       -0.257031
LJ           2.11106       -0.552761        -1.54559
LJ          -1.78063        -2.26914        -2.51876
LJ          -1.86377         -1.5738        0.736237
LJ          -2.17395         1.11926         1.42405
LJ          -1.00402        -2.22352         1.07523
LJ          -2.42424         1.08211       -0.456635
LJ          -1.86888       0.0529154        0.466489
LJ         -0.779506         1.78586        0.991715
LJ          0.229343        -1.98433       -0.131698
LJ           1.17511        -1.52912       -0.703715
LJ         -0.055109        -1.19211        -1.86374
LJ           1.20662        0.157567        -1.47254
LJ         0.0389206        -2.55262        0.672274
LJ           -0.7486       -0.410173       -0.633324
LJ          0.471772       -0.241986        0.384819
LJ         -0.962436        0.626069        -2.24772
LJ          -1.97844        -1.01644        -1.78603
LJ           1.07303        -2.17928        0.832416
LJ          0.825161        -1.16704        0.568223
LJ           1.91956        -1.35612        0.643354
LJ          0.444732         1.70959         1.05339
LJ           -2.5288         2.10324         2.11508
LJ          -2.27289        0.225856          2.2132
LJ         -0.561739       -0.424292        -1.83863
LJ          0.265043        -1.96929        -1.32635
LJ          0.273543       -0.895589         1.43147
LJ           1.52275         2.14948         1.22289
LJ         0.0162738        0.752957       -0.135679
LJ         -0.348961       -0.997369           2.309
LJ          -1.11829        -1.46225          -1.963
LJ         -0.981473         1.72693        -1.45351
LJ           1.07213         2.11452        -1.18024
LJ          0.279108        0.482528         1.12778
LJ         -0.347726            2.01         2.08672
LJ           1.70066         1.42393       -0.392788
LJ           2.17803         2.22387        -2.07001
LJ        -0.0778081          -1.909         1.64329
LJ           2.50961        0.441962        -1.61515
LJ          -1.73769        -1.95931        -1.10066
LJ         -0.681747        -1.85838        -0.96579
LJ          -2.14726        -2.01922         1.69759
LJ           1.15259        0.589292       -0.532389
LJ          0.804627      -0.0324478         1.83279
LJ          -1.51789       -0.363592        -2.51675
LJ           1.63493          1.3511        -1.74886
LJ          0.384376         1.22178       -0.944145
LJ         -0.815739         1.46268       -0.273537
LJ          -1.92634         2.22593        -1.58832
LJ          -1.50632         2.21307         1.70372
LJ           2.30278          0.7762        0.622068
LJ          0.669875         2.45784         1.93068
LJ         -0.596691        -1.49436       0.0160202
LJ          0.710945        -1.09947         2.42431
LJ          -2.08954       -0.466524       -0.829612
LJ           1.71885        -2.56275         2.11854
LJ          0.153216          1.8057       0.0489701
LJ          -1.27368        -1.53204         2.15415
LJ         0.0522831        -2.06068        -2.49282
LJ          -1.39132        0.222072         1.52127
LJ          -1.56517        0.191688        -1.47382
LJ           -0.6771        0.729277        -1.02662
LJ          -1.72928         2.34665        0.603778
LJ          0.154979         1.88782        -1.72009
LJ           2.54656        -1.92947        -1.44435
LJ         -0.704284        -2.47759        -2.07029
LJ          0.190068         0.70379         2.28927
LJ           1.09585        -2.09812        -2.40761
LJ           1.19622       -0.455527       -0.347156
LJ          -1.77165        -1.10693       -0.205488
LJ           2.06001        0.269976         1.51224
LJ           -2.3623        -1.03415         2.36607
