108
#Comment!
LJ          -1.11028        -1.86525        -2.51702
LJ         -0.128534         1.07831         2.19608
LJ           1.81711         1.14923         2.43453
LJ           2.26863         2.10928        -2.42243
LJ         -0.309685        0.577635       -0.270006
LJ          -2.32765         1.16057        -2.25077
LJ         -0.322037       0.0021748         2.31589
LJ           1.81996       -0.613972       -0.447105
LJ            1.6318        0.436958        0.740459
LJ            1.4776         1.38367         0.33858
LJ           0.42189        -1.92258       -0.165797
LJ           1.63228       -0.642396        -1.73328
LJ         -0.598081         2.46336        -1.99092
LJ          -1.00569       -0.640914        0.306337
LJ          0.225483        -2.19561        -1.60631
LJ          -1.98637         2.22302          1.0862
LJ          -1.38579       -0.414571        -2.51369
LJ           1.01998        0.442128         1.91107
LJ           0.66876        -1.06202         -1.4862
LJ          0.519821         2.42706         1.43982
LJ          -2.16088        -2.06825        -2.54535
LJ         -0.127553        0.282304         1.39176
LJ           2.56126        0.522881       -0.420087
LJ          -0.13781         1.83679      0.00754902
LJ          -1.28888       -0.640664         1.21682
LJ           1.40074        -1.51985        0.826941
LJ            2.3651         2.26035        0.423866
LJ          -1.44067         2.41226         1.95441
LJ           1.40276        -2.52388        0.684132
LJ          -1.62035        -2.27175        -1.28057
LJ          -1.29163         2.45327        0.121457
LJ          -1.97321       -0.221262       -0.971372
LJ           1.62194          1.8998         1.55542
LJ           1.13162        -1.82779        -2.11188
LJ           1.80037       -0.168612          2.4144
LJ          -1.92474         1.95554       -0.458664
LJ          -0.16394        -1.51374        -2.41862
LJ          0.685802         1.60243         2.03818
LJ           -2.3168       -0.611176        0.253935
LJ          -1.40663        0.577357       -0.737174
LJ           1.06552        0.379774        -2.20013
LJ          -2.21582         1.23099        -1.12043
LJ          -2.52358          2.1327         -1.3578
LJ          -1.16301        0.643342         2.47118
LJ          -1.49684        0.449331         1.25408
LJ         -0.391296         2.28353         1.93541
LJ          -1.75639         2.19648        -2.13726
LJ          -2.21285          1.7045         1.89804
LJ          -2.44623        -0.39488        -1.90808
LJ          0.768205        -1.70581         1.85139
LJ         -0.764806        -1.70004        0.407207
LJ         -0.236851         2.56234        0.705602
LJ          0.383146         0.25746         -1.1093
LJ           1.44027        0.475537       -0.526227
LJ          0.985323         2.03701       -0.243075
LJ          -2.23817        -2.21013       -0.368667
LJ           -1.3736        -1.39536       -0.392491
LJ           2.28571       -0.197687          1.2402
LJ           -1.6595         -1.4808         1.74901
LJ         -0.981283       -0.468365       -0.820284
LJ           1.78259        -1.40409         1.78288
LJ        -0.0176995         1.26273          1.2173
LJ            1.8443          1.4965        -1.57991
LJ          -1.01525         1.58129        0.707689
LJ          -2.43259        -1.20677       -0.809269
LJ          -1.16013         1.94602        -1.22505
LJ          0.373475          1.8794          -2.072
LJ         -0.260458       -0.708674        -1.65985
LJ           1.18747        -2.37118        -1.22552
LJ         -0.843561         1.49925        -2.18769
LJ          -1.07781         1.39883       -0.317524
LJ           2.49625        -1.56642        0.254236
LJ          0.922587        -1.02107       -0.452318
LJ          0.619275         1.01985       -0.263744
LJ          -2.54637        -1.20974         1.17405
LJ           1.93999        0.409832        -1.63956
LJ           2.14933           1.537       -0.449431
LJ          -1.73963        -1.87017        0.530087
LJ          -1.63847        0.286755        0.253665
LJ          0.860356       -0.907504        -2.55087
LJ          -2.24417        0.304755         2.26557
LJ          -2.32583         1.23521        0.287672
LJ         -0.222007        0.637089        -1.88912
LJ          0.349492        -1.35942        0.670288
LJ           1.56916        -1.44207        -1.19223
LJ         -0.808715         -1.5844        -1.53277
LJ          0.843277         1.20919        -1.21562
LJ            1.3219          2.2626        -2.03607
LJ         -0.249793        -1.15364       -0.475395
LJ          -1.80187         -1.0179        -1.68861
LJ         -0.837322        -1.96863         1.50513
LJ         -0.746104        0.470711        0.655626
LJ          0.660977       -0.622742         1.57983
LJ          -1.66834        0.514517        -1.69344
LJ         -0.419965        -2.30342       -0.723496
LJ           1.10789       -0.472024        0.702175
LJ           1.67536        -1.96785       -0.198518
LJ           2.21446        -1.25914        -2.33667
LJ          0.647928         0.54804        0.679623
LJ         -0.318552        -1.01014          1.7963
LJ          -2.42318       -0.671844         2.21239
LJ          0.334769        -2.39558         2.42847
LJ          0.167393       -0.485083        0.252315
LJ           2.39052        -2.48251         1.75954
LJ          -1.04839         1.54731         1.82966
LJ            2.2332        -2.08494        -1.61568
LJ         -0.142691         1.44522       -0.908692
LJ           2.50615        0.915943         1.43253
