108
#Comment!
LJ          -1.01724         1.75519         0.79056
LJ           2.46336         1.68189        -1.45827
LJ         -0.877426        0.492846        -1.99235
LJ          0.196688        -1.81666         0.46777
LJ         -0.843156        -1.54767        0.687482
LJ          -2.10445         2.31173         -2.4833
LJ         -0.996091       -0.513859        0.690547
LJ        -0.0785499       -0.631032        0.532005
LJ         -0.524696        -2.52914       0.0207112
LJ          0.337579        0.259952         1.23329
LJ           1.51822       -0.231091       -0.635333
LJ           2.32247        -1.14932         1.87795
LJ          -2.14768       -0.985644        0.942253
LJ           1.94284       -0.585743        0.384058
LJ          -2.32663        -0.71489       -0.208841
LJ           1.65991         -1.7203       -0.277317
LJ          -0.66973         -1.2542         1.61668
LJ          0.896283        0.571367         -2.3017
LJ           1.73365        -0.65275        -1.90849
LJ           -1.2709         1.43383        -2.47732
LJ           -1.7643      -0.0202222        -2.09577
LJ           1.70719         1.42426       -0.905839
LJ            2.3414         1.11745         1.02119
LJ          -1.97113        -2.24312        -1.45232
LJ          0.304991       -0.333892        -1.58456
LJ          -1.33132        -2.36266       -0.622606
LJ             0.215        -1.37473        -1.27498
LJ          0.935815       -0.323662        0.299059
LJ           1.86437        0.410224        0.132375
LJ         -0.632867       -0.696654        -2.26876
LJ          -1.03239        -1.91666        -1.97474
LJ          -1.59939         1.11634        -1.30125
LJ           1.10812        -1.27978        0.823834
LJ          -1.65493        0.669354       -0.384069
LJ          -1.51102          -2.514         1.71395
LJ          -1.71625         2.53073        0.441065
LJ          -1.65806        -1.10795         2.27291
LJ         -0.645775        -2.31618          2.2406
LJ           2.39378       -0.912501        -1.09332
LJ         -0.984451        0.508162          1.0468
LJ          -2.56305        0.857917       -0.723059
LJ          -1.33183         2.10199        -1.63405
LJ         -0.318799          1.8171         1.60629
LJ        -0.0935967       -0.449783       -0.688739
LJ          -1.01549        0.317252         2.13306
LJ           1.83901         1.57354        -2.47535
LJ         -0.259456       -0.261021         1.84724
LJ          -1.32591       -0.384412        -0.31418
LJ          -2.42596        -2.09982       -0.187034
LJ           1.22079        -1.42078        -1.35652
LJ          0.570157       -0.593926        -2.47843
LJ           1.69543       -0.594683          1.3437
LJ          -2.16177      -0.0825923        0.495951
LJ         -0.447498         1.49626        -1.05591
LJ          -1.12445         1.73618       -0.312241
LJ           -2.3678         1.62746         0.19463
LJ          0.853122         1.64606        -2.23772
LJ         -0.658452        0.575879       -0.801307
LJ          0.599153         1.17761           1.952
LJ          0.142021        0.822706        -1.49842
LJ          -1.66869        -1.41217        0.129421
LJ           1.14183         1.88656         1.52121
LJ          0.117163        -2.01657        -2.13865
LJ          -1.96676          1.7801         1.19592
LJ          -1.78514        -1.29681        -1.06436
LJ           2.12762        -2.48241        -2.18331
LJ           2.17332          1.8706         1.66357
LJ          -2.29201         1.04237        -2.20762
LJ          0.818502        -2.48647         2.48854
LJ           1.82751         2.35105         -0.2809
LJ           2.10872        0.831841          2.0453
LJ          -0.28681         -2.4619          -1.169
LJ           0.43744        -2.41734       -0.452262
LJ            2.5445        -2.15339         1.83331
LJ          0.778285        -1.12207       -0.391109
LJ         -0.357835         1.88588        -2.25505
LJ          -2.13607         2.08823       -0.697803
LJ          0.400566        -1.55308         2.08477
LJ          0.746035        0.701535         0.38267
LJ          -0.69634        -2.44929         1.10968
LJ          -1.64554       -0.297282         1.50486
LJ           0.28194        0.507773       -0.481159
LJ           1.44273        -1.47373          2.5316
LJ           2.45158       0.0770008         1.43197
LJ           1.98508        0.508235        -1.70216
LJ          0.453721         1.67905       -0.368933
LJ           1.41739        0.372202         1.28651
LJ           2.31407         2.46897        0.597464
LJ           1.51822       -0.129762         2.38419
LJ          -0.46754           0.766        0.182333
LJ          -1.70008      -0.0215234        -1.12138
LJ          0.375982        -2.39408          1.4381
LJ            1.1889         -2.4701         0.63253
LJ           0.15905         1.98834        0.770423
LJ           1.34823        -2.47797        -1.30042
LJ            -1.843        0.912258        0.692265
LJ         -0.822842       -0.600283        -1.29559
LJ           2.22155        -1.88261        -1.18389
LJ           1.71377         1.47105         0.25682
LJ         -0.355117        0.962484         2.26927
LJ           1.47128        -2.23735          1.7412
LJ           2.49236       -0.283482        -2.55789
LJ          0.810992         1.75512        -1.27856
LJ          -0.73968         -1.3876       -0.555712
LJ          -1.94751         0.74039         1.81594
LJ           2.41712         -1.4141        -2.16714
LJ           2.02416         -1.6382         1.04579
LJ           1.11148        0.543087        -1.21875
