108
#Comment!
LJ           2.45551        -2.54506        -2.55126
LJ          -1.69821        -1.84275         2.52512
LJ          -2.54538        -1.70157        -1.61516
LJ           -1.8641          2.5231         -1.7457
LJ         -0.856569         2.53741         2.43892
LJ         -0.153096        -1.84754        -2.50089
LJ          -0.87372        -1.52634        -1.70143
LJ         0.0820149          2.3502        -1.77738
LJ          0.903392         2.51174        -2.40725
LJ           1.69524        -1.70022        -2.50944
LJ          0.784008        -1.52806        -1.55156
LJ           1.92665        -2.44617        -1.57523
LJ           2.46917       -0.909693        -2.52293
LJ          -1.65543        0.141871         2.50658
LJ          -2.48403        0.150017        -1.81082
LJ          -1.81763       -0.921743         -1.5602
LJ          -1.09717       -0.941975         2.52049
LJ        -0.0484799      -0.0673823         2.54802
LJ         -0.770871        0.150036         -1.7635
LJ         0.0911792        -0.81575        -1.77206
LJ          0.958534        -1.01971        -2.55598
LJ            1.7186        0.176197         2.50927
LJ          0.727986        0.164048        -1.62169
LJ           1.56434       -0.837888        -1.77167
LJ          -2.50825        0.937543         2.50194
LJ          -1.79175         1.89069         2.49051
LJ           2.56465         1.57534         -1.8299
LJ          -1.69482        0.865251        -1.77538
LJ         -0.660951           1.014         2.26542
LJ           0.12122         1.68363         2.37039
LJ         -0.813012         1.59909        -1.67757
LJ        -0.0922587        0.897534        -1.72265
LJ           0.69912        0.879782        -2.48771
LJ           1.75083         1.86409         -2.5481
LJ          0.977984         1.73976        -1.55084
LJ            1.7506        0.821033        -1.67367
LJ          -2.47604        -2.56471       -0.862969
LJ           -1.5377        -1.79175       -0.614769
LJ           -2.5176        -1.77075      -0.0435283
LJ          -1.75688         2.40757     -0.00555883
LJ         -0.764048         2.53924       -0.810832
LJ       -0.00635821        -1.71234       -0.862804
LJ         -0.754503        -1.73666        0.111365
LJ         -0.142906         2.35382     -0.00108919
LJ           1.04551        -2.53177       -0.861166
LJ           1.63757        -1.70092       -0.819563
LJ          0.727622         -1.8916        0.105977
LJ           1.69209        -2.40178      -0.0932044
LJ           2.55382       -0.899486       -0.766725
LJ          -1.90958        0.135642       -0.692997
LJ           2.55987      -0.0130892       0.0149006
LJ           -1.7138       -0.712866      -0.0730316
LJ         -0.880325       -0.745524        -0.80789
LJ        -0.0058275       0.0599507       -0.730975
LJ         -0.866252      0.00713837      0.00458068
LJ        -0.0693682       -0.744288      -0.0920949
LJ          0.779017       -0.801059       -0.820718
LJ           1.83947       -0.134634       -0.870628
LJ          0.865946       0.0497986       -0.152495
LJ           1.80798       -0.982883      -0.0341721
LJ          -2.52554         1.14547        -0.72519
LJ          -1.64713         1.71885       -0.984493
LJ           2.52065         1.67763        0.166324
LJ          -1.89661        0.945979       0.0217112
LJ         -0.906737        0.815646       -0.824267
LJ        -0.0161865         1.71434       -0.869725
LJ         -0.936973         1.57515       -0.207159
LJ        -0.0404077          1.0219       -0.117257
LJ          0.735827        0.926404       -0.831866
LJ           1.96999         1.78756       -0.949141
LJ          0.729629         1.93841       -0.102669
LJ           1.76607        0.854947      -0.0769576
LJ           2.43952         2.48937         1.00712
LJ          -1.53116        -1.80652         0.99343
LJ           2.49916         -1.5992         1.72395
LJ          -1.88535         2.45008         1.65354
LJ         -0.823311         2.52629        0.725518
LJ         0.0874239        -1.70427        0.848147
LJ         -0.936781         -1.5993          1.7697
LJ          0.116835        -2.46447         1.73639
LJ           1.09054          -2.516         1.00989
LJ           1.90447        -1.58497        0.835129
LJ          0.894878        -1.65798         1.66687
LJ           1.60276        -2.51273         1.85999
LJ           2.51565       -0.710453        0.843604
LJ          -1.83762       0.0609874        0.875861
LJ          -2.54306      -0.0488055         1.88264
LJ          -1.82851       -0.828608         1.65317
LJ         -0.650728       -0.825575        0.756171
LJ          0.011001      -0.0829132        0.857535
LJ         -0.761174       0.0982638         1.80333
LJ         0.0418986       -0.914631         1.62363
LJ          0.889678       -0.899319        0.907001
LJ           1.61481       0.0172825        0.601491
LJ          0.770461       -0.073198         1.87521
LJ           1.72565       -0.879041          1.6756
LJ           2.42761        0.724109        0.774102
LJ           -1.5672         1.81739        0.811835
LJ           2.52224         1.68805         1.72505
LJ          -1.64362        0.723847         1.62645
LJ         -0.877007        0.670754         0.80242
LJ        -0.0400187         1.70134        0.805939
LJ         -0.804092         1.72318         1.50177
LJ         0.0419082        0.907206          1.5406
LJ          0.868969        0.908434          1.0041
LJ           1.77151         1.77158        0.842099
LJ          0.963001         1.75049         1.88093
LJ           1.66447        0.917821         1.70402
