108
#Comment!
LJ           1.68707       -0.359196        0.705009
LJ          -2.28706        -1.00573        0.840518
LJ         -0.537494        0.838553         1.74447
LJ         -0.122793       -0.296348         -1.2002
LJ           1.16746        0.917846          1.1445
LJ           2.20085        -2.18849        -0.50023
LJ          0.902542       -0.151535        -2.18172
LJ           1.69151        0.663805        0.179034
LJ           1.47538        0.871898         2.45043
LJ          -1.11081         1.24917        0.877454
LJ           1.60344       -0.693193       -0.466137
LJ          0.198876       0.0602079         1.15997
LJ         -0.904991        -2.17878       -0.552776
LJ           1.18757         1.68434         1.93982
LJ           2.41905        0.177512         1.26898
LJ         -0.678825        -1.37194        0.183259
LJ          -1.25895        -2.02798         2.07454
LJ          -1.99996         0.77169        0.767692
LJ          0.468571         2.25015         2.25687
LJ          -2.51513       -0.496009       -0.858641
LJ          0.139517         1.84379        -1.91292
LJ         -0.641699         1.30638        -1.01845
LJ          -1.07135        0.283158        -1.16806
LJ          -1.37324        0.380563         -2.3256
LJ           1.11315       -0.622592        -1.31465
LJ          -1.45684         2.37649         1.27403
LJ            2.3709        -1.23226      -0.0209085
LJ         -0.259934       0.0726187        -2.23891
LJ          0.647186         1.91737        0.904638
LJ          -0.82345       -0.706699        -2.27098
LJ           1.78231        -1.76489        -1.34272
LJ          -1.68995        -1.47633        -2.28245
LJ           2.49889        -1.14243        -1.95748
LJ          0.109623        -2.20064         -1.0534
LJ          -1.78511        -2.27334       0.0630898
LJ         -0.304863         2.10621         1.12826
LJ           1.68231         2.09374        0.129895
LJ         -0.590345        -0.37016          1.7752
LJ           1.26349        -1.14823        -2.34661
LJ          0.828447       0.0257728      -0.0992114
LJ            1.1267        -1.75043       -0.539045
LJ          -1.59235       -0.999206      -0.0788309
LJ         -0.886708        -0.56697       -0.591405
LJ          -1.91667         1.34881        -2.47336
LJ           1.13638         -2.2448        0.539537
LJ          -1.83049          2.2986       -0.822228
LJ         -0.531014         1.14388        -2.38809
LJ           1.19946       0.0519993         1.81639
LJ          0.315522        -2.23124         1.24286
LJ          0.814816        -1.95977         2.10493
LJ          -1.51427        0.528825         1.71594
LJ          0.242978         1.49512         1.72234
LJ           1.21253         1.89611         -2.1898
LJ         -0.244354         2.16282       -0.298034
LJ          -2.05504         1.56262         1.49614
LJ          -2.56069          1.3781        -1.52853
LJ         -0.836311         1.87203         1.99627
LJ         -0.666409        -1.46491         -1.6404
LJ           1.23882        -1.29569        0.403883
LJ           1.69521        0.971625        -1.68148
LJ          -1.60052        -1.69446         1.01151
LJ          0.193713       -0.824545        -2.03073
LJ          -1.41793         1.69974     -0.00500528
LJ           2.55594        0.389618         2.39576
LJ          -2.54582       -0.182088        0.225443
LJ          0.762918        0.355892        -1.14576
LJ          -1.06302        0.387929        0.206548
LJ          0.296555       -0.812717         1.78302
LJ         -0.819052        -2.30691        0.491876
LJ          -2.19689        0.324476        -1.54135
LJ           1.72486        -2.33728         2.36189
LJ          -1.58381         1.15437       -0.829794
LJ          0.387006         1.50388       -0.944289
LJ          -2.31462         2.07183        0.577339
LJ           2.07884         2.20572        -1.20111
LJ         -0.663096        -1.38946         1.50252
LJ          0.722941        -1.61638        -1.54436
LJ          -2.21795        0.578027       -0.352174
LJ         -0.288047        -1.48039         2.44452
LJ         -0.240895       -0.324663        0.263946
LJ          -1.63205       -0.667807        -1.44788
LJ        -0.0792268        0.463661       -0.415959
LJ           2.14916        -2.18517        0.492195
LJ         -0.104837         1.18512         0.60348
LJ           1.88394       -0.257805        -1.89945
LJ            2.3499         2.29818         1.48982
LJ           2.16229       -0.560459         1.92699
LJ          0.422154        0.593987         2.25531
LJ          0.234914         -1.1431         -0.5229
LJ          0.132538        -2.20435        0.212051
LJ          -2.50414        -1.54019         1.92473
LJ          0.214655        -1.31886        0.865402
LJ           2.07011         1.67837          2.3842
LJ          -1.69162       -0.757265         2.01864
LJ          -2.10083        -1.55086       -0.989684
LJ           2.10004         1.13495         1.54582
LJ            1.4077         1.44591       -0.842382
LJ         -0.751151         2.34923        -1.75479
LJ           1.63205        -1.50346         1.49966
LJ          -1.65592       -0.230145         1.02293
LJ          0.800941         1.23954        0.203586
LJ          0.775694         2.32294       -0.264287
LJ          -2.40708         1.62409       -0.496055
LJ           1.75865        0.298471       -0.837652
LJ          0.936325         2.40866        -1.37156
LJ          -2.02441         2.39579         2.31712
LJ          -1.93654         2.31838        -1.80517
LJ       -0.00799744        0.689853         -1.5692
