108
#Comment!
LJ          -2.54282        -2.30625         2.37684
LJ          -1.64912        -1.63936         2.48755
LJ          -2.28385        -1.58671        -1.71672
LJ           -1.7226        -2.51587        -1.71129
LJ         -0.722278         2.34216         2.47163
LJ         0.0296944        -1.83345        -2.52043
LJ          -1.14764          -1.518         -1.7638
LJ        -0.0749017         2.27278        -1.85788
LJ          0.855461        -2.52451         2.54971
LJ           1.71384        -1.68423         2.49034
LJ          0.891466        -1.84878        -1.68076
LJ           1.91944          2.4521         -1.7995
LJ           2.55787       -0.888925         2.34181
LJ          -1.81424       0.0463698        -2.51826
LJ           2.47967       0.0682253        -1.80174
LJ          -1.82523       -0.602014        -1.68621
LJ          -1.15722       -0.779979        -2.39588
LJ        -0.0140319       -0.205947        -2.42026
LJ          -1.02934       0.0268382        -1.71788
LJ         0.0102535        -1.04284        -1.76755
LJ          0.937628        -1.00372        -2.52763
LJ           1.55199      -0.0210572         2.56435
LJ          0.974372        0.152069        -1.73476
LJ           1.62607       -0.690083        -1.69166
LJ          -2.46903        0.984545         2.56187
LJ          -1.72855          1.9636         2.32776
LJ          -2.50169         1.62256        -1.58891
LJ          -1.75534        0.823546        -1.82867
LJ          -0.51173        0.916255         2.50863
LJ          0.137907         1.65069         2.39599
LJ          -1.21109         1.61751        -1.82364
LJ          0.116577         1.15321        -1.85433
LJ           0.95428        0.916744         2.55759
LJ           1.77086         1.74716         2.51945
LJ          0.953492         1.79627         -1.9088
LJ           1.71045         1.04608        -1.65523
LJ           2.55273         2.37347       -0.767246
LJ          -1.48149        -1.75633       -0.828392
LJ          -2.26596        -1.81447      -0.0779931
LJ          -1.76339         2.46955        0.122325
LJ         -0.606054         -2.4579        -1.02391
LJ         0.0915575        -1.56552       -0.864497
LJ          -0.82556         -2.0525      -0.0887599
LJ          -0.12678         2.30722        0.105608
LJ          0.851368        -2.55151       -0.816857
LJ           2.05284        -1.69228       -0.948833
LJ          0.794437        -1.83493        0.346776
LJ           1.74164         2.52069       -0.052039
LJ          -2.36034       -0.987043       -0.748332
LJ          -1.92242      -0.0496957       -0.816549
LJ           -2.4617         0.11072       0.0744294
LJ          -1.60883       -0.635084       0.0765685
LJ         -0.757519       -0.788231        -0.78671
LJ         -0.127584       0.0533054        -1.07275
LJ         -0.734063      0.00512826       -0.106019
LJ         0.0143042       -0.638443       0.0134344
LJ           1.03861        -1.22495       -0.833083
LJ           1.90263       -0.128791       -0.615848
LJ          0.868976       0.0704585        0.119732
LJ           1.99419         -1.0344      0.00925976
LJ           2.45878        0.896982       -0.803097
LJ          -1.59007          1.7473       -0.860359
LJ           2.33337         1.71114      -0.0552254
LJ          -1.83022         0.97774        0.262187
LJ          -1.02383        0.698717       -0.824284
LJ         0.0255568         1.68151       -0.945757
LJ         -0.857709         1.48608       -0.276365
LJ        -0.0793406        0.877629       -0.223435
LJ           1.14126         0.83863       -0.859763
LJ           1.64722         1.70269       -0.734351
LJ          0.742965         1.89763        -0.18784
LJ           1.75814        0.817631      -0.0494268
LJ           2.40986         2.41947        0.706681
LJ          -1.28803        -1.82408        0.736946
LJ          -2.55255        -1.45897         1.54263
LJ          -1.92188        -2.36556         1.45395
LJ         -0.807096         2.48282        0.950827
LJ         0.0362093        -1.47546        0.965938
LJ         -0.869987        -1.81141         1.88542
LJ          0.084764        -2.35281         1.74426
LJ          0.674786         2.46702         1.04093
LJ           1.68219        -1.59676        0.872922
LJ          0.917131         -1.7286         1.64705
LJ           1.77133        -2.54093         1.57713
LJ           -2.4553       -0.751761        0.747722
LJ          -1.47914      -0.0288269        0.825195
LJ           2.45127     -0.00697787          1.6817
LJ          -1.77533       -0.719367         1.67468
LJ         -0.876975       -0.944575         1.07274
LJ           0.20811       -0.229325        0.989255
LJ         -0.988193       0.0990317         1.83936
LJ          0.237567       -0.909585         1.77578
LJ          0.921111       -0.870277        0.731168
LJ             1.842       -0.160265        0.695823
LJ          0.693885       0.0332158         1.96114
LJ           1.56867       -0.814884         1.69217
LJ           2.19116         0.82932        0.843026
LJ          -1.63192         1.88769        0.988814
LJ           2.40137         1.73192         1.58994
LJ          -1.86107        0.774348         1.37918
LJ         -0.767412        0.794403        0.582925
LJ          0.356099         1.50585        0.794865
LJ          -1.01785         1.43487         1.59139
LJ         0.0605192        0.872564         1.53806
LJ           1.13741        0.633848         1.02855
LJ             1.435         1.74662        0.644361
LJ          0.965801         1.56594          1.6797
LJ           1.77557        0.943633         1.93669
