108
#Comment!
LJ         -0.607319         2.27705           1.324
LJ          0.972586        0.948386        -1.18083
LJ           2.13085        0.742088        -1.60694
LJ         0.0821953         1.55443         0.60512
LJ          -1.32608        -2.27041        0.730011
LJ          -1.29601         1.99234        -2.04979
LJ           1.15394        0.220551          2.0058
LJ          0.831172         0.35356        -0.18282
LJ           2.19132         1.84265       0.0840466
LJ         -0.253572        0.621705        0.396317
LJ          0.149176       -0.480832        -1.60619
LJ           1.77194        0.511688         1.25752
LJ           1.64538         2.55656         1.76558
LJ          0.960515       -0.728335       -0.370082
LJ           2.00589       -0.202285       -0.320342
LJ           1.05257         1.62527       -0.314649
LJ         -0.831035        -1.32472         1.91394
LJ           2.09017         1.52554        0.989535
LJ          0.813059        -1.80067        -2.20395
LJ          -2.32577        0.798368         1.39192
LJ          -1.87043        0.143954        -1.66806
LJ           1.31877         1.66169        -2.18126
LJ          -2.52007        0.303513        0.402163
LJ          0.999409         2.15602        -1.13515
LJ        -0.0181809        -1.28116       -0.424263
LJ          -2.03835        -2.09988      -0.0415503
LJ         -0.368912       -0.729494        -2.41865
LJ         -0.307751        -1.65804        0.905553
LJ          0.913862        -1.75007        -1.16254
LJ          -1.64748       -0.795139        -2.09849
LJ         -0.732318         -1.9744       -0.777977
LJ           2.06585         1.89762       -0.955437
LJ         -0.347553         2.52334      -0.0305931
LJ         0.0600365        0.605372        -1.59744
LJ          -2.28148        -1.07214         2.19772
LJ          0.558752        -2.04861        0.518973
LJ           1.70891        -2.43157        -1.75995
LJ         -0.363781         2.16667         2.42375
LJ           1.45308       -0.177562        -1.29646
LJ          -1.84205         -0.5173         0.26433
LJ           1.09298        0.523917        -2.07231
LJ         -0.770147         2.06905        -1.22225
LJ          -1.72112         2.00365         1.98467
LJ          0.216891        0.159481         2.50338
LJ          0.294646      -0.0387341         1.52085
LJ          0.765735         1.25853         1.90134
LJ           -0.1603           1.166          2.5046
LJ          -0.64827      -0.0282584         1.18619
LJ           1.41488       -0.104422        0.456371
LJ          0.905836         -1.0205        0.568929
LJ         -0.236848        -1.37062        -1.44233
LJ          0.405468        -1.03779         1.56423
LJ           1.63903        0.909523        0.226186
LJ           -1.9877         1.43934         -1.3394
LJ          -2.00713         1.36398       -0.286492
LJ           1.91074        -2.13567       -0.795812
LJ         -0.979695        -2.25977        -1.95833
LJ          -2.08038        0.085639       -0.543562
LJ         -0.205553        0.876043         1.50842
LJ           -1.5059       -0.714847       -0.947853
LJ          -2.31219        -1.73722        0.938084
LJ          0.825951        0.673394         1.01751
LJ          -1.81866          1.4552        0.724978
LJ            2.4015         1.84409         1.94991
LJ          -1.73299        -1.72827         -1.2255
LJ         -0.175998        -1.93111         2.51039
LJ           2.33412         2.10542        -2.19469
LJ           2.25446        0.793417       -0.578215
LJ           2.46564        -1.58148         -1.7224
LJ         -0.924693         1.01796        -1.50913
LJ            0.2031         1.89005        -1.75711
LJ          -2.30859         2.32112        0.689954
LJ           1.77816        -1.13603       -0.963144
LJ           -2.0644        -2.42457        -1.92716
LJ         -0.889718         1.60746       -0.305056
LJ          -2.06156         1.27356        -2.47227
LJ          -1.89339         2.35474       -0.849735
LJ           2.04414       -0.520426         1.83588
LJ         -0.878859       -0.351022        0.100279
LJ           -1.2379        -2.24248         1.99626
LJ          -1.21278        -1.13731        0.792823
LJ         -0.337806      -0.0336004       -0.772197
LJ           1.90671        -1.76573         2.30825
LJ          0.997928       -0.822004        -2.54363
LJ         -0.862208       0.0165207        -1.85593
LJ          -1.22142        0.595952       -0.567031
LJ           2.07914        0.872672         2.29666
LJ           1.26883        -1.65746          1.3137
LJ           -1.7974       -0.470944         1.36707
LJ          -1.39675        -1.42933       -0.190991
LJ          -2.38734        -1.31939        -0.57444
LJ          0.248674        -2.20194         1.51794
LJ          -1.19228        0.725169         2.53918
LJ          -1.26655         1.21255         1.54845
LJ        -0.0173451        -2.42256        -1.30317
LJ          -1.48404        0.386891        0.838222
LJ          0.575731        -2.50543       -0.341294
LJ           1.88437        -2.14091        0.571794
LJ           1.30003         2.15265        0.581838
LJ          0.777607         2.43955         2.33899
LJ          -1.97367        0.199239         2.25949
LJ          -2.48693       -0.603236        -1.40818
LJ         0.0531596         1.22907       -0.699922
LJ          -2.36165        -2.27521         1.79273
LJ          -1.14261        -0.36192         2.12849
LJ           2.01057       -0.182574        -2.29688
LJ           2.05679        -1.13818        0.351881
LJ         0.0123084       -0.510701        0.401621
