108
#Comment!
LJ           1.82085         2.20197         1.05573
LJ          -1.59119         -1.5024        0.772781
LJ         -0.421489        -2.11331        0.539595
LJ          -1.73912         2.27496        0.270257
LJ         -0.569991        0.604162          1.8007
LJ           1.49527       -0.920098        0.674835
LJ           1.87913       -0.648298         1.84339
LJ          0.887209         1.17426         1.24526
LJ          -1.29197         2.22109         2.23074
LJ         -0.901222        0.347646        -2.09462
LJ           2.46726         1.57618        -2.11312
LJ           2.25245        -2.48005         1.97492
LJ          0.960077         2.02057         2.49739
LJ          0.466036         1.12465        0.348761
LJ           1.86057         1.48484         2.24269
LJ          0.391815        -2.10232       -0.660158
LJ         0.0400275        -1.02629         1.90801
LJ          0.551841        0.273304         1.96712
LJ          0.559135        -2.28499         0.33243
LJ           1.32985       -0.106429        -1.01076
LJ          -1.05333        0.049227         1.16188
LJ          -1.69373         2.06694       -0.821732
LJ            1.3015         2.55666       -0.901781
LJ          -1.56114       -0.118455       0.0957545
LJ           1.59042        -1.74606         1.36919
LJ         -0.770494        -2.34093        -1.68149
LJ           1.44212         -1.3882       -0.594158
LJ           1.69485        -1.42193         2.55648
LJ          -2.12056         2.23064         1.25272
LJ        -0.0398524       -0.839018        0.846917
LJ          -2.26065         2.48387        -2.36437
LJ          0.929986       -0.390359       0.0725628
LJ          -2.55225        -1.38109       0.0498669
LJ           1.73248        0.395157         1.79684
LJ          0.559511       -0.812317       -0.847551
LJ           -1.2754        -1.86482        -2.53249
LJ          0.120072         2.08194        0.926904
LJ          0.936762        -1.76723        -1.46696
LJ          0.318576        -1.75698         1.22375
LJ          -1.90915         1.09209       -0.116592
LJ          -1.55557         2.06071        -1.80796
LJ           2.22571         1.13048       -0.404433
LJ          -2.05019         1.43646         2.13227
LJ         -0.792064       -0.320475         2.21723
LJ          -1.37713        -0.66164       -0.832142
LJ           1.85751       -0.980602        -1.61941
LJ          0.843165       -0.698529         1.34318
LJ          -1.30697         0.44798       -0.896545
LJ           1.57439        -2.00957        0.338727
LJ         -0.996667         2.03978         1.14426
LJ         -0.957387         1.28038         2.50153
LJ          -2.45453        0.547264        0.467442
LJ         -0.803868        -2.08378         1.59719
LJ           2.50897       -0.463417        -2.25891
LJ           2.07879       -0.312661        0.160862
LJ          -1.83964        0.300357        -1.78778
LJ         -0.504745         2.15262       -0.900729
LJ            2.2713        -2.33334        -0.45425
LJ           1.07481        0.957531        -2.53265
LJ        -0.0388011         1.74865        -2.00801
LJ            1.6454         2.21555      -0.0391275
LJ         -0.746455         2.03443       0.0403822
LJ             1.864        -2.48643        -1.95484
LJ          -1.52183        -1.66577        -1.32914
LJ          0.560915        0.243336         -1.5385
LJ           2.06924        0.495455        -1.74798
LJ         -0.271729         2.38992          2.3172
LJ          0.198414         1.42184         2.05167
LJ           1.17097        0.739974       -0.414662
LJ           2.51469       0.0795705       -0.877614
LJ           1.42866        -0.10716        -2.47961
LJ           1.50654         1.71223        -1.65961
LJ          -2.05321         -1.8738         1.78909
LJ          -2.41271        -1.67128        -2.24413
LJ          -1.94705         1.18887         -1.3965
LJ          0.849812        -1.71351         2.15021
LJ        -0.0169354        -1.53713        -2.20643
LJ         -0.606237        -1.46315       -0.952253
LJ          -2.36538       -0.535473        0.912323
LJ           2.29747         1.08927          1.2224
LJ          0.696749       -0.776347        -2.00521
LJ        -0.0959923     -0.00437795       -0.591792
LJ          -1.45185        -1.77591       -0.363215
LJ         0.0628321        0.747946        -2.25673
LJ           2.49642         1.64313        0.454976
LJ          0.246983        0.294343        0.916369
LJ          -2.52452       0.0411241         1.89416
LJ          -1.72544         0.56752         2.25614
LJ          0.660508         1.97519       -0.284936
LJ          -2.52242        -2.03086        -1.31339
LJ        -0.0656179        -1.27926       -0.104501
LJ          -1.75725        0.964939         1.25838
LJ          0.904653         2.39484         1.45092
LJ           2.49258        -1.98573        0.971724
LJ         -0.565099       0.0947009         0.29469
LJ           2.39749         2.01695        -1.13884
LJ         -0.797616         1.31608        -1.49406
LJ          0.547066         2.35409        -1.58297
LJ          -1.02315        -1.06012         1.59055
LJ          -0.53853       -0.482404        -1.48799
LJ          0.259884         1.34996        -1.11351
LJ           1.55376         1.25978        0.443849
LJ          -2.32164       -0.956581         -1.2407
LJ         -0.508862         1.10629        -0.46196
LJ           -1.9342       -0.909529         2.08385
LJ           1.41966        0.258481        0.846113
LJ         -0.887629       -0.924194        0.246894
LJ         -0.531003          1.0777        0.905259
