108
#Comment!
LJ          0.639419        -1.27239         1.58163
LJ           -2.0587        -1.39078       -0.895537
LJ          0.182975       -0.751076         2.38088
LJ           2.24942         1.40858        -1.39612
LJ           1.04345        0.538259          2.0684
LJ           2.41211         1.26622        0.481207
LJ           1.56285          0.6201        -1.15069
LJ           2.16269        -1.81347        -1.29807
LJ          -2.34379         -1.6943          1.9759
LJ          0.843779         1.64152       -0.476411
LJ           2.31609         1.54198         1.41577
LJ          -2.08919         2.38922         1.35476
LJ           1.41696       -0.201749       -0.304613
LJ          -1.48118         1.66674         1.92402
LJ          -1.27136         1.61699       -0.235883
LJ          -1.73271       -0.217284        -1.02785
LJ         -0.106479       -0.626868        -1.75831
LJ          -1.68118        0.961589        -1.37371
LJ           1.74755         -1.6661         1.73947
LJ           1.57526        -2.51341        -2.27976
LJ           2.14078        0.612702          1.8652
LJ         -0.217028         1.92335         1.62389
LJ          -2.53747         1.46966         2.53642
LJ           2.18398       -0.827387        0.174865
LJ           2.08874          2.5084         1.87747
LJ          0.962784       -0.205647        -2.03311
LJ          -2.00778        -1.95362         -1.7559
LJ         -0.884413        -1.04861        -1.11354
LJ          -1.29539        0.411836       -0.218905
LJ          0.154377        -2.54422       -0.677531
LJ         -0.582176        0.747287        -1.91554
LJ        -0.0537153         0.84458         1.54541
LJ          -1.89652        0.694082          1.3662
LJ          -1.86292        -2.19577       -0.362539
LJ         -0.915514        -1.63706       -0.264952
LJ         0.0592086         1.49062        0.151724
LJ           1.95885        -2.08412      -0.0115858
LJ           2.51518        -1.68261        0.932283
LJ          -0.31818         1.69078        -2.29767
LJ          0.405429       -0.782402        0.476396
LJ          0.695834        0.934163        0.905968
LJ          -2.22779         1.84999        -0.67972
LJ         -0.505706       -0.773705        0.875114
LJ           2.34852         2.31925        0.597211
LJ          -1.75294       -0.936005        -1.79555
LJ           1.54055        0.937634        -2.27962
LJ           1.78635         1.18019       -0.297052
LJ            -1.361        -1.54557         1.48271
LJ           2.49348         0.16302        0.776666
LJ           1.54225        -1.12951          -1.826
LJ         -0.695123           2.497        -0.17391
LJ         -0.493243       -0.517753       -0.278036
LJ          0.827749        -1.32228        -1.27581
LJ           2.21235       -0.342699        -2.38966
LJ            1.0625         1.70851        -1.61552
LJ          0.242189         2.38483        0.745982
LJ           1.74055       -0.673407         1.07078
LJ          -1.48337       -0.406405        0.766942
LJ          -2.51272         0.49117       -0.401004
LJ          -2.49864        0.318469        -1.60229
LJ         -0.613744       -0.302681         1.88991
LJ           2.51291         2.30257        -1.64925
LJ         -0.931294        -2.11708        -1.14168
LJ           1.39472         1.77185         1.72005
LJ           1.23554        -1.48115        0.505981
LJ        -0.0778577        -2.45468         2.34271
LJ          -1.83882        -1.23842        0.164536
LJ          0.940245        -2.46141         2.05938
LJ         -0.114599        0.185662        0.251573
LJ          0.950809        -2.37046      -0.0420885
LJ          -1.38854         1.94716        -1.33764
LJ         -0.320692          -1.465         1.79558
LJ         -0.981292         2.44111        -2.36919
LJ         -0.784583         1.59146        0.712342
LJ           2.01456         2.15628       -0.526653
LJ         -0.895763        0.431044        0.934785
LJ           2.55821       -0.738751         1.60816
LJ            0.4806         0.68188        -2.01493
LJ          -1.20033       -0.137406        -2.04337
LJ         -0.428905         0.39094       -0.908348
LJ          0.718936          1.7291         2.53463
LJ          -2.02582        0.406308         2.40348
LJ          0.012043         2.51248        -1.62409
LJ          0.608127        0.566106       -0.266092
LJ            1.3994        -2.45895        -1.20837
LJ          -2.19693         2.53778         2.51654
LJ           1.20891         1.67784        0.475863
LJ           2.37644       -0.666391        -1.23733
LJ         -0.943083        -2.48596         1.81198
LJ          -1.43266         1.25552        -2.29077
LJ           1.40734        -2.46079        0.971661
LJ         0.0623345        0.221271         2.39025
LJ          0.272447        -1.47896       -0.315911
LJ           1.55657        0.604189        0.620798
LJ         -0.122419         1.38567        -1.18646
LJ         -0.672898        -1.61628        -2.13295
LJ           1.56948        -1.32284       -0.595431
LJ          0.515126        -1.63296        -2.42173
LJ          0.485723       -0.345082       -0.816471
LJ         -0.884004        0.733472         2.06048
LJ          -1.54035        -1.63522         2.53771
LJ          -1.28561         -2.4414        0.569804
LJ          0.383632       -0.300309         1.37884
LJ           2.11102        -1.62957        -2.43964
LJ         -0.252712        -1.80783        0.600317
LJ          -1.81169         1.53265        0.675273
LJ           -1.5684        -0.63959         2.05756
LJ           1.25095       -0.867892         2.29942
