108
#Comment!
LJ          -2.51709        -2.38095         2.40891
LJ          -1.72348        -1.70198         2.47236
LJ          -2.38478        -1.52456        -1.66191
LJ          -1.73452         2.53687        -1.69204
LJ         -0.804506         2.43152        -2.44118
LJ        -0.0518964        -1.89338        -2.45996
LJ          -1.03521        -1.53574        -1.76902
LJ        -0.0298876           2.236        -1.79751
LJ          0.834568         2.52642         2.47127
LJ            1.7538        -1.66224        -2.54973
LJ          0.745755        -1.86256        -1.74051
LJ            2.0389         2.42575        -1.75918
LJ           2.51262        -0.82163         2.51618
LJ          -1.74349       0.0708727        -2.53281
LJ           2.50054       0.0946739        -1.79234
LJ          -1.78855       -0.547245        -1.67334
LJ          -1.03918       -0.772823        -2.43478
LJ        -0.0981887       -0.146995        -2.47368
LJ          -0.93968       0.0707784        -1.81447
LJ         -0.120539        -1.07703        -1.85495
LJ          0.877594        -1.12475        -2.55078
LJ            1.7002     -0.00572168         2.51851
LJ          0.959442       0.0365542        -1.88167
LJ           1.63728       -0.654512        -1.77282
LJ           2.56239        0.913166         2.51382
LJ          -1.65391         1.92279         2.41151
LJ          -2.39202            1.61        -1.63933
LJ          -1.65666        0.745024        -1.80092
LJ         -0.501465        0.919529          2.5613
LJ          0.078312         1.71496         2.28396
LJ          -1.13738         1.75745        -1.74786
LJ          0.088625         1.09392        -1.80093
LJ          0.810112         0.84546         2.51036
LJ           1.74136         1.70891         2.40836
LJ          0.945689         1.89638        -1.88769
LJ           1.66762         1.04096         -1.6541
LJ           2.54953         2.46313       -0.708461
LJ           -1.4832        -1.69747       -0.854011
LJ          -2.39426        -1.79694       -0.161956
LJ          -1.74576         2.46364      -0.0668473
LJ           -0.7021         2.55575       -0.997027
LJ          0.171322        -1.70957       -0.791914
LJ         -0.715669        -1.95481       -0.185562
LJ         -0.187722         2.24916        0.052031
LJ          0.807414        -2.56208       -0.953828
LJ           1.86072        -1.85033        -1.02789
LJ          0.764819        -1.92706        0.273179
LJ           1.71031        -2.50459       -0.104634
LJ          -2.44061        -0.92032       -0.712487
LJ          -1.94748     -0.00679776       -0.736722
LJ          -2.55221        0.236152       0.0315085
LJ          -1.82223       -0.709585       0.0819467
LJ         -0.654776       -0.867285       -0.708539
LJ         -0.112112        0.283502        -1.03489
LJ         -0.601908        0.116952       -0.106661
LJ         -0.080417       -0.657154         0.16051
LJ          0.952164         -1.0265       -0.771619
LJ           1.83597       -0.133603       -0.574866
LJ          0.731816       0.0352173        0.135875
LJ           1.88914        -1.14645      -0.0729634
LJ          -2.54916          1.0033        -0.79709
LJ          -1.66584         1.82408       -0.856882
LJ           2.44369         1.69188      -0.0478899
LJ           -1.9337         1.17031        0.362517
LJ          -1.12004        0.740247       -0.876314
LJ          0.107862         1.61908        -0.98608
LJ         -0.821406         1.42267       -0.129204
LJ        -0.0140574        0.921856       -0.198484
LJ          0.985237        0.907733       -0.769138
LJ           1.63728         1.77349       -0.719653
LJ          0.820264         1.99881      -0.0297009
LJ           1.71268        0.861168      -0.0881386
LJ           2.43092         2.36683        0.745323
LJ          -1.34081        -1.74296         0.71506
LJ           2.48694        -1.48021         1.71079
LJ           -2.0327         -2.3811         1.41843
LJ         -0.797688         2.50493        0.975511
LJ          0.104788        -1.45848        0.969086
LJ         -0.936036        -1.84332         1.85952
LJ         0.0311411        -2.34337         1.71917
LJ          0.749816         2.40724        0.991952
LJ           1.82134        -1.67232        0.832431
LJ          0.981966        -1.77836         1.78195
LJ           1.74841        -2.45214         1.68203
LJ            2.4746       -0.640059         0.87424
LJ          -1.60725       0.0619952          0.8335
LJ           2.48476       0.0344219         1.75041
LJ          -1.74829       -0.801172         1.76267
LJ         -0.777247        -1.04067         1.04496
LJ          0.205158       -0.110158         1.10176
LJ         -0.967146        0.130375         1.97872
LJ           0.13923        -0.91769         1.85011
LJ           1.04449        -1.03683         0.79754
LJ           1.60832       -0.163492        0.584095
LJ          0.690858    -0.000949723         1.99832
LJ           1.55721       -0.772347         1.77087
LJ           2.28078         0.83205        0.857666
LJ          -1.58804         1.94519         1.03184
LJ           2.46747         1.65914         1.52072
LJ          -1.84252        0.903885          1.5296
LJ         -0.790884        0.715423        0.783432
LJ           0.22785         1.42461        0.768712
LJ         -0.847581         1.43192         1.54805
LJ          0.156418        0.867031          1.6593
LJ           1.13664        0.758272        0.990625
LJ           1.47517         1.72422        0.663554
LJ          0.929823         1.52794         1.61594
LJ           1.65397        0.771634         1.88441
