108
#Comment!
LJ         -0.913547        -1.66436        -2.42347
LJ          0.255993          1.4473        -1.98744
LJ           1.19968        0.595339         2.35176
LJ          -1.20246         2.30983          2.0787
LJ          -1.15283        -1.15088       -0.084397
LJ          -1.31833         1.39659        -2.54707
LJ          0.102054        0.109382         1.92999
LJ           2.48472       -0.620089       -0.503603
LJ           1.55824        0.880291      -0.0486555
LJ          -2.07332         1.29564         0.33493
LJ          0.444333        -2.20467       -0.399809
LJ          0.922941        0.353883        -1.16034
LJ        -0.0167496        -1.93385        -1.65338
LJ          0.448237       -0.697642         1.23112
LJ          0.307546       -0.411688       -0.931565
LJ          -1.57009         1.42108         1.46151
LJ          -2.09079       -0.198563        -2.20797
LJ            1.4584         1.44831        0.836401
LJ         -0.360031       -0.356132         -1.7879
LJ           2.30524         1.91776         0.92519
LJ          -2.43243        -1.08147        -1.70136
LJ          0.755419        0.942028         1.48296
LJ          -1.86729        0.184278        -0.29887
LJ         -0.241068         1.86085       0.0358722
LJ         -0.549868         -1.3558        0.922702
LJ           1.87154          2.2879       -0.132305
LJ          -1.35992         1.76579       -0.235628
LJ          -1.79996        -1.78438         2.09495
LJ           1.28979           2.452        0.805913
LJ          -1.30879        -1.81751        -1.45693
LJ          0.117912         -2.3841        0.733752
LJ           2.01962        0.357334       -0.944135
LJ          -2.22498        -2.38657         1.44187
LJ          0.944432        -1.28969        -1.03415
LJ           2.21059        0.208084         2.49814
LJ         -0.562042         1.73313         1.05568
LJ          0.653435       -0.964826        -2.04065
LJ          0.511045         2.36596         1.60189
LJ           2.48615        -2.02614       -0.143508
LJ          -2.15388        0.113013         -1.2526
LJ           1.50753       -0.220553        -1.73979
LJ          -1.17847         1.67043        -1.42992
LJ          -2.01431         2.02886        -2.21934
LJ         -0.484378        0.615171         -2.4701
LJ          -1.11142       -0.601112        -2.42504
LJ        -0.0615655         1.53206         2.19264
LJ         -0.582191         2.11508        -2.12453
LJ          -2.20314        0.614553         1.59501
LJ           1.96695        -1.27283        -1.01036
LJ           1.74396          2.2847         1.71665
LJ         -0.250536       -0.626933         0.17347
LJ          0.797336        -1.79984         1.42108
LJ          0.447441         0.18181        -2.07589
LJ           1.69359        0.846676        -1.84012
LJ          0.765282         1.74798       -0.455332
LJ          -1.60977         -2.4612       -0.654698
LJ         -0.405115        -1.15758       -0.925054
LJ            2.4114        0.206776        0.294042
LJ           -1.2133       -0.617287         1.23555
LJ         -0.819671       -0.257065       -0.773499
LJ            1.8758       -0.784597        0.243237
LJ           0.54086         1.78735        0.644243
LJ          -2.42283         1.64935         1.89199
LJ         -0.700791        -2.15707         1.49161
LJ           2.50432        -2.19264        -1.12349
LJ         -0.567203        -2.46948        -1.05145
LJ          0.895985          2.0864         2.53969
LJ        -0.0809395         1.68356        -0.95114
LJ           1.72219        -2.54667        -1.81017
LJ          -1.25045        0.332221        -1.85366
LJ          -1.18495        0.712573       -0.629628
LJ          -2.16402         2.36607        0.248361
LJ          0.806496        -1.18328        0.342072
LJ           1.05367         1.89535        -1.46262
LJ           2.00544        -1.94321        0.906648
LJ           2.26166         1.76044        -1.73945
LJ           1.88196         1.45368       -0.866674
LJ          -1.52286        -1.82988         1.04102
LJ          -2.12605        -1.18056        0.301667
LJ           2.18721       -0.124981         1.37479
LJ          -1.95487       -0.469222         1.97822
LJ          -1.11041        0.930909        0.533388
LJ           1.12888       -0.852438         2.17151
LJ           1.44138       -0.978386         1.22024
LJ           1.49022         -1.8351       -0.147592
LJ          -1.52955       -0.688375        -1.38918
LJ           1.80402         1.53158         2.53381
LJ          0.885516        -1.90515        -2.50534
LJ           1.14152       -0.202776       -0.205706
LJ          -1.85336         -1.4095       -0.658027
LJ         -0.124038        -2.37318          2.4606
LJ         0.0121471        0.712271        0.755871
LJ           1.42514        0.148008         0.81755
LJ          -2.11031        0.963812        -2.07837
LJ         -0.561154        -1.95958      -0.0197744
LJ           1.85645        0.892525         1.51711
LJ          -2.21324         1.83698       -0.977279
LJ           2.38923        -2.02787        -2.30341
LJ          0.555037        0.611806       -0.116723
LJ         -0.150085       -0.949695         2.32119
LJ           2.31788       -0.944265         2.40434
LJ           1.65793        -1.34382        -2.03262
LJ        -0.0887253        0.738143        -1.18596
LJ          -2.50699        -1.01547         1.28441
LJ           -1.1841         0.41291         1.95226
LJ           1.66169        -1.77845         1.93071
LJ           1.11003        -2.29053         -1.1417
LJ          -1.86996      -0.0231974        0.757489
