108
#Comment!
LJ          -2.50722        -2.27625        -2.53508
LJ          -1.64973        -1.59458         2.56297
LJ          -2.42778        -1.54396        -1.71706
LJ          -1.76807        -2.43083         -1.8016
LJ         -0.809008         2.32815        -2.49713
LJ        -0.0341818         -1.5157         2.56134
LJ         -0.803929         -1.4335        -1.87293
LJ          0.130151        -2.55595        -1.83104
LJ           1.06488         -2.5169        -2.52038
LJ           1.58979        -1.53764         2.44002
LJ           1.04194        -1.67191        -1.71071
LJ           1.90802        -2.53786        -1.67013
LJ           2.47914       -0.714854        -2.48047
LJ          -1.92892       0.0228157         2.33983
LJ           2.54652       0.0471813        -1.60877
LJ          -1.69339        -0.58434        -1.57114
LJ         -0.726375       -0.655473         2.52242
LJ          0.049746      -0.0715101        -2.30249
LJ         -0.803098       0.0445163        -1.78603
LJ          0.159942       -0.838298        -1.51713
LJ          0.741327       -0.968914        -2.47899
LJ           1.72941       0.0782213        -2.45667
LJ          0.916066        0.270613        -1.59559
LJ           1.41277       -0.735382        -1.54368
LJ          -2.55801        0.852683        -2.37219
LJ          -1.75921         1.89171         2.38398
LJ          -2.42053         1.76704        -1.46837
LJ          -1.59949        0.647928        -1.97009
LJ         -0.451552        0.871649         2.47206
LJ           0.09431         1.84178         2.44784
LJ          -1.18782         1.57434        -1.72501
LJ         -0.197671         1.02335        -1.59197
LJ           1.03629         1.04923         -2.4564
LJ           1.80148         1.87335        -2.53753
LJ          0.925613          1.8351        -1.80749
LJ           1.73737         1.20875        -1.81995
LJ           2.49392        -2.38639        -0.64804
LJ          -1.37274        -1.58246       -0.938697
LJ          -2.26971        -1.64769        0.103084
LJ          -1.70422          2.4274        0.385711
LJ         -0.684898         2.54986       -0.999851
LJ         0.0465803        -1.82642        -0.68541
LJ         -0.843635        -1.87068       0.0719631
LJ        -0.0103856         2.44831      0.00634111
LJ           1.02814        -2.45859       -0.910333
LJ           1.92222         -1.5126       -0.851748
LJ            0.7215        -1.96078        0.219153
LJ           1.63855         -2.5281        0.023389
LJ          -2.23667       -0.826916        -0.76146
LJ           -1.8299        0.294764       -0.925702
LJ          -2.46298        0.029299      -0.0505726
LJ           -1.5439        -0.58466      -0.0567051
LJ         -0.701717       -0.827349        -0.84258
LJ        -0.0310906       0.0183236       -0.757664
LJ         -0.673215       -0.101278       0.0529285
LJ        -0.0960808        -1.08312       0.0548181
LJ           0.88402        -1.06233       -0.636331
LJ           1.87797       -0.308661       -0.578008
LJ          0.888137       0.0705266        0.013749
LJ           1.89075        -1.02637         0.21223
LJ           2.30795         0.84248       -0.739575
LJ          -1.76381         1.68354       -0.679205
LJ           2.34497         1.67558       0.0224958
LJ          -1.78445         1.01836        0.106071
LJ         -0.861284        0.837663       -0.853743
LJ         0.0495808         1.79459       -0.949435
LJ         -0.841589         1.66198       -0.137083
LJ          0.144265        0.933515       -0.148506
LJ          0.885139        0.974208        -0.92431
LJ           1.72643         1.78811       -0.864738
LJ          0.845855           1.833       -0.108998
LJ            1.6835        0.639801       0.0341743
LJ           2.42888         2.43069        0.693801
LJ          -1.57804        -1.75225        0.908201
LJ           2.44159        -1.45425         1.66535
LJ          -1.88244        -2.40157         1.64568
LJ         -0.692396         2.43348        0.995849
LJ         -0.163061        -1.58569         1.12299
LJ         -0.814927        -1.60993         1.82337
LJ         0.0668975        -2.31755         1.74576
LJ          0.852612         2.51572        0.871251
LJ            1.4885        -1.65131        0.981097
LJ          0.800356        -1.54352         1.76292
LJ           1.51981        -2.55314         1.58053
LJ          -2.31953       -0.769502        0.931447
LJ          -1.82704        0.205631        0.794244
LJ           2.33166        0.125314         1.64337
LJ          -1.65403       -0.888815         1.60235
LJ         -0.885741       -0.879526        0.867361
LJ          0.186294      -0.0958728        0.894023
LJ          -1.00252        -0.04773          1.5886
LJ         0.0677833       -0.612954         1.81829
LJ          0.934789        -0.87166        0.496383
LJ            1.6534        -0.24708        0.838268
LJ          0.978016      -0.0168954         1.76754
LJ           1.57042       -0.837666         1.70679
LJ           2.42403        0.935287         1.03479
LJ           -1.9398         1.62343        0.936776
LJ           2.45468         1.95698         1.65812
LJ          -1.63187        0.846718         1.60012
LJ         -0.930092        0.859577        0.894099
LJ          0.319051         1.46934        0.671376
LJ         -0.719588         1.51185         1.69779
LJ          0.116255        0.722161         1.63864
LJ           1.10992        0.659169         1.07189
LJ            1.5959         1.79578        0.896699
LJ          0.779159         1.75273         1.61037
LJ           1.74724        0.890842         1.90817
