108
#Comment!
LJ          -2.38796        -2.39143         2.46933
LJ          -1.76708         -1.6106         2.53401
LJ          -2.34828        -1.56164        -1.74884
LJ          -1.52669         -2.4633        -1.82381
LJ         -0.775623         2.42437         2.55772
LJ         -0.177724        -1.58724         2.44895
LJ          -1.02974        -1.60484        -1.83018
LJ         0.0635677         2.45016        -1.91791
LJ          0.868655        -2.42379         2.53853
LJ           1.74968        -1.64782         2.41336
LJ           1.10635        -1.82465        -1.71041
LJ           1.88242           2.417        -1.56434
LJ           2.48788       -0.687402         2.50953
LJ          -1.82825      -0.0399948          2.3861
LJ          -2.53628      -0.0954893        -1.83883
LJ          -1.62364       -0.596742        -1.66833
LJ          -1.03914       -0.669723        -2.52074
LJ        -0.0220321       -0.227153        -2.37682
LJ         -0.850351    -0.000731873        -1.77185
LJ          0.110914        -1.01704        -1.74393
LJ          0.835727       -0.975874         2.55019
LJ           1.75612       -0.103203        -2.39914
LJ          0.810948        0.189351        -1.63194
LJ           1.53666       -0.778871        -1.63106
LJ           -2.5119         1.00745        -2.49686
LJ          -1.81546         1.94098         2.32084
LJ          -2.50845         1.69212        -1.50862
LJ          -1.69882        0.729009        -1.96892
LJ         -0.510491         0.71418          2.5501
LJ          0.127314         1.67586         2.37894
LJ          -1.17153         1.59263        -1.66785
LJ       -0.00698837         1.08189        -1.68583
LJ           1.14162         0.91759         2.52795
LJ           1.78555         1.77687        -2.53809
LJ           1.04412         1.82088        -1.93261
LJ           1.60781        0.855317         -1.7335
LJ          -2.53967         2.46764       -0.791582
LJ          -1.45085        -1.71698        -0.87482
LJ          -2.36228        -1.70113      -0.0669727
LJ          -1.57947         2.53711        0.145735
LJ         -0.640815        -2.47728        -1.11301
LJ         0.0481204        -1.75471       -0.735705
LJ         -0.760837        -1.77855      -0.0660831
LJ         -0.074633         2.30356        0.161151
LJ          0.627465        -2.53149       -0.909681
LJ           1.94514        -1.66036       -0.954105
LJ          0.780126        -1.92523        0.187955
LJ           1.64575        -2.46747       0.0234009
LJ          -2.48257       -0.858143       -0.863559
LJ          -1.96503       0.0972487        -0.90133
LJ          -2.41205       0.0816197        0.017835
LJ          -1.68544       -0.718135      -0.0101297
LJ          -0.83341       -0.804943       -0.841889
LJ         -0.196918       -0.030783        -0.94891
LJ         -0.696941      -0.0519726       0.0507108
LJ         0.0452568       -0.803616       0.0968276
LJ          0.928711         -1.2351       -0.803325
LJ           1.83586        -0.15513       -0.691076
LJ          0.867472        0.123362         0.11348
LJ           1.93021        -1.06862      -0.0167022
LJ            2.5496        0.918887       -0.763292
LJ          -1.77848         1.71602       -0.791073
LJ           2.45192         1.50965       0.0951383
LJ          -1.81499         1.09263         0.21783
LJ          -1.06642        0.713716        -1.00239
LJ          0.135443         1.72125       -0.832617
LJ          -0.81659         1.69754        -0.14555
LJ         0.0895924        0.865579       -0.143777
LJ          0.942073        0.937543        -0.85125
LJ           1.77762         1.68138       -0.771772
LJ           1.01788         1.61515       -0.135021
LJ           1.60503         0.80409        0.109341
LJ          -2.49992         2.42786        0.594002
LJ          -1.43442         -1.8278        0.868407
LJ          -2.51013        -1.50062         1.59164
LJ          -1.98203        -2.32212         1.54109
LJ         -0.830297         2.38604        0.957277
LJ        -0.0527858        -1.46935        0.993776
LJ         -0.987549        -1.66624         1.86202
LJ          0.172157        -2.30437         1.74575
LJ          0.806643         2.43453        0.970827
LJ           1.64428        -1.46739        0.978115
LJ          0.895866        -1.59095         1.74902
LJ           1.83405        -2.47316          1.6343
LJ          -2.49969       -0.910089        0.755064
LJ          -1.57732      -0.0275376        0.780434
LJ           2.47312      -0.0342942         1.66598
LJ          -1.63165       -0.826147         1.60973
LJ         -0.878376        -0.89614         1.01918
LJ           0.16073       -0.124394        0.850416
LJ         -0.988079      -0.0327004         1.76899
LJ          0.216172       -0.792942         1.72001
LJ          0.875053       -0.920602        0.615251
LJ           1.81212       -0.328827        0.847923
LJ          0.829934        0.048713         1.76636
LJ           1.54948       -0.780065         1.84202
LJ           2.30003        0.950756        0.995263
LJ          -1.76109         1.85808         1.08381
LJ          -2.55029         1.93405         1.57922
LJ          -1.86165        0.809245         1.56699
LJ           -0.9683         0.89909        0.598298
LJ          0.376459         1.52182        0.796776
LJ         -0.833798         1.43402         1.65491
LJ         0.0447936        0.944292         1.51591
LJ           1.19533        0.718808        0.988668
LJ           1.52363         1.74443        0.788763
LJ           1.04567         1.66624         1.71799
LJ           1.90044         1.06595         1.84341
