108
#Comment!
LJ          -2.50737        -2.27836        -2.55733
LJ          -1.68798        -1.51693        -2.55444
LJ          -2.43312        -1.56504         -1.7274
LJ          -1.71232        -2.44856         -1.7721
LJ         -0.816783           2.354        -2.47299
LJ        -0.0988781        -1.52318         2.52998
LJ         -0.826107        -1.44141        -1.94981
LJ          0.122281        -2.51705        -1.82267
LJ            1.0924        -2.51383        -2.55079
LJ            1.5979        -1.52447          2.4129
LJ           1.05904        -1.76859        -1.75604
LJ           1.93012         2.55811        -1.62705
LJ           2.54818       -0.753301        -2.42627
LJ          -1.92149      -0.0396718         2.29609
LJ           2.52957       0.0480536         -1.6015
LJ          -1.62087        -0.56087        -1.60832
LJ         -0.765206       -0.711726          2.5027
LJ         0.0871375      -0.0451657         -2.3551
LJ         -0.734709       0.0750709        -1.73906
LJ         0.0869866       -0.873938        -1.53573
LJ           0.72082       -0.988391        -2.52325
LJ           1.70681       0.0714842        -2.43366
LJ          0.886473        0.222654        -1.58833
LJ            1.4077       -0.703859        -1.51912
LJ            2.5574        0.898685         -2.3622
LJ          -1.76955         1.90029         2.44266
LJ            -2.441          1.7325        -1.52474
LJ          -1.54652        0.645554        -2.02229
LJ         -0.487072        0.823594         2.51728
LJ         0.0608846         1.85358         2.46168
LJ          -1.20946         1.62354        -1.70887
LJ          -0.17441         1.01836         -1.6716
LJ          0.994939         0.98832        -2.49952
LJ           1.78473         1.95964         -2.5384
LJ          0.936867         1.84571        -1.81019
LJ           1.74215         1.23144        -1.80998
LJ          -2.56232        -2.39991       -0.628999
LJ          -1.40505        -1.58857        -0.83991
LJ          -2.25909        -1.61042        0.027767
LJ          -1.72106         2.43001        0.361929
LJ         -0.688938         2.55229        -1.04505
LJ         0.0426777        -1.85426       -0.717137
LJ         -0.801465        -1.83012        0.051201
LJ         0.0487827         2.45375       0.0838489
LJ           1.01325        -2.48421       -0.944523
LJ           1.91744        -1.49231       -0.931188
LJ           0.73993        -1.95953        0.257571
LJ           1.69782        -2.47925       0.0326097
LJ          -2.26565        -0.79977       -0.755931
LJ          -1.85423        0.237601       -0.937793
LJ          -2.42893     -0.00692662       0.0227966
LJ          -1.57891        -0.61743       -0.114994
LJ         -0.729688       -0.812908       -0.819691
LJ        -0.0268406     -0.00973582       -0.808582
LJ         -0.655605      -0.0655441       0.0435556
LJ      -0.000828147        -1.09176        0.084996
LJ          0.909313        -1.14416       -0.674053
LJ           1.91614       -0.313858       -0.559803
LJ          0.828851       0.0829322       0.0343687
LJ           1.92286        -1.07299        0.166051
LJ           2.35415        0.789446       -0.722997
LJ          -1.79054         1.63573       -0.645002
LJ           2.37479         1.63236       0.0117655
LJ          -1.80847         1.01277        0.127805
LJ         -0.863017         0.87813       -0.907184
LJ       -0.00848222         1.79408       -0.930906
LJ         -0.792238         1.70802       -0.111639
LJ          0.165623        0.930916       -0.196129
LJ           0.83261        0.981954       -0.964945
LJ           1.71924         1.74565       -0.796946
LJ          0.846278         1.85444       -0.126979
LJ            1.6859        0.710526       0.0817233
LJ           2.45067         2.42279         0.70993
LJ           -1.4861        -1.82289        0.874396
LJ            2.4249        -1.45431         1.64348
LJ          -1.96335        -2.41536         1.65663
LJ         -0.713957         2.46125        0.971063
LJ         -0.142238        -1.57837         1.09595
LJ          -0.87863        -1.63961         1.77896
LJ        -0.0246911        -2.30952         1.78957
LJ          0.828442         2.49083        0.891796
LJ           1.56977         -1.6792        0.983107
LJ          0.780944        -1.56254         1.62777
LJ           1.59169         2.53717         1.54549
LJ          -2.35923       -0.792001        0.897625
LJ          -1.83014        0.186696        0.784265
LJ           2.33054        0.108476         1.67672
LJ          -1.58507       -0.841565         1.64701
LJ         -0.936567       -0.893915        0.843778
LJ          0.100979      -0.0609489        0.868633
LJ           -1.0077       0.0119683          1.5737
LJ         0.0285966       -0.694491         1.78124
LJ          0.965908       -0.910099        0.495925
LJ           1.67516       -0.200499        0.877904
LJ          0.944773      -0.0485834         1.69808
LJ           1.55075       -0.837573         1.71721
LJ           2.35636        0.942098         1.04232
LJ          -1.93217         1.67783        0.955114
LJ           2.40457         1.93447         1.62202
LJ          -1.69359        0.826217         1.65484
LJ         -0.956086         0.84954        0.888217
LJ          0.267984          1.4828        0.748074
LJ         -0.701444         1.44712          1.6899
LJ          0.126562        0.698612         1.62848
LJ           1.14612        0.659108         1.08936
LJ           1.56145         1.74311        0.764092
LJ          0.840653          1.7726         1.61692
LJ           1.75332        0.915373         1.91365
