108
#Comment!
LJ           2.55903        -2.54189          2.4987
LJ          -1.77586        -1.70257         2.53209
LJ          -2.54282        -1.69877        -1.63099
LJ          -1.75681        -2.43481        -1.73017
LJ         -0.968955          2.4495         2.53424
LJ        -0.0207413          -2.011        -2.53441
LJ         -0.889865        -1.59854        -1.59489
LJ         0.0945672         2.29553        -1.69939
LJ           1.02666         2.41067        -2.36274
LJ           1.80108        -1.73846         2.56371
LJ          0.936125         -1.7108        -1.66421
LJ           1.99693        -2.49497        -1.49554
LJ           2.43258       -0.819326        -2.53313
LJ          -1.75043     -0.00397107        -2.55408
LJ          -2.48234        0.205192        -1.76173
LJ          -1.63636        -0.56082        -1.37625
LJ          -1.17827       -0.864513        -2.45248
LJ         -0.106832       -0.264237        -2.47849
LJ         -0.783649         0.15606        -1.85959
LJ        -0.0786256       -0.983743        -1.76812
LJ           1.00252        -1.09007        -2.48607
LJ           1.63544        0.100023         2.54577
LJ          0.769032       -0.101675        -1.54027
LJ             1.716       -0.840089        -1.69015
LJ          -2.42974         1.06265         2.29879
LJ          -1.77275         1.83086         2.55303
LJ          -2.49365         1.70175        -1.74636
LJ          -1.63524        0.952231        -1.80295
LJ         -0.713642         1.07894        -2.50231
LJ          0.104638         1.85941         2.53806
LJ         -0.758278         1.73102        -1.75374
LJ         0.0498079        0.807409        -1.87727
LJ          0.855687        0.778576        -2.43952
LJ           1.77189         1.83408         2.42483
LJ          0.936719         1.60708        -1.57827
LJ           1.82843        0.817411        -1.75836
LJ          -2.51112         2.46442       -0.725768
LJ           -1.5046        -1.82623       -0.730224
LJ          -2.53996        -1.75765       -0.163621
LJ          -1.67536         2.48922      -0.0418985
LJ         -0.647293        -2.56355       -0.923966
LJ         0.0593001        -1.69526       -0.959543
LJ         -0.631191         -1.8196         0.10364
LJ         -0.163937          2.3421       0.0899765
LJ          0.815169         -2.4895       -0.888845
LJ           1.83425        -1.71509       -0.834114
LJ          0.731326        -1.95208        0.131412
LJ           1.69583        -2.41274      -0.0586009
LJ          -2.46739       -0.924767       -0.804056
LJ          -1.93697       0.0838869       -0.685113
LJ            2.3458       0.0522152      -0.0842784
LJ          -1.63368       -0.846855       0.0270197
LJ         -0.638198       -0.755778       -0.825384
LJ         0.0173773        0.193905       -0.959972
LJ         -0.794408      -0.0955135      -0.0651318
LJ         0.0786916       -0.781045        0.203756
LJ          0.746314       -0.829901       -0.795172
LJ            1.7833       -0.150292       -0.876237
LJ            0.7314       0.0305796       -0.109688
LJ           1.70722       -0.935594       -0.104718
LJ          -2.42256        0.968224        -0.92432
LJ          -1.63811         1.69423       -0.999713
LJ           2.48111         1.59723       0.0284245
LJ          -1.95405        0.870869       0.0801745
LJ         -0.950005        0.714114       -0.885166
LJ        -0.0509311         1.55153       -0.835405
LJ         -0.848504          1.4862      -0.0523041
LJ         0.0457505        0.939786       0.0976305
LJ          0.808792         1.09416       -0.706156
LJ           1.74161         1.67369       -0.906566
LJ           0.85442         2.01488    -0.000303729
LJ           1.83827        0.838375       -0.144796
LJ           2.51888        -2.49376        0.851044
LJ          -1.48158        -1.71129        0.775871
LJ           2.54363        -1.47868         1.69887
LJ          -1.92229         2.48097          1.5787
LJ         -0.775391        -2.49593         1.00993
LJ          0.114983          -1.661         0.94152
LJ         -0.901802        -1.68228         1.70061
LJ          0.111618        -2.40012         1.68321
LJ            1.0076         2.50864        0.953732
LJ           1.87817        -1.56945        0.747695
LJ          0.905518        -1.69321         1.64882
LJ           1.59018        -2.48591         1.80622
LJ            2.5043       -0.618457         1.04936
LJ          -1.84365      0.00239575        0.776845
LJ           2.47963       0.0678642         1.87778
LJ          -1.66515       -0.913071         1.45097
LJ         -0.730713       -0.915522         1.00989
LJ          0.066606      -0.0496678        0.997618
LJ         -0.830998        0.148909         2.10769
LJ           0.11144       -0.947767         1.72334
LJ          0.927141       -0.863166        0.793937
LJ           1.66264       -0.112281        0.611771
LJ          0.693606      -0.0960554         1.87974
LJ           1.66689       -0.831039          1.6929
LJ           2.43335        0.635778        0.798595
LJ           -1.4723         1.91282        0.775555
LJ          -2.53122         1.61185         1.53456
LJ          -1.57516        0.876681         1.63629
LJ         -0.914355        0.731082        0.724457
LJ           0.17731         1.62788        0.864628
LJ          -0.73334         1.65601         1.51167
LJ          0.034209         0.91751         1.57219
LJ          0.862059        0.642759        0.893764
LJ           1.71473          1.6364         0.77433
LJ          0.848924         1.57116         1.72856
LJ           1.66694        0.740648         1.72231
