108
#Comment!
LJ          -1.05107        -1.69561       -0.278816
LJ           1.32794        0.460289       -0.383725
LJ         -0.175847        0.096732        0.154754
LJ           2.56101        -2.47308        0.958053
LJ           1.93819          2.5286       -0.847418
LJ          -0.46375         2.10064        -1.78494
LJ           -1.6521       -0.233796         1.25425
LJ           -2.2459         0.49166         2.27178
LJ           2.24831        -1.36332        -1.87789
LJ         -0.435739        -1.49293         -1.6122
LJ          -1.59718        -1.87442        0.814492
LJ          -1.88224         1.38721        -2.46078
LJ          -1.44705         2.04161        -1.78002
LJ           1.48944           0.341         2.21344
LJ          0.626192        -1.58065       -0.981526
LJ           1.10618         1.95278        -1.06751
LJ         -0.262028        -1.13149       -0.644813
LJ          0.437627       -0.172302       -0.659372
LJ           2.53409        -2.55885        -1.72027
LJ         -0.511051        0.173246        -1.13587
LJ         0.0495726        -1.24187         2.14665
LJ          -1.13839        0.940059          1.7591
LJ          -2.50297         1.34975         1.51968
LJ            2.2891       -0.318979         1.93275
LJ          0.414098          0.3067        -1.65761
LJ           1.27629         1.87296        0.323977
LJ        -0.0882041        -2.35195         1.88765
LJ          -1.60693        0.342074       -0.349289
LJ          0.349126         1.35227        -1.72811
LJ           2.06001       -0.725403      -0.0830558
LJ          0.623182       0.0123387         2.46916
LJ         -0.382035        -0.23561         1.87086
LJ         -0.870148       -0.731276       0.0804765
LJ          -1.82751        -1.00752        0.170529
LJ           1.38069         2.11125         1.93722
LJ            1.5046          -1.013        -2.43361
LJ          -2.30568       -0.623447        -1.14193
LJ           1.34749        -2.04302         -1.5591
LJ         -0.955559        -1.04584         2.47667
LJ         -0.653034          -2.208         1.11803
LJ         -0.621843        -2.14246        -2.37089
LJ         -0.253058       -0.575273        0.871297
LJ          -2.51966         1.85175       0.0459812
LJ           0.61157        0.895505        0.305074
LJ          0.224915         1.93864        0.260367
LJ         -0.812687         2.48826        0.115102
LJ          -1.79308        -1.14709        -1.85788
LJ        -0.0820988        0.895624         1.96862
LJ           1.30273        0.784271         -1.3604
LJ           1.26139         1.23978          1.3173
LJ         -0.369943       -0.445086        -1.95479
LJ           1.42882        -2.02115        0.286105
LJ         -0.615055         1.80049         2.12485
LJ            -1.706        -2.10755        -2.04865
LJ           2.53008        -1.74308        0.179196
LJ           1.60901        -1.39836       -0.632081
LJ          -2.32859        -1.74383       -0.913208
LJ          0.687963        0.235476         1.35656
LJ          -2.20998        -2.45843         2.21971
LJ          -1.34232       0.0468584         2.24104
LJ           -1.6127          2.1593        0.659498
LJ          0.380192         -2.4782        -1.52966
LJ           1.63266       -0.918868         1.05484
LJ           2.22952          1.4437         2.44596
LJ           1.89327         1.10673        0.483091
LJ          0.885288        -1.90386        -2.55068
LJ          -1.76392        0.215956        -1.41673
LJ         -0.543313        0.619565        -2.28633
LJ           1.86559         1.40936       -0.449809
LJ          0.705485        -1.07108      -0.0459724
LJ          0.936539         1.11793         2.34433
LJ           1.81375        0.155079         1.02441
LJ            -2.296        -1.17418         2.16315
LJ          -1.39152         1.58817      -0.0898709
LJ          -2.12859         1.50317        -1.00451
LJ         -0.214871        -2.09851       -0.754726
LJ          0.461882        -1.04716        -1.86083
LJ         -0.811219        -1.18481          1.4882
LJ          -2.44363       -0.389079        0.692176
LJ          0.963541       -0.845044         1.84352
LJ           1.79979        -0.41141       -0.971706
LJ            1.9934         1.51852        -1.70157
LJ          -1.98639        -2.44843        -0.28667
LJ          0.869418       -0.174941        0.453828
LJ           -1.2135         2.51324       -0.956246
LJ          -1.57504         2.15021          1.6309
LJ           2.48232         0.35324        -0.21282
LJ          0.650091        -2.52458        0.991986
LJ          0.782921         -2.4796       -0.455919
LJ          0.684928        -1.44309        0.884673
LJ         -0.746359         0.88293       -0.191147
LJ           1.94813        -2.20175         2.55809
LJ          0.379495           1.795         1.63738
LJ         -0.338493         0.61753         1.03905
LJ           0.32102         2.22108        -2.50348
LJ          -1.83747        0.690222        0.631139
LJ          -1.12486       -0.736112        -1.24198
LJ         -0.409459         1.90199       -0.705886
LJ         -0.163626         -1.7387        0.231484
LJ           1.38296         2.14182        -2.27486
LJ          -1.21374         -2.0358         1.97761
LJ          0.491449        0.928695       -0.686454
LJ         -0.653325         1.71517        0.963367
LJ           1.34912        -1.98013         1.55595
LJ           1.59989      -0.0604199          -2.003
LJ           2.30588        0.530211        -1.52895
LJ         -0.895213          1.2161        -1.27702
LJ          -2.34787        -0.42255        -2.21238
