108
#Comment!
LJ           2.51408        -2.47371         2.48761
LJ          -1.67865        -1.82404          2.4624
LJ          -2.49122        -1.68887        -1.54474
LJ          -1.86461        -2.47514        -1.81795
LJ          -1.04521         2.43889         2.44597
LJ         -0.179043         -1.8921         2.56067
LJ         -0.910501        -1.51766        -1.71411
LJ         0.0609573         2.37928        -1.71434
LJ          0.896245         2.46695        -2.42484
LJ           1.81287         -1.6908         2.48991
LJ          0.834069        -1.61831        -1.58349
LJ           2.01804        -2.50459        -1.60309
LJ           2.46858       -0.784058        -2.52486
LJ          -1.85934        0.106643         2.50929
LJ          -2.52112       0.0817152        -1.76855
LJ          -1.67529       -0.636921        -1.35823
LJ          -1.20083       -0.887511         2.53737
LJ        -0.0767394       -0.169345         2.54053
LJ         -0.813829        0.177604        -1.80261
LJ         0.0947798       -0.955453        -1.76594
LJ          0.989254       -0.975755         -2.4983
LJ            1.6979        0.062229         2.51514
LJ          0.804751      -0.0116797        -1.53587
LJ           1.77584       -0.820987        -1.70552
LJ          -2.54479         1.06443         2.44617
LJ           -1.8012         1.83045         2.50938
LJ          -2.56179         1.64795        -1.75902
LJ           -1.6258        0.959242        -1.87905
LJ          -0.76248         1.09545         2.47538
LJ         0.0437993         1.70794          2.3934
LJ         -0.754377         1.57996         -1.8129
LJ        -0.0300725         0.80117        -1.78769
LJ           0.82993        0.875514         -2.3842
LJ           1.82172         1.84685          2.4422
LJ           1.01387         1.76109        -1.54035
LJ           1.74851        0.836254        -1.76242
LJ          -2.42266         2.53346       -0.724693
LJ          -1.58554        -1.86276       -0.582985
LJ           2.53156        -1.75991       -0.114781
LJ          -1.63476         2.47515       0.0429783
LJ         -0.800948         2.44097        -1.01283
LJ         0.0546841         -1.7381       -0.924583
LJ         -0.787268        -1.79142        0.104705
LJ         -0.244735         2.30548      -0.0180918
LJ          0.895429        -2.49823       -0.952084
LJ           1.70793        -1.61011       -0.880897
LJ          0.729025        -2.01084       0.0707483
LJ           1.62477        -2.39774       -0.167815
LJ           2.49992       -0.858589       -0.713951
LJ          -1.87631        0.124511       -0.736449
LJ           2.52345       -0.033146      -0.0110717
LJ          -1.71035       -0.790989     -0.00691836
LJ         -0.758739       -0.786483       -0.812129
LJ        -0.0207576        0.218385       -0.944736
LJ         -0.791642      -0.0466788      -0.0580028
LJ         0.0133581       -0.789773        0.064612
LJ          0.815952       -0.884016       -0.709708
LJ           1.71582      -0.0939055        -0.83213
LJ          0.892891       0.0309271       -0.126151
LJ           1.62077       -0.932188       -0.120152
LJ          -2.52196         1.03432       -0.891478
LJ           -1.6341         1.75007        -1.13249
LJ          -2.52503         1.73508       0.0922455
LJ           -1.8048         0.80979       0.0663519
LJ          -1.03903        0.800361       -0.845184
LJ        -0.0377974          1.5239       -0.948455
LJ         -0.885057         1.46604      -0.0725345
LJ         0.0583679        0.951966        0.115812
LJ          0.885117         1.05101       -0.782614
LJ           1.83724         1.68026        -1.01104
LJ          0.829477         1.94365      -0.0169593
LJ           1.77519        0.859965       -0.123498
LJ           2.38512        -2.55411        0.929557
LJ          -1.47386          -1.661        0.879382
LJ           2.56233        -1.50055         1.80009
LJ          -2.02161         2.48199         1.69212
LJ          -0.65914        -2.50751        0.958234
LJ          0.221076        -1.82219        0.970412
LJ         -0.920331        -1.62888         1.72461
LJ         0.0689188        -2.45164         1.77202
LJ           1.18674        -2.53069        0.889642
LJ           1.78944        -1.48897        0.902158
LJ          0.902815        -1.72481         1.71032
LJ           1.54815        -2.45285         1.85781
LJ           2.49473       -0.582924        0.978956
LJ           -1.8727        0.108443        0.866538
LJ           2.53472        0.048424          1.8387
LJ          -1.65736       -0.864661         1.60269
LJ         -0.700008       -0.855754        0.914006
LJ          0.104166      -0.0746429        0.935933
LJ         -0.896896        0.148145         2.04363
LJ           0.17741       -0.919064         1.63713
LJ          0.963157       -0.832573        0.867449
LJ           1.62906        -0.11412        0.530623
LJ          0.737859        -0.14635         1.85747
LJ           1.75801       -0.823232         1.71612
LJ            2.4086        0.793819        0.679796
LJ          -1.53957         1.87463        0.839761
LJ          -2.53273         1.60181         1.56043
LJ          -1.54326        0.865523         1.68947
LJ          -0.99903        0.717518        0.764377
LJ         0.0991302         1.66654        0.904351
LJ         -0.754006         1.69283         1.44503
LJ        -0.0386446        0.880222         1.63242
LJ          0.838381        0.701769        0.973799
LJ           1.84601         1.66605         0.77988
LJ          0.981652         1.64409         1.77165
LJ            1.7476        0.794358         1.56051
