108
#Comment!
LJ          -2.43403        -2.43174         2.49948
LJ          -1.84184        -1.48929         2.50699
LJ          -2.37871           -1.55        -1.82802
LJ          -1.50867        -2.47123        -1.81327
LJ         -0.838685         2.37511        -2.54619
LJ          -0.13811        -1.59216         2.48592
LJ          -1.03995        -1.56201        -1.87018
LJ         0.0602144         2.46183        -1.87193
LJ           0.93674        -2.43999          2.5645
LJ           1.70413        -1.63663         2.43231
LJ           1.19983        -1.79686          -1.724
LJ           1.91417         2.44488        -1.58855
LJ           2.49611       -0.580679         2.53166
LJ          -1.82318      -0.0215734          2.3012
LJ          -2.45709      -0.0349337        -1.80936
LJ          -1.55638       -0.606348        -1.62105
LJ          -1.11407       -0.734093        -2.49529
LJ         -0.029416       -0.195981        -2.41176
LJ         -0.813414        0.121933        -1.82629
LJ         0.0611066        -0.99967        -1.73205
LJ          0.785627       -0.954845         2.51652
LJ           1.74274      -0.0639215        -2.35392
LJ          0.755317         0.15101        -1.67444
LJ            1.5762       -0.764439        -1.57902
LJ          -2.55466        0.973248        -2.44638
LJ          -1.73822         2.05553          2.3787
LJ          -2.49696         1.70934        -1.46275
LJ           -1.5611         0.73233        -2.03253
LJ         -0.438006        0.763767         2.50582
LJ          0.156818         1.66689         2.42706
LJ          -1.20391         1.71584         -1.6324
LJ        -0.0333053         1.09463        -1.68036
LJ           1.14204        0.978924         2.56017
LJ           1.77297           1.805        -2.56001
LJ          0.968215         1.81477        -1.85329
LJ           1.68625        0.835145        -1.68283
LJ           2.51336         2.43906       -0.708404
LJ           -1.4573        -1.69919       -0.834263
LJ          -2.36964        -1.66573       -0.112059
LJ          -1.65116         2.51978        0.129366
LJ         -0.609764        -2.44477        -1.06989
LJ          0.102548         -1.8044       -0.767516
LJ         -0.760474        -1.75066       -0.085842
LJ        -0.0307781         2.33831       0.0849442
LJ          0.702147         2.55649       -0.846832
LJ           1.89478        -1.60972       -0.941315
LJ          0.789803        -1.86429        0.141101
LJ           1.66615        -2.45852       0.0173062
LJ          -2.43501       -0.808069       -0.817308
LJ          -1.89285       0.0946709       -0.958723
LJ          -2.39419       0.0819307       0.0466997
LJ           -1.6606       -0.773427    -0.000271336
LJ          -0.79131       -0.783151       -0.799101
LJ         -0.169522        0.036588       -0.985419
LJ          -0.66982      -0.0840163        0.121795
LJ        -0.0328572       -0.807885        0.126872
LJ          0.950443        -1.18809       -0.733487
LJ           1.84871       -0.192162       -0.657364
LJ          0.768324       0.0338829       0.0843763
LJ           1.96632         -1.0701      -0.0326163
LJ           2.50092        0.829685       -0.807483
LJ          -1.75657         1.71212       -0.716896
LJ           2.45686         1.59539     -0.00215884
LJ          -1.83023         1.09336         0.16132
LJ          -1.08596        0.722897       -0.945054
LJ          0.166713         1.70661       -0.900296
LJ         -0.834892         1.71099       -0.143999
LJ         0.0359126        0.846695       -0.142505
LJ          0.868204        0.895387       -0.927038
LJ           1.74655         1.69442       -0.876373
LJ          0.952675         1.68199      -0.0966534
LJ           1.57029        0.845823        0.124541
LJ          -2.53207         2.50927        0.603293
LJ          -1.54309        -1.85328        0.813821
LJ          -2.47157        -1.48215         1.59221
LJ          -1.93979        -2.29783         1.65091
LJ         -0.842368         2.40133         1.04645
LJ       -0.00817264        -1.51133         1.06604
LJ          -1.03122        -1.71268         1.79356
LJ          0.112582         -2.2836         1.80445
LJ          0.840955         2.38075        0.954985
LJ           1.69592        -1.48158         1.04852
LJ          0.890681        -1.64446         1.74079
LJ           1.81781        -2.48592         1.57426
LJ          -2.48425        -0.83681        0.723775
LJ          -1.57051       0.0666965        0.780582
LJ           2.44647       0.0148008         1.59846
LJ          -1.67158       -0.872866         1.61093
LJ         -0.873068       -0.884474         0.98639
LJ          0.151759       -0.107676        0.887156
LJ         -0.988224       0.0222202         1.79531
LJ          0.249981       -0.780171         1.71984
LJ          0.877804       -0.885236        0.632167
LJ           1.79739       -0.284803        0.759596
LJ          0.800005       0.0110636         1.77179
LJ            1.5138       -0.733019         1.83968
LJ           2.31062        0.935209         1.00939
LJ          -1.80183         1.82414         1.09838
LJ            2.5494         1.91467         1.65443
LJ          -1.83937        0.788028         1.64261
LJ         -0.952212        0.871949        0.683808
LJ          0.396698         1.49041        0.774603
LJ         -0.755829         1.36703         1.71857
LJ          0.119038        0.836474          1.5433
LJ           1.17538        0.700584          1.0328
LJ           1.51126         1.68978        0.735186
LJ             1.047         1.65592         1.72816
LJ            1.8624         1.15651         1.87937
