108
#Comment!
LJ           2.54598        -2.45634         2.49497
LJ          -1.75539        -1.67966         2.48541
LJ          -2.47323        -1.67687        -1.68316
LJ          -1.76028        -2.41792        -1.74472
LJ         -0.861595          2.4753         2.50745
LJ         0.0446909        -1.95994        -2.51596
LJ         -0.951257        -1.51805        -1.56049
LJ         0.0816031         2.28307        -1.66782
LJ          0.981731         2.34539        -2.42891
LJ           1.76543        -1.66917         2.55583
LJ           1.05881        -1.79851        -1.69305
LJ            1.9506        -2.52793        -1.50364
LJ           2.50061       -0.840138         2.55018
LJ          -1.77746       0.0481519        -2.53876
LJ          -2.47138         0.18379        -1.79663
LJ          -1.64929       -0.487279        -1.36352
LJ          -1.13339       -0.898319        -2.49813
LJ        -0.0852669       -0.185694         -2.4147
LJ         -0.806405       0.0621438        -1.71762
LJ          -0.10504        -1.02661        -1.81113
LJ          0.989733        -1.07743        -2.47425
LJ           1.65839       0.0493699         2.54719
LJ          0.772472       -0.088786         -1.6211
LJ           1.71723       -0.899974        -1.70684
LJ          -2.45593         1.05028         2.40249
LJ          -1.74364         1.82279        -2.56394
LJ          -2.49015         1.70443        -1.60555
LJ          -1.54761        0.859548        -1.66331
LJ           -0.6786         1.10465        -2.51571
LJ           0.15022         1.86841         2.55442
LJ          -0.74523         1.77423        -1.75438
LJ         0.0601567        0.939175        -1.81825
LJ          0.940352         0.81302        -2.49701
LJ           1.83311         1.80556           2.428
LJ          0.931217         1.68593        -1.59472
LJ           1.84472        0.813054           -1.81
LJ           -2.5303         2.34859       -0.743694
LJ          -1.51832        -1.88456       -0.735666
LJ          -2.45997          -1.727        -0.12326
LJ          -1.72359         2.42869      -0.0948696
LJ         -0.642017         -2.5016       -0.955697
LJ         0.0887502        -1.72916        -0.91049
LJ         -0.572788        -1.77229      -0.0148919
LJ         -0.257534         2.36398        0.120876
LJ          0.824348        -2.51973       -0.914665
LJ           1.73552        -1.73276       -0.855362
LJ          0.634349        -2.00778         0.16295
LJ            1.6078        -2.37547       0.0308062
LJ            -2.433       -0.920671       -0.745403
LJ           -1.8745       0.0596913       -0.641422
LJ           2.39281        0.109189       -0.014648
LJ          -1.65019       -0.852918        0.025753
LJ         -0.596849       -0.770518       -0.810422
LJ        0.00580573        0.213642       -0.864919
LJ         -0.846409      -0.0155031      -0.0448581
LJ         0.0195304       -0.807888         0.20092
LJ          0.827201       -0.910087       -0.687613
LJ            1.8706       -0.166949       -0.859834
LJ          0.779463        0.023987      -0.0691114
LJ           1.70404       -0.839666      -0.0674141
LJ          -2.47071         0.98653       -0.935612
LJ          -1.59343         1.74403        -1.01637
LJ            2.5233         1.70681       0.0844189
LJ          -1.91193        0.880566         0.06384
LJ         -0.883339        0.731589        -0.86771
LJ         -0.128608         1.57344       -0.832615
LJ         -0.873034         1.46073      0.00831945
LJ          0.037028        0.928383        0.143297
LJ          0.854948        0.963721       -0.637309
LJ           1.73994         1.64515       -0.865665
LJ          0.773399          2.0406       0.0355787
LJ           1.71714        0.864194       -0.125937
LJ           2.47267         2.55871        0.833197
LJ          -1.47572        -1.73198        0.676614
LJ           2.49182        -1.47504         1.67286
LJ          -1.94921         2.51214         1.57411
LJ         -0.774041        -2.43572         1.13016
LJ          0.125322        -1.56999        0.885002
LJ         -0.836496        -1.62989         1.69651
LJ          0.148854        -2.37868         1.69157
LJ           1.01078         2.48438        0.879374
LJ           1.94376        -1.55855        0.687776
LJ          0.941273        -1.75695         1.72527
LJ           1.62414         -2.5083         1.73315
LJ           2.45653        -0.64457          0.9837
LJ          -1.74895      -0.0486768        0.789348
LJ           2.43251       0.0613563         1.90659
LJ          -1.65042       -0.984411          1.4701
LJ         -0.728671       -0.870385        0.995645
LJ         0.0686728      -0.0990141         0.96689
LJ         -0.856353         0.17498         2.08889
LJ          0.155084        -1.01657         1.71941
LJ           1.01158       -0.874994        0.809912
LJ           1.61222        -0.10016        0.659363
LJ          0.728157      -0.0304259         1.85001
LJ           1.54119       -0.853651         1.67275
LJ           2.51758        0.687093         0.90232
LJ          -1.50739         1.96953        0.740646
LJ           2.45726         1.60452         1.51599
LJ           -1.5749        0.935101         1.58875
LJ         -0.994525        0.684585        0.776992
LJ          0.175785         1.53446        0.820782
LJ         -0.824391          1.6277         1.52808
LJ        -0.0700674        0.877426         1.51574
LJ          0.832016        0.644598        0.885366
LJ           1.72515           1.732         0.74571
LJ          0.869919          1.5991         1.79362
LJ           1.77841        0.782962         1.71109
