108
#Comment!
LJ          -2.53411        -2.44079         2.52034
LJ          -1.69877        -1.52907         2.46283
LJ            -2.284        -1.54035        -1.76517
LJ          -1.59837        -2.43343         -1.7471
LJ         -0.752725         2.31977         -2.4205
LJ         -0.145305        -1.54493         2.51667
LJ         -0.962439        -1.54108        -1.99777
LJ           0.12678        -2.50835        -1.90203
LJ           1.01951         -2.3878        -2.38701
LJ           1.71272        -1.48551         2.44414
LJ           1.18386        -1.65781        -1.66265
LJ           1.85847         2.54413        -1.67362
LJ           2.47135       -0.683944        -2.51303
LJ          -1.78443      -0.0253982         2.29398
LJ           -2.4965      0.00556424        -1.74757
LJ          -1.59211       -0.536846        -1.74056
LJ         -0.853244       -0.715858         2.52679
LJ         0.0558496       -0.107535        -2.36718
LJ         -0.810071       0.0645606        -1.72583
LJ          0.187774       -0.950545        -1.64047
LJ          0.747497       -0.985855        -2.50487
LJ           1.66466       0.0779719        -2.38201
LJ          0.884154        0.167212        -1.67253
LJ           1.54401       -0.551816        -1.51031
LJ          -2.46148        0.859248        -2.43261
LJ          -1.77792         1.98113         2.41335
LJ          -2.42898         1.73073        -1.55925
LJ          -1.58588        0.716267        -2.03194
LJ         -0.536908        0.765662         2.55282
LJ         0.0438566         1.68696         2.29926
LJ          -1.35423         1.74451        -1.72458
LJ        0.00767565         1.03839        -1.71907
LJ           1.01097        0.991264         -2.4869
LJ           1.77182         1.90935          2.4636
LJ           0.96734         1.92884        -1.77523
LJ            1.7908        0.918355        -1.81286
LJ          -2.55927        -2.55306       -0.771132
LJ          -1.38777        -1.69081       -0.929971
LJ          -2.35588        -1.61759      -0.0517895
LJ          -1.61236         2.41216          0.1621
LJ         -0.695984        -2.47779        -1.01069
LJ         0.0595084        -1.82454       -0.725813
LJ         -0.760518        -1.75234        0.020211
LJ        -0.0247185         2.33435        0.166156
LJ          0.850958        -2.55999        -1.02374
LJ           1.89133        -1.59805       -0.892227
LJ          0.904862        -1.85781        0.261124
LJ           1.73954        -2.52661       0.0611819
LJ           -2.3748       -0.771975       -0.767802
LJ          -1.81982        0.181382       -0.935322
LJ          -2.32921       0.0606251      -0.0702159
LJ          -1.59154       -0.712461      -0.0522491
LJ         -0.714002       -0.763781       -0.711271
LJ        -0.0345462        0.095235        -1.01097
LJ         -0.660036       -0.119391       0.0461588
LJ        -0.0177127       -0.969363        0.129783
LJ          0.980555         -1.0808       -0.656218
LJ           1.82373       -0.271913       -0.682703
LJ          0.795541       0.0685096       0.0955089
LJ           1.88005        -1.05949     -0.00651357
LJ           2.44595         0.75133       -0.740314
LJ          -1.86614         1.74783       -0.697883
LJ            2.5391         1.69349      -0.0236648
LJ          -1.74616        0.901815        0.142067
LJ          -1.03208        0.744193       -0.911396
LJ         0.0447975         1.69552       -0.825039
LJ         -0.677314         1.62052       -0.120517
LJ         0.0265502        0.865751       -0.142355
LJ          0.855766         1.03526       -0.959419
LJ           1.65278         1.71163       -0.808324
LJ          0.857377         1.68677        -0.13394
LJ           1.65873        0.752944       0.0517549
LJ           2.43224         2.48265        0.717648
LJ           -1.4766        -1.80467        0.822132
LJ           2.46265        -1.40237         1.60564
LJ          -1.90635        -2.34191         1.67979
LJ         -0.897856         2.48376        0.929394
LJ        0.00898826        -1.44429         1.04091
LJ          -0.88995        -1.66762         1.75352
LJ        -0.0178392        -2.30918         1.79635
LJ          0.817693         2.39261        0.912753
LJ           1.67756        -1.63876         1.00111
LJ          0.781615         -1.6584         1.63917
LJ           1.67505        -2.51035          1.5307
LJ          -2.36294       -0.824319        0.764335
LJ          -1.70717        0.118286        0.876166
LJ           2.43599       0.0689595          1.6935
LJ          -1.62658       -0.894182         1.60391
LJ         -0.845913       -0.836934        0.989962
LJ          0.161376        -0.18375        0.855772
LJ         -0.908119      0.00708563         1.74869
LJ          0.101343       -0.755899         1.77438
LJ           1.02889       -0.870592        0.551057
LJ           1.80555       -0.247546        0.858181
LJ          0.853442     -0.00711469         1.71536
LJ           1.42408       -0.762181         1.72114
LJ           2.31327        0.909337         1.10691
LJ          -1.82499         1.69735        0.962044
LJ            2.4549          1.8757         1.60225
LJ          -1.72809        0.829096         1.69854
LJ         -0.896536        0.944127        0.809712
LJ          0.354153         1.37585        0.721571
LJ         -0.692496          1.5023         1.69981
LJ          0.179785        0.760166          1.7066
LJ           1.11209        0.579495          0.9676
LJ           1.56058         1.81453        0.678046
LJ          0.980519          1.7276          1.7066
LJ           1.83354         1.04427         1.94866
