108
#Comment!
LJ          -2.53731        -2.55062         2.46104
LJ          -1.76502        -1.68115         2.45038
LJ          -2.51007        -1.65985        -1.81793
LJ          -1.79177         2.53291        -1.64553
LJ         -0.813003         2.54435        -2.48236
LJ         0.0226774        -2.00477        -2.42819
LJ          -1.16984        -1.45663        -1.77302
LJ        -0.0223547         2.28874        -1.85347
LJ          0.795132        -2.54923           2.445
LJ           1.79024        -1.71327         2.53401
LJ          0.741046        -1.94469        -1.76799
LJ           1.86565         2.48519        -1.68527
LJ           2.49446       -0.926213         2.55723
LJ          -1.78878      0.00568775         2.55815
LJ           2.50069        0.127736        -1.92751
LJ          -1.73655       -0.580782        -1.67292
LJ          -1.06307       -0.733962        -2.46758
LJ         -0.106702       -0.267342        -2.51039
LJ         -0.811579       0.0191607        -1.80502
LJ         -0.072824        -1.22099        -1.92503
LJ           0.85925        -1.17488        -2.46237
LJ            1.6972       0.0116246         2.49898
LJ          0.873895        0.081819        -1.83353
LJ           1.69533       -0.609349        -1.82275
LJ          -2.56416        0.907805         2.45672
LJ          -1.64572         1.97296         2.46511
LJ          -2.39392         1.60284         -1.6246
LJ          -1.63562        0.827365        -1.85693
LJ         -0.586203        0.927609         2.48069
LJ          0.141582         1.67454         2.34759
LJ          -1.06584         1.61871        -1.78611
LJ         0.0961365         1.06187        -1.77411
LJ          0.860811        0.859199         2.47454
LJ           1.80088         1.89072         2.36216
LJ          0.956378         1.96265        -1.78404
LJ           1.57781        0.956604        -1.65574
LJ           2.50262          2.4062        -0.80207
LJ          -1.39986        -1.68955       -0.805925
LJ          -2.43806        -1.90446       -0.124384
LJ          -1.69619         2.47446      -0.0256863
LJ         -0.898708        -2.54486        -1.15037
LJ          0.172945        -1.62657       -0.770502
LJ          -0.66624        -1.93291      -0.0893476
LJ         -0.153643         2.36872       0.0297788
LJ          0.720118        -2.43283       -0.900478
LJ           1.92427         -1.8477        -1.03542
LJ          0.752875        -1.92401        0.235004
LJ           1.68386        -2.42545       -0.157504
LJ          -2.50068       -0.884087       -0.743586
LJ          -1.90171        0.114827       -0.787444
LJ          -2.47791        0.158105      0.00853235
LJ          -1.78407       -0.900517        0.123532
LJ         -0.526883       -0.837549       -0.660862
LJ         -0.158018        0.338248       -0.951043
LJ         -0.677569        0.030789        0.046792
LJ        -0.0545293       -0.769149        0.256914
LJ          0.750973        -0.85413       -0.639786
LJ            1.9803       -0.134554       -0.719679
LJ            0.5919     -0.00498288     -0.00291755
LJ           1.75146        -1.16184       -0.213009
LJ           2.54686         0.96181       -0.830372
LJ          -1.60798         1.78869       -0.772562
LJ           2.46811         1.68747      -0.0247114
LJ          -1.90009         1.04884        0.267363
LJ          -1.11008        0.797922       -0.849564
LJ          0.124752         1.76556       -0.943484
LJ         -0.743164          1.5698      -0.0732391
LJ          0.101126        0.948218      -0.0576736
LJ          0.827458        0.961371       -0.818661
LJ           1.70662         1.78906       -0.933004
LJ          0.839066         2.03128      -0.0567839
LJ           1.69487        0.863907       -0.101865
LJ           2.46069          2.3266        0.739201
LJ          -1.40373        -1.77835        0.731112
LJ           2.48561        -1.61352         1.68255
LJ          -2.07109        -2.38597         1.40839
LJ         -0.650889         2.49317         1.09118
LJ         0.0865124        -1.58577        0.908861
LJ           -1.0295        -1.82529         1.77421
LJ         0.0867201        -2.35466         1.74158
LJ          0.872082         2.36475        0.960227
LJ           1.96124        -1.62715        0.799979
LJ            1.0085        -1.76719         1.80119
LJ           1.69217         -2.5572          1.6576
LJ           2.51653       -0.703997        0.963166
LJ          -1.70576       0.0582768        0.765505
LJ           2.52898       0.0129473         1.79174
LJ           -1.7913       -0.750823          1.7748
LJ         -0.693841        -1.00895          1.0267
LJ         0.0103724       -0.133614         1.05306
LJ         -0.858974         0.13331         1.96973
LJ          0.205727        -1.06432          1.9145
LJ           1.08739        -1.00268         0.68802
LJ           1.55328      -0.0907656        0.662756
LJ          0.801084     0.000842213         1.91582
LJ           1.66876       -0.796579         1.85652
LJ           2.38564        0.808119        0.756147
LJ          -1.61318         1.90228         0.85905
LJ           2.43423         1.57019         1.50502
LJ          -1.80453         1.03971         1.63432
LJ         -0.905046        0.773612        0.898067
LJ          0.129583         1.46876        0.839268
LJ         -0.791349         1.58418         1.55684
LJ          0.111362        0.795151         1.56639
LJ            1.0482         0.75443         1.00867
LJ           1.56136         1.70605        0.552397
LJ          0.821197         1.56447         1.65846
LJ           1.70376        0.861206          1.8244
