108
#Comment!
LJ           2.31649        -2.55769         2.50036
LJ          -1.66089        -1.87388           2.541
LJ          -2.50877        -1.69746        -1.83476
LJ          -1.84259         2.49818        -1.77327
LJ          -0.95677         2.47495         2.55127
LJ         -0.109284        -1.90257        -2.40008
LJ         -0.858582        -1.62194        -1.57363
LJ         -0.011776         2.48564        -1.73915
LJ          0.925791         2.50315        -2.43595
LJ           1.64587        -1.81525        -2.49567
LJ           0.80713        -1.50664        -1.52813
LJ           1.90398        -2.52191        -1.62632
LJ           2.44747       -0.884383         2.54124
LJ          -1.63342       0.0727484        -2.52495
LJ          -2.43635        0.112475        -1.77703
LJ          -1.81451       -0.908438         -1.6446
LJ          -1.23238       -0.905217         2.50042
LJ        -0.0476815      -0.0559979         2.55157
LJ         -0.756152        0.146024        -1.68797
LJ          0.124921       -0.786781        -1.76339
LJ          0.918973       -0.943445        -2.51103
LJ           1.75369       0.0785537        -2.55706
LJ          0.753396        0.165993        -1.65587
LJ           1.59807       -0.790603        -1.78285
LJ          -2.50393        0.897899         2.51322
LJ          -1.78395         1.85041         2.45953
LJ          -2.51806         1.67497        -1.82267
LJ          -1.69471         0.97194        -1.73545
LJ         -0.641256        0.965481         2.29119
LJ          0.150719         1.73828         2.39398
LJ         -0.816302         1.69884        -1.70306
LJ        -0.0871801         0.96828        -1.73444
LJ          0.798303        0.855524        -2.40173
LJ           1.80491         1.82278        -2.45798
LJ          0.966058         1.71436        -1.61819
LJ           1.73485        0.758715        -1.67091
LJ           -2.4974         -2.5442       -0.816077
LJ          -1.51047        -1.78688       -0.675255
LJ           2.45576        -1.80384      -0.0740991
LJ          -1.76091         2.49058      -0.0302574
LJ          -0.82134         2.48457       -0.859694
LJ        -0.0335697        -1.71761       -0.853914
LJ         -0.862962        -1.78869       0.0718778
LJ         -0.139606         2.34614       0.0290074
LJ          0.913868         2.46655       -0.861396
LJ           1.56948        -1.74845       -0.853264
LJ           0.73917        -1.80455        0.153632
LJ           1.62981        -2.48432      -0.0441084
LJ          -2.42444       -0.974859       -0.800499
LJ             -1.92        0.133424       -0.790319
LJ            2.4706        0.114527      -0.0479528
LJ          -1.71411       -0.801549      -0.0730801
LJ         -0.852691       -0.694317       -0.772435
LJ        -0.0217089       0.0151603       -0.743924
LJ         -0.892306       0.0169035      -0.0163378
LJ        -0.0169265          -0.727      -0.0450932
LJ          0.948783       -0.794081        -0.78506
LJ           1.82028       -0.105748       -0.769273
LJ          0.947627      -0.0264132      -0.0824445
LJ           1.68632        -1.07027      -0.0949188
LJ          -2.53344         1.07681       -0.754803
LJ          -1.67486         1.76964       -0.975434
LJ           2.53198         1.76474        0.176324
LJ          -1.86424        0.880562        0.028276
LJ         -0.793117        0.726917       -0.870797
LJ        -0.0446716         1.74567       -0.937047
LJ         -0.955412         1.61631       -0.166223
LJ         -0.120837         1.06791      -0.0468881
LJ          0.686009        0.929897       -0.803626
LJ           1.81516          1.8804       -0.911634
LJ          0.677913         1.77636      -0.0490241
LJ           1.65726        0.865995      -0.0193087
LJ            2.5203         2.52233        0.937094
LJ          -1.52096        -1.74421         0.88842
LJ           2.43666        -1.67284         1.64508
LJ           -1.8658         2.55588         1.62547
LJ         -0.837824        -2.56362        0.818623
LJ         0.0177724        -1.65911        0.804453
LJ         -0.827843        -1.66978         1.70365
LJ          0.187292         -2.4699          1.7827
LJ           1.11953         2.54505        0.943378
LJ           1.82263        -1.74509         0.85084
LJ          0.869918        -1.59564          1.6084
LJ           1.67228        -2.49239         1.82054
LJ           2.44034       -0.665048        0.846943
LJ          -1.83132     0.000914785        0.936555
LJ          -2.47608      -0.0255675         1.95689
LJ          -1.84803       -0.843315         1.71729
LJ         -0.688548       -0.846506        0.746262
LJ          0.110631       -0.069615         0.81455
LJ         -0.691972       0.0627769         1.68855
LJ         -0.081873       -0.901338         1.70166
LJ          0.738216       -0.894284         0.83053
LJ           1.55519      -0.0332368        0.776612
LJ          0.785918      -0.0973936         1.83199
LJ           1.73036       -0.817111         1.65588
LJ           2.40849        0.797749        0.799315
LJ          -1.74937         1.76368        0.777829
LJ          -2.54504         1.71471         1.74038
LJ           -1.7194         0.78458         1.65817
LJ         -0.906191        0.724226        0.791971
LJ         0.0490767           1.613        0.910273
LJ         -0.915886           1.685         1.58473
LJ        0.00290987        0.894562         1.52134
LJ          0.935594        0.794287        0.963067
LJ           1.76313         1.74805         0.83591
LJ          0.956281         1.64104         1.69211
LJ           1.65457         1.02186         1.72964
