108
#Comment!
LJ          0.121739        -1.93684        -1.96566
LJ           2.18836       -0.570161        0.438458
LJ        0.00576506        0.927372        0.107058
LJ           -2.3897         2.36765          1.4734
LJ          -2.54533         -1.5315        -1.95844
LJ          0.860954        -2.44121         1.65234
LJ          -1.15422       -0.398947       -0.401212
LJ          -1.07884        -0.20944         2.16346
LJ          -1.12741         2.52607       -0.801976
LJ          0.545156         2.39087          -2.436
LJ          -1.86495        -1.30061       -0.407301
LJ          -0.47161        0.691589         2.16625
LJ         -0.818476         1.53187       -0.666665
LJ          -2.19139        0.173885        -1.95078
LJ            1.2946        -1.23477        -1.83936
LJ           1.26348       -0.833491        0.107404
LJ           1.09018         2.06875       -0.713781
LJ          0.800001        0.187739          -1.735
LJ           -1.9082         1.99228         2.35472
LJ          0.455062         1.31011        -2.16777
LJ          0.249337         -1.3157        -1.21462
LJ          -1.45636         1.02259        -2.23473
LJ          -1.20916        -0.66169        -1.82067
LJ           0.50671        0.858553         1.41762
LJ           1.52846        0.861594        -1.43898
LJ           2.15345         1.91935      -0.0323086
LJ            1.8752         2.41727         2.26119
LJ         -0.622588         -1.2829       -0.650758
LJ           1.37888         1.44327         2.28475
LJ           0.89256        -1.72994        0.774442
LJ         -0.701286        0.666295         1.11208
LJ         -0.298149         1.77457        0.880365
LJ          -1.01554         2.34036        0.240818
LJ          -2.24691        0.133649       -0.131435
LJ          -2.26028         -1.6511         1.66059
LJ          -1.85001        0.427785         1.78808
LJ           -2.2119        -2.43044        0.427944
LJ             2.171      -0.0378303         1.82287
LJ          -1.28169        -1.85674        -1.59079
LJ         -0.222565       -0.817385         1.91929
LJ          -1.22558         -1.4782         1.41108
LJ          -1.20622       -0.655501        0.746807
LJ          -1.83011         1.72065       -0.962332
LJ           1.40464         -2.5237        0.152154
LJ           1.24339        -1.66336       -0.706603
LJ          0.386524        -1.71274       -0.249877
LJ         0.0163709       -0.286215        -1.18925
LJ           1.78902         1.83064         1.12367
LJ           1.01329       -0.637918        -1.00445
LJ          -2.56066         1.06413      -0.0319144
LJ          0.118935      -0.0784983         1.42049
LJ          -1.98829         -1.3955        0.588395
LJ          -1.10297         1.54837         1.80386
LJ          -1.42564         1.98903        -1.84546
LJ          -1.01264        -1.72572        0.194225
LJ          -1.75725        -1.68517         2.55912
LJ           2.54077         2.47536        -1.98235
LJ         -0.164154        0.604057       -0.789136
LJ          -2.23636       -0.454378         1.23917
LJ          -1.73262        0.580624        0.667991
LJ            1.8133        -2.22415          1.1537
LJ           1.85336        -1.49455         2.40276
LJ           1.49701        0.770155         1.50456
LJ           1.64366        0.179356      -0.0546023
LJ          -2.33507         1.36975         1.09366
LJ          0.675185        -1.20796         1.60195
LJ         -0.745752        -1.39442        -2.54819
LJ        -0.0644474         1.76147          2.0468
LJ           1.99269        -2.41054       -0.796041
LJ          0.858679        0.536461       -0.699111
LJ          -2.36228         1.40763        -1.89873
LJ            1.9798        -1.71278        0.186987
LJ           2.24659        0.377399        0.810049
LJ          0.259488         2.27037      -0.0588494
LJ          -1.32072        0.539419        -0.94873
LJ           1.31296         1.28961      -0.0486992
LJ            0.7894        0.240134         2.33271
LJ          0.408994       -0.780429        0.752977
LJ           -2.2755       -0.779701         2.23424
LJ           1.79284       -0.308296        -2.22569
LJ           2.22403        -1.05764       -0.843377
LJ        -0.0216919       -0.385538        -2.22649
LJ          -1.52874         1.55151        0.439024
LJ           1.26436       -0.385296         1.21819
LJ          0.373192         1.47734        -1.13505
LJ          -1.03286        -2.55456         2.22052
LJ          -2.53594        0.724085        -1.04643
LJ           1.88482        -1.19378         1.31249
LJ           1.55774        -2.27748        -1.91488
LJ         -0.476061       -0.127904        0.267421
LJ         -0.272947           -1.76        0.991423
LJ           1.70753         1.77224        -1.99482
LJ          0.835684         -1.7972         2.49073
LJ          0.714128         2.04731        0.900986
LJ           0.94467       -0.728368         2.47451
LJ         -0.949142        0.816185      0.00998322
LJ         -0.413261         1.83088        -2.08798
LJ          0.804385         0.33391         0.60451
LJ          0.375721       -0.321015       -0.251299
LJ           1.99764       -0.127822        -1.29417
LJ          -1.26754         2.29409         1.20552
LJ           2.23699         1.73885        -1.05213
LJ         -0.122755        -2.06291         2.08418
LJ           2.15919        0.674374        -2.32661
LJ          -2.03136       -0.210144        -1.09236
LJ           2.49047          1.4526         2.09435
LJ        -0.0493985         2.49838          -1.207
LJ          -2.16958        -2.18626         -1.1072
