108
#Comment!
LJ           2.54724        -2.54522         2.55629
LJ           -1.7083        -1.87825        -2.56035
LJ           -2.4631         -1.6802        -1.69237
LJ          -1.82354        -2.54313        -1.70921
LJ         -0.888232         2.39762         2.47893
LJ         -0.223523        -1.80324        -2.49711
LJ         -0.856709        -1.65115        -1.54855
LJ      -0.000468734         -2.5557        -1.69974
LJ          0.888531         2.49762         2.52442
LJ           1.63367        -1.82547        -2.53994
LJ          0.914745        -1.53791        -1.66668
LJ           1.88933        -2.49831         -1.7253
LJ           2.42375       -0.876694         -2.5347
LJ          -1.56962       0.0744648         2.54959
LJ           2.53666       0.0598896        -1.79786
LJ          -1.79504       -0.898916        -1.73014
LJ          -1.10658       -0.881956         2.53422
LJ         0.0463686       -0.127822         2.50922
LJ         -0.920205        0.118603        -1.73187
LJ         0.0214354         -0.8613        -1.68468
LJ          0.887865       -0.988404        -2.49808
LJ           1.85236        0.151165        -2.51982
LJ          0.751167        0.207928        -1.69573
LJ           1.66201       -0.860682         -1.6851
LJ           2.53957        0.836625         2.55985
LJ          -1.76588         1.75774         2.55568
LJ          -2.49236         1.56261        -1.77492
LJ          -1.77507        0.925781        -1.65109
LJ         -0.720908        0.927637         2.29447
LJ          0.191349         1.72747         2.41364
LJ         -0.851606         1.66692        -1.65396
LJ        -0.0562291        0.874987         -1.8828
LJ          0.820378        0.904044        -2.37236
LJ           1.79929         1.73518         -2.4621
LJ           1.02336         1.83116         -1.6152
LJ           1.74584        0.879525        -1.67328
LJ          -2.50378         -2.4773       -0.836411
LJ          -1.48446        -1.68008       -0.731501
LJ           2.48459        -1.75749      -0.0259334
LJ          -1.60911         2.56219       0.0259261
LJ         -0.745722         2.56064       -0.842387
LJ        -0.0224683        -1.71451       -0.892059
LJ         -0.907247        -1.71155       0.0909354
LJ        -0.0886891         2.42758      -0.0141426
LJ          0.823168        -2.56451       -0.832081
LJ           1.59189        -1.80229       -0.786043
LJ          0.731683        -1.80322        0.161576
LJ           1.67068        -2.53688      -0.0704402
LJ          -2.52237        -0.86959       -0.814108
LJ          -1.95324        0.184381       -0.791706
LJ           2.43955      -0.0287528      -0.0549981
LJ          -1.71039       -0.897732      -0.0659755
LJ         -0.874078       -0.746971       -0.819669
LJ        -0.0614524     -0.00391963       -0.856188
LJ         -0.892339     -0.00907297      -0.0416123
LJ        -0.0509135       -0.702594      0.00142315
LJ          0.873327       -0.896669        -0.71987
LJ           1.67647       -0.198886       -0.826289
LJ          0.948292      -0.0719314       -0.148548
LJ           1.69824       -0.987511      -0.0830329
LJ          -2.49593         1.03347       -0.812071
LJ          -1.71849         1.77164        -0.97913
LJ          -2.51131         1.77549       0.0830446
LJ          -1.68695        0.940204        0.102411
LJ         -0.866466        0.788403        -0.68054
LJ         -0.132998         1.71435       -0.991828
LJ         -0.863773         1.77142       -0.184428
LJ        -0.0955517        0.953564       0.0166229
LJ          0.694126         0.88179       -0.836568
LJ           1.72764         1.88535        -0.87442
LJ          0.685284         1.74559       -0.145266
LJ           1.69552        0.759112       0.0536072
LJ           2.50807         2.54608          0.9947
LJ          -1.63155         -1.7421        0.923736
LJ           2.31028         -1.6883         1.68083
LJ          -1.88942         2.54329         1.66225
LJ         -0.835886         2.44326        0.759629
LJ           0.05726        -1.72448        0.919374
LJ          -0.85289         -1.6861         1.73428
LJ         0.0587629        -2.51309         1.89122
LJ           1.04093         2.43445        0.986579
LJ           1.66669        -1.78345        0.838423
LJ          0.923147        -1.61112          1.6405
LJ           1.65566        -2.51236         1.74088
LJ           2.43238       -0.576489        0.901217
LJ          -1.74945       -0.022558        0.836252
LJ          -2.50816      -0.0364623         1.98518
LJ          -1.77281       -0.887207          1.7373
LJ         -0.735244       -0.860484        0.818127
LJ         0.0754298      -0.0356784        0.830796
LJ          -0.67997       0.0614936         1.73838
LJ        -0.0334763       -0.904041         1.62147
LJ          0.744785       -0.947386        0.739728
LJ           1.64251      -0.0614278        0.737297
LJ          0.857648       -0.147205         1.73353
LJ           1.70675       -0.852288         1.73994
LJ             2.445        0.917541        0.806115
LJ          -1.77557         1.74567        0.811141
LJ          -2.55237         1.71267         1.76733
LJ          -1.70929        0.777465         1.71345
LJ         -0.905739        0.662421        0.834601
LJ        0.00263394         1.57846        0.958336
LJ         -0.817996          1.7294         1.65468
LJ        -0.0156484        0.797377         1.53575
LJ          0.883176        0.785178        0.805938
LJ           1.75536         1.72311        0.761282
LJ          0.813676         1.58207         1.67554
LJ           1.65129         1.02213         1.62012
