108
#Comment!
LJ           2.56447        -2.41885         2.53729
LJ          -1.71549         -1.6357         2.49743
LJ           2.55673        -1.65765        -1.73881
LJ          -1.72917        -2.38108        -1.74744
LJ         -0.776955         2.52046         2.48751
LJ         0.0422856        -2.05707        -2.42999
LJ          -1.09426        -1.41395        -1.60304
LJ         0.0267343         2.22302        -1.73753
LJ           1.01155         2.43842        -2.53156
LJ           1.70632        -1.82031         2.52001
LJ           1.02812        -1.81595        -1.69865
LJ           1.92446         2.48207        -1.60377
LJ            2.4903       -0.741086         2.55325
LJ          -1.85308      0.00110614         2.54524
LJ           2.51045        0.172238        -1.98122
LJ          -1.77279        -0.47347        -1.54894
LJ            -1.077       -0.852058         -2.3912
LJ         0.0127177       -0.182269        -2.42347
LJ          -0.71314      -0.0113362        -1.68096
LJ         -0.134211        -1.08018        -1.91402
LJ           1.00188         -1.1198         -2.4709
LJ           1.64245        0.010418        -2.50707
LJ          0.807159       0.0355868        -1.73514
LJ           1.57511        -0.68276        -1.71519
LJ          -2.48379          1.0192         2.50037
LJ          -1.73704         1.96294         2.55425
LJ          -2.45176         1.67785        -1.66289
LJ          -1.50521        0.864788        -1.81487
LJ         -0.648657         1.13227         2.49547
LJ          0.145936          1.7979         2.45056
LJ         -0.838147         1.63616        -1.72637
LJ         0.0572864         1.06032        -1.75989
LJ          0.996924        0.935096         2.55905
LJ           1.89425         1.81383         2.45245
LJ          0.911119         1.80226        -1.69904
LJ           1.70322         0.89479        -1.73649
LJ           2.43645         2.37643       -0.771724
LJ          -1.47885        -1.84265       -0.728415
LJ          -2.49887        -1.84921      -0.0329976
LJ           -1.6805         2.50494      -0.0773991
LJ          -0.75879        -2.49352        -1.11298
LJ          0.113822        -1.67421        -0.89309
LJ         -0.440366        -1.78631      -0.0256077
LJ         -0.212838         2.37929       0.0511276
LJ          0.832568        -2.53748       -0.974804
LJ           1.71739        -1.72257       -0.960035
LJ          0.630983        -2.05522        0.131429
LJ           1.69941        -2.39693      -0.0340351
LJ          -2.50019       -0.878986       -0.646338
LJ          -1.90097       0.0594081       -0.718568
LJ           2.49044       0.0690527       0.0599379
LJ          -1.56471       -0.952596       0.0388663
LJ         -0.522618        -0.84585       -0.739747
LJ        -0.0481395        0.194769        -1.00881
LJ         -0.939637       -0.144349       -0.105216
LJ         0.0151102       -0.763669           0.254
LJ          0.865023       -0.997367       -0.722622
LJ           2.01557      -0.0663968       -0.912232
LJ          0.708765       0.0588666      -0.0347642
LJ           1.56421       -0.899636      -0.0769038
LJ          -2.43771        0.946258       -0.935076
LJ          -1.54757         1.72984       -0.773798
LJ           2.45332         1.78629       0.0787314
LJ          -1.90623        0.966148        -0.01824
LJ          -1.10621        0.703914        -0.89877
LJ           0.08203         1.81161       -0.801391
LJ         -0.783803         1.46473       -0.150335
LJ        -0.0784165        0.825686       0.0826342
LJ          0.736554         1.01952       -0.702975
LJ           1.64635         1.55975       -0.950598
LJ          0.844156         1.96336      -0.0842886
LJ           1.67653        0.875218        -0.24136
LJ           2.51227         2.47149        0.899971
LJ          -1.41074        -1.75371        0.643614
LJ           2.50835        -1.58478         1.81471
LJ          -2.08697        -2.50709         1.71736
LJ          -0.64114        -2.53143         1.03542
LJ          0.179534        -1.61376         1.00326
LJ         -0.908784        -1.70424          1.6669
LJ         0.0843242        -2.34093         1.70307
LJ          0.960958         2.40353        0.921835
LJ           1.91444         -1.5266        0.704647
LJ          0.989542        -1.78653         1.70055
LJ           1.71995         2.53196         1.72873
LJ           2.55856       -0.670295         1.00514
LJ          -1.69328      -0.0191951        0.856185
LJ          -2.53845       0.0479309         1.85358
LJ          -1.79499       -0.851765         1.64533
LJ         -0.747637        -0.83737          1.0587
LJ         0.0338856      0.00938145        0.912566
LJ         -0.819475        0.194116         1.94717
LJ          0.249798       -0.929425         1.91459
LJ          0.987946        -1.03619        0.760525
LJ           1.63851       -0.125065        0.690171
LJ          0.867333      -0.0189018         1.83595
LJ           1.65787       -0.782675         1.76268
LJ           2.44558         0.89171        0.895194
LJ          -1.51965          1.8899        0.802919
LJ           2.46018         1.62445         1.58676
LJ          -1.69996        0.918957         1.51037
LJ         -0.892503        0.619826        0.857609
LJ          0.212546         1.46473        0.798313
LJ         -0.851717         1.61109         1.52248
LJ         -0.035841        0.820535         1.60943
LJ           1.01274        0.696126        0.824103
LJ            1.5971          1.7013        0.558797
LJ          0.843819         1.55578          1.7415
LJ           1.89752        0.820401         1.81071
