108
#Comment!
LJ           2.52895        -2.43854         2.53584
LJ          -1.69103        -1.66783         2.44731
LJ           2.56333        -1.65524        -1.63858
LJ          -1.72076        -2.37585        -1.80762
LJ         -0.832534         2.48071         2.49131
LJ         0.0444996        -2.05257        -2.49886
LJ          -1.12603        -1.43712        -1.61092
LJ         0.0752821         2.26662        -1.62696
LJ          0.938284         2.37373        -2.51785
LJ           1.82438        -1.73233         2.50124
LJ           1.00316          -1.786        -1.66977
LJ           1.91962         2.55233        -1.55416
LJ           2.41883        -0.80411         2.51232
LJ          -1.73497       0.0972095         2.53127
LJ          -2.54562        0.175269        -1.83032
LJ           -1.6608       -0.498177        -1.52326
LJ          -1.14193       -0.862597        -2.44164
LJ         0.0238093       -0.236085        -2.43495
LJ         -0.821197       0.0151038        -1.71411
LJ         -0.107151         -1.0026        -1.89095
LJ          0.950202        -1.11297        -2.46366
LJ           1.66403       0.0727766        -2.50724
LJ          0.749825     -0.00616266        -1.71156
LJ           1.64636       -0.766291        -1.74035
LJ          -2.41055         1.09533         2.46274
LJ           -1.7918         1.86039         2.51835
LJ           -2.4995         1.65678         -1.6378
LJ          -1.50399        0.880524        -1.74083
LJ         -0.640802         1.11906        -2.54678
LJ         0.0991982         1.77308         2.51365
LJ         -0.826692         1.72697        -1.67082
LJ         0.0622761         1.07474        -1.70513
LJ           1.03943        0.838634        -2.54991
LJ           1.84503         1.86309         2.51096
LJ          0.874992         1.74619        -1.60976
LJ           1.81093        0.889908        -1.83133
LJ           2.52332         2.37696       -0.621991
LJ          -1.56247        -1.90109       -0.782612
LJ          -2.41735        -1.75705       -0.144412
LJ          -1.78205         2.46143      -0.0603247
LJ         -0.671637        -2.52704         -1.0067
LJ          0.104183        -1.74835       -0.893885
LJ         -0.489348          -1.775       0.0391483
LJ         -0.318759         2.36573        0.199197
LJ           0.79522        -2.53562       -0.931872
LJ           1.72575        -1.66103        -0.96229
LJ           0.60592        -2.12991       0.0259748
LJ           1.67021        -2.32293       0.0364901
LJ          -2.37461       -0.877972       -0.749776
LJ          -1.83038       0.0614049       -0.602623
LJ           2.44833       0.0771308      0.00794178
LJ          -1.56976       -0.904847       0.0385617
LJ         -0.584802       -0.878509       -0.804056
LJ       -0.00854783        0.318736       -0.955665
LJ         -0.878457      -0.0627941      -0.0929669
LJ         0.0290367       -0.834738        0.237521
LJ          0.820908       -0.975679       -0.745376
LJ           1.91038       -0.149546       -0.883184
LJ          0.759774       0.0409955      -0.0441839
LJ            1.6695       -0.901064       -0.178337
LJ          -2.42147        0.905869        -0.93085
LJ          -1.61765         1.72383        -0.89438
LJ           2.47319         1.67416        0.103486
LJ          -1.95395         1.01096       -0.036719
LJ          -1.06534        0.704864       -0.836602
LJ         0.0360407         1.63784       -0.798581
LJ         -0.813605           1.538       -0.144584
LJ        -0.0599278        0.875529        0.118958
LJ          0.776484        0.896999       -0.672404
LJ           1.66395         1.62824       -0.967241
LJ           0.85457         2.00209      -0.0214714
LJ           1.73382        0.818017       -0.213934
LJ           2.45624         2.47083        0.833826
LJ          -1.39871        -1.70788        0.614052
LJ           2.44561        -1.56502         1.71719
LJ          -1.99461         2.48329         1.64623
LJ         -0.696605        -2.44091         1.08335
LJ          0.151221        -1.59046        0.856793
LJ         -0.898638         -1.7289         1.70186
LJ         0.0767785        -2.33597         1.73043
LJ          0.969984         2.42331         0.89635
LJ           2.00736        -1.53437        0.662054
LJ           1.00345        -1.82301         1.64372
LJ           1.69585         2.55833         1.67558
LJ            2.5527       -0.631963        0.973731
LJ          -1.72916      -0.0569366         0.93842
LJ           2.52881       0.0149108         1.82793
LJ          -1.75385        -0.95465         1.58457
LJ         -0.695518       -0.910112        0.939514
LJ         0.0803077      0.00545396         1.06336
LJ         -0.841808        0.166946         2.04927
LJ          0.092795       -0.883634         1.86597
LJ           1.03231       -0.962209        0.720887
LJ           1.64587       -0.115393        0.670036
LJ          0.748747      -0.0486941         1.85771
LJ           1.64505       -0.843205         1.71629
LJ          -2.56212        0.803146        0.935723
LJ          -1.45614         1.89553        0.732958
LJ           2.41756         1.67821         1.54588
LJ          -1.64752        0.951971         1.56688
LJ         -0.899042         0.65713        0.826594
LJ          0.264377          1.4454        0.862007
LJ         -0.831931         1.55002         1.58389
LJ        -0.0188557        0.854887         1.60154
LJ          0.930326        0.685121        0.823167
LJ           1.66453          1.7362        0.725307
LJ          0.893824         1.51862         1.83237
LJ           1.76088        0.806486         1.80667
