108
#Comment!
LJ           2.31527        -2.52517         2.54979
LJ           -1.5748        -1.85299         2.45664
LJ          -2.50268        -1.73983        -1.74387
LJ          -1.85113         2.50501        -1.75597
LJ         -0.903082         2.50309         2.49422
LJ         -0.144346        -1.89483        -2.46862
LJ         -0.861869        -1.59017        -1.63186
LJ          0.018412         2.45968        -1.73568
LJ           0.88655          2.4789        -2.39778
LJ           1.64504        -1.72331        -2.48585
LJ          0.784012            -1.5         -1.5392
LJ           1.89558        -2.50811        -1.67359
LJ            2.4217       -0.912038         2.55496
LJ          -1.63066      -0.0198656         2.56395
LJ          -2.40174        0.175253        -1.79434
LJ          -1.82453       -0.933519        -1.58809
LJ          -1.12357       -0.933877         2.48121
LJ        -0.0553912      -0.0645058         2.49485
LJ         -0.739614        0.129151         -1.7468
LJ         0.0803816       -0.791372        -1.80199
LJ           1.01918       -0.928221        -2.51274
LJ           1.77413        0.128309         2.56464
LJ          0.691799        0.160905        -1.66599
LJ           1.61248       -0.861473        -1.71904
LJ          -2.52913         0.87077         2.49297
LJ          -1.81515         1.89129         2.41665
LJ          -2.52614         1.62321        -1.80101
LJ          -1.71059        0.893932        -1.75285
LJ         -0.607716         1.02043          2.3046
LJ          0.171844         1.69128         2.43064
LJ         -0.816657         1.66093        -1.70274
LJ         -0.105122        0.937643        -1.70071
LJ          0.752527         0.75834        -2.44287
LJ           1.71761          1.7829         -2.5187
LJ          0.938336         1.71283        -1.55817
LJ           1.74828        0.850485        -1.69945
LJ          -2.49905        -2.54082       -0.763315
LJ          -1.55059        -1.76486       -0.697886
LJ           2.50968        -1.75832     -0.00580444
LJ          -1.75071         2.46653      -0.0590285
LJ          -0.78416         2.47272       -0.794189
LJ        -0.0558759        -1.68096       -0.873582
LJ         -0.805303        -1.78266       0.0840903
LJ         -0.186661         2.39515       0.0568897
LJ          0.935985         2.48289       -0.853384
LJ           1.61975        -1.73906       -0.896488
LJ          0.768337         -1.8181         0.17051
LJ           1.64478        -2.43856      -0.0668529
LJ          -2.49067       -0.958877       -0.775413
LJ           -1.9257        0.118496       -0.790214
LJ           2.53632       0.0572074      -0.0398367
LJ          -1.75148       -0.717445       -0.107741
LJ          -0.82494       -0.743557       -0.780656
LJ        -0.0486734        0.134674       -0.710189
LJ         -0.881511      -0.0222554       0.0674371
LJ         -0.105435       -0.701984       -0.128568
LJ          0.874461       -0.764982       -0.861859
LJ           1.82326        -0.15355       -0.836315
LJ          0.945316       0.0162188       -0.105811
LJ           1.73257       -0.983758      -0.0919302
LJ          -2.54328         1.03118       -0.679533
LJ          -1.66855         1.73737       -0.977126
LJ           2.49325         1.72504         0.21448
LJ            -1.826        0.921465       0.0747223
LJ         -0.812549        0.759675        -0.86584
LJ        -0.0101227         1.67352       -0.882169
LJ         -0.903516          1.6518       -0.126853
LJ        -0.0459776         1.04202      -0.0588244
LJ          0.685361        0.922162       -0.823128
LJ           1.87535         1.81256       -0.931011
LJ          0.746608         1.85513      -0.0967256
LJ           1.72262        0.887518      -0.0333192
LJ           2.45966          2.5423         1.00445
LJ          -1.55144        -1.86561         0.93178
LJ           2.49401        -1.68099         1.65087
LJ          -1.79023        -2.56141         1.66107
LJ         -0.833959         2.49538         0.80512
LJ        0.00152685         -1.7172        0.809831
LJ         -0.881132        -1.64956         1.68945
LJ           0.19105        -2.44981         1.78308
LJ           1.08914        -2.51645        0.961966
LJ           1.88294        -1.72565        0.767129
LJ          0.909187        -1.59625         1.57827
LJ           1.60762        -2.52842         1.79644
LJ           2.47108       -0.697622        0.859014
LJ          -1.91526       0.0167097        0.932253
LJ           -2.5216     -0.00644983         1.91608
LJ          -1.82346       -0.822524         1.68152
LJ         -0.685175       -0.813276        0.728483
LJ         0.0704749      -0.0794295        0.797822
LJ         -0.748136        0.102739          1.7356
LJ       -0.00537785        -0.95213         1.69276
LJ          0.804602       -0.951578        0.827291
LJ           1.57703      -0.0138074        0.728959
LJ          0.763607       -0.099292         1.84783
LJ           1.74009       -0.865691         1.67698
LJ           2.41423        0.756199        0.761954
LJ          -1.73261         1.73628        0.764708
LJ           2.50298         1.71553         1.70576
LJ          -1.74964        0.766394         1.57584
LJ         -0.879963        0.701189        0.782052
LJ         0.0797922         1.67959        0.833229
LJ         -0.830443         1.68704         1.48776
LJ         0.0418495         0.86959         1.51192
LJ          0.895646        0.865089         1.04593
LJ           1.71674         1.74209        0.838428
LJ          0.970884         1.70294         1.74963
LJ           1.70514          1.0309         1.73049
