108
#Comment!
LJ          -2.45672        -2.45187          2.4842
LJ          -1.82126        -1.53495          2.5631
LJ          -2.34112        -1.56584        -1.79103
LJ          -1.52565        -2.47476        -1.80828
LJ         -0.855504         2.41307        -2.55627
LJ         -0.188179        -1.61043         2.47178
LJ          -1.02413        -1.61109        -1.82719
LJ          0.051799         2.46373         -1.9331
LJ          0.924002        -2.40901         2.51527
LJ           1.74086        -1.60941         2.45063
LJ           1.16873        -1.81913        -1.72021
LJ           1.91279         2.40849        -1.61239
LJ           2.47549       -0.615991         2.48833
LJ          -1.82824      -0.0136946         2.32826
LJ          -2.45926      -0.0521939        -1.78988
LJ          -1.54941        -0.56638        -1.64331
LJ          -1.08239       -0.659248        -2.51834
LJ        -0.0187995       -0.240038        -2.46386
LJ         -0.812639       0.0349758        -1.80508
LJ          0.114206       -0.998478        -1.73179
LJ          0.779261       -0.965794         2.52428
LJ           1.74621        -0.11622        -2.40598
LJ          0.782013        0.174357         -1.6926
LJ           1.53661       -0.794347          -1.564
LJ          -2.51382         0.96919        -2.44759
LJ          -1.78846         1.98191         2.36531
LJ          -2.42986         1.65059        -1.46504
LJ          -1.63887        0.726562         -2.0278
LJ         -0.481312        0.762604         2.54705
LJ          0.132826          1.6731         2.38292
LJ          -1.22346         1.65774        -1.62539
LJ          -0.02334         1.08953        -1.70215
LJ           1.13685         0.97297        -2.55396
LJ           1.80898         1.78173        -2.54934
LJ          0.995622         1.80834        -1.91234
LJ           1.68974        0.794802         -1.6502
LJ           2.54759         2.43534       -0.740506
LJ          -1.44984        -1.70215       -0.820778
LJ          -2.40824        -1.70226       -0.105803
LJ          -1.56557        -2.56226        0.117651
LJ         -0.616092        -2.45888        -1.08655
LJ         0.0654253        -1.78966       -0.786599
LJ         -0.728912        -1.76274      -0.0964693
LJ        -0.0528739         2.37599         0.16065
LJ          0.718038        -2.54588       -0.833388
LJ           1.94426        -1.66409       -0.954183
LJ          0.747357        -1.87195        0.206495
LJ           1.62702        -2.47543       0.0299252
LJ          -2.46879       -0.863198       -0.825958
LJ          -1.93079        0.112354       -0.924324
LJ          -2.42109        0.112722       0.0194886
LJ          -1.70359       -0.743035      -0.0101417
LJ         -0.802315       -0.787025       -0.864885
LJ         -0.181352       0.0225508       -0.986134
LJ         -0.682077      -0.0564659        0.128125
LJ        -0.0170203       -0.829154        0.130078
LJ          0.968148        -1.18667       -0.730565
LJ           1.83941       -0.204708       -0.650229
LJ          0.806851       0.0772607       0.0749224
LJ           1.95787        -1.05404      -0.0568626
LJ           2.50919        0.881368        -0.82612
LJ          -1.79655         1.69655       -0.729323
LJ           2.42488         1.56204       0.0511797
LJ          -1.88022         1.03549        0.167989
LJ          -1.07588        0.728039       -0.958006
LJ          0.197197         1.71798       -0.885148
LJ         -0.804805         1.72636       -0.164689
LJ          0.078123        0.847559       -0.115398
LJ          0.905719        0.907142       -0.894377
LJ           1.77271         1.69138       -0.831336
LJ          0.995908         1.57671       -0.108204
LJ            1.5703        0.855599       0.0856251
LJ          -2.51019         2.45126        0.599416
LJ          -1.50401         -1.8627        0.882458
LJ          -2.52179        -1.49346         1.60636
LJ           -1.9995        -2.32787         1.64077
LJ         -0.836612         2.37375         1.00419
LJ        -0.0780212        -1.48847         1.02798
LJ         -0.987351        -1.66832         1.84434
LJ          0.140889        -2.29633         1.71232
LJ          0.824889         2.39192        0.949417
LJ           1.67739        -1.47581         1.04071
LJ          0.898738        -1.62828         1.74776
LJ           1.84273        -2.45505         1.61402
LJ          -2.44226       -0.827372         0.78263
LJ          -1.62341       0.0517337        0.775138
LJ           2.43716      -0.0265093         1.61873
LJ          -1.68793       -0.879501         1.54929
LJ          -0.90208       -0.868321          0.9766
LJ          0.169809      -0.0642484        0.878925
LJ         -0.988125      -0.0535591         1.79303
LJ          0.217156       -0.758201         1.68769
LJ          0.872376       -0.900293        0.630716
LJ           1.76685       -0.317241        0.778194
LJ          0.863771       0.0159251          1.7783
LJ            1.5247        -0.74804         1.84256
LJ           2.32999        0.953888        0.993445
LJ          -1.76429         1.86569         1.11399
LJ           2.53844         1.93464         1.63547
LJ          -1.84483        0.823087         1.60653
LJ         -0.949066         0.87235        0.652325
LJ          0.385641         1.49018         0.75515
LJ         -0.789446         1.41732         1.64333
LJ          0.154466        0.834201         1.52082
LJ           1.20491        0.744785         1.00775
LJ            1.5155         1.73376          0.7636
LJ           1.04363         1.67896         1.66455
LJ            1.9061         1.10098         1.82859
