108
#Comment!
LJ           1.86428         1.12677          1.7965
LJ          -2.04419        -2.00148       -0.191113
LJ         -0.139176        -1.78575        0.562046
LJ          -1.82165         1.62251        0.722221
LJ          -1.82613        0.803047         1.95636
LJ          -2.11597        -1.21237         2.45299
LJ           2.00778        -0.89126         1.90021
LJ          0.725684        0.207085        0.369329
LJ           2.02095         2.16932         1.26656
LJ         0.0647832        0.561739        -2.34396
LJ          -2.27657         1.02532        -1.81846
LJ           1.04872         2.10357          2.1013
LJ         -0.373129         1.34078         2.13726
LJ          0.515642         1.51168        0.357077
LJ          0.740868         1.03265         2.28114
LJ          0.107987        -1.72403       -0.545377
LJ         -0.427294        -1.06608          1.5309
LJ         -0.920603        0.521641         1.47235
LJ           0.89998         -1.6663        0.148062
LJ           1.55086       -0.527694        -1.09921
LJ          -1.82873        0.582023         0.79141
LJ         -0.483196         2.37829        -0.78074
LJ           0.99509        -2.44462       -0.491694
LJ          -2.26657       -0.267329        0.363519
LJ         0.0469527        -2.36137         2.16416
LJ         -0.921021        -1.70496        -1.21398
LJ           1.77606        -2.19141        0.358614
LJ           1.82544        -2.03383        -1.72293
LJ           2.26999         1.78797        0.422033
LJ          -1.03131       -0.497443         1.00234
LJ          -1.93493        -2.45695         1.70033
LJ          0.172957       -0.678398        0.527813
LJ          -2.41043       -0.904619         1.14387
LJ           1.51488       0.0814505         2.12459
LJ           1.11936        -1.46741       -0.956009
LJ         -0.959603       -0.818569         2.49447
LJ         -0.597242         2.15461        0.921928
LJ          0.197447        -1.31061        -1.50147
LJ          0.757562        -1.24896          1.5962
LJ          -1.02013        0.786986       -0.653843
LJ          -1.30347          2.5281        -1.39443
LJ           1.62994        0.170307       -0.322253
LJ           1.95309          1.9391        -2.39131
LJ          -1.55665       -0.289787         1.82519
LJ           2.46809        -1.12876         0.11088
LJ          0.567368         -2.4611        -1.57334
LJ         -0.290407       -0.147838         1.89524
LJ          -1.27508      -0.0071495        0.059029
LJ           1.81321         -1.1259        0.860296
LJ           -1.4513         -2.2264        0.745387
LJ          -2.22111         1.85247         2.08459
LJ           2.38445        0.903133         0.84222
LJ          -1.54097        -1.42381         1.47844
LJ           1.88933       -0.283697        -2.07557
LJ            1.6575       -0.178108        0.771791
LJ          -1.05548        0.445122        -1.62488
LJ         -0.410601         2.37449        -1.83306
LJ           1.90879         2.13358       -0.613133
LJ           0.73224       -0.398643        -1.63979
LJ          -1.24709        -2.53797         2.51671
LJ          0.366004         1.82887         1.34873
LJ          0.257485         2.49446        0.167672
LJ          -2.45057         2.29988         -1.3172
LJ          -1.43869       -0.847896        -1.09622
LJ          0.526601        0.583394        -1.41262
LJ           2.23689        0.309412        -1.28368
LJ          -1.28778         1.76246         1.61854
LJ          0.305087        0.707137         1.43515
LJ           1.40778        -0.81696       -0.065172
LJ          -1.96465       0.0740285       -0.971268
LJ           1.38691        -1.21145        -1.98127
LJ            1.4063        0.680014         -2.1029
LJ           1.84026        -2.28722         2.28028
LJ           2.50472       -0.765207       -0.831737
LJ          -1.60056         1.58203        -1.28992
LJ          0.646484        -1.75047        -2.42914
LJ         -0.538966        -1.71785        -2.23299
LJ           -0.3193       -0.275742        -1.18523
LJ          -2.45559       0.0883788         1.58187
LJ           1.22385        0.983752         1.04423
LJ          0.270014       -0.578031        -2.47599
LJ          0.290528        0.832687       -0.426799
LJ          -0.76917        -1.87674       -0.230723
LJ          -1.33924         1.22417        -2.18777
LJ           2.46051        0.866467       -0.398615
LJ         -0.337702        0.344823        0.462832
LJ           2.54502        0.369932        -2.51929
LJ          -1.77353       -0.158802        -2.12374
LJ           1.40582        0.858122        -1.02377
LJ          -2.21747        -1.58226        -1.57731
LJ         -0.531784       -0.791966       -0.181203
LJ          -0.91249         1.20557        0.678422
LJ         -0.762607        -2.05392         1.54631
LJ          0.785232        -2.26588         1.25719
LJ          0.442176       -0.340099       -0.430046
LJ          -2.02595         1.93225       -0.304841
LJ         -0.252454          1.2293        -1.49331
LJ           1.22897         1.79492        -1.38037
LJ          -2.46148        -1.90248          0.8081
LJ         -0.937032        0.358694         2.50157
LJ          0.326511         1.80657        -2.29796
LJ           1.56614          1.3106      -0.0631997
LJ           2.03624        -1.93865       -0.702241
LJ          0.317639          1.7536       -0.766145
LJ          -2.18503        -2.35745        -2.37865
LJ          0.779366       -0.187591         1.39498
LJ           -1.5224        -1.14724        0.172503
LJ         -0.449094         1.64589      -0.0824093
