108
#Comment!
LJ          -2.55395         -2.3472         2.36833
LJ          -1.77491         -1.6071         2.41812
LJ          -2.31869        -1.55153        -1.62141
LJ          -1.74643        -2.50004        -1.55532
LJ         -0.734139         2.35189         2.51931
LJ         0.0588242        -1.82959        -2.42912
LJ          -1.17942          -1.593        -1.80591
LJ         -0.018438         2.16958        -1.88826
LJ          0.770995        -2.53652         2.47958
LJ           1.76253        -1.62537         2.48153
LJ          0.794009        -1.91733        -1.67548
LJ           1.90276         2.38784        -1.84183
LJ          -2.55503       -0.878405         2.54967
LJ          -1.72253       0.0898736         2.53693
LJ            2.4561         0.12539         -1.8041
LJ          -1.81972       -0.530313        -1.61927
LJ           -1.0287       -0.747418        -2.36353
LJ        -0.0477303       -0.213495        -2.46835
LJ          -1.03461       0.0804586        -1.77951
LJ         -0.127966        -1.11712        -1.81165
LJ          0.850606        -1.04535         2.52561
LJ           1.75431       0.0562376         2.42902
LJ          0.926532       0.0616211         -1.8303
LJ           1.68318       -0.705868        -1.71214
LJ          -2.53767        0.896324        -2.49405
LJ          -1.67008         1.82725         2.37526
LJ          -2.42157           1.551        -1.62121
LJ          -1.72739        0.916051        -1.75827
LJ         -0.500115        0.946188         2.55268
LJ          0.141502         1.72088         2.39494
LJ          -1.13324         1.67428        -1.84322
LJ          0.151179         1.06074        -1.80208
LJ          0.848015        0.907224         2.55993
LJ           1.69504         1.71531         2.40896
LJ          0.983412         1.91611        -1.92986
LJ           1.67861         1.12154        -1.65587
LJ           2.47266         2.34798       -0.780947
LJ           -1.5129        -1.65465        -0.76996
LJ          -2.42941        -1.89122       -0.110086
LJ           -1.7909         2.38578       0.0351938
LJ         -0.657363         2.54676        -1.03634
LJ            0.1827        -1.71673        -0.77937
LJ         -0.786362        -1.98635        -0.21692
LJ         -0.193343         2.32921       0.0947669
LJ          0.896069        -2.47359       -0.934278
LJ           1.87749        -1.70444        -1.04749
LJ           0.77638        -1.90698        0.287322
LJ            1.7172        -2.50692       -0.110171
LJ          -2.42702       -0.971516       -0.762609
LJ          -1.89446      -0.0477729       -0.694891
LJ          -2.50456        0.185188       0.0481644
LJ          -1.65798       -0.696845        0.148012
LJ         -0.757869       -0.860662       -0.744339
LJ         -0.105905        0.186301        -1.05448
LJ         -0.655532       0.0826734      -0.0628007
LJ        -0.0265529       -0.723382        0.105307
LJ          0.966489        -1.07449       -0.829646
LJ           1.87093        -0.23419       -0.578421
LJ          0.782253     0.000880985       0.0894757
LJ           1.91551        -1.09006      -0.0962378
LJ           2.50686        0.870582       -0.811091
LJ          -1.55603         1.81921       -0.871346
LJ           2.42219         1.65585      -0.0411134
LJ          -1.88867         1.04102        0.336644
LJ          -1.03765        0.726304       -0.939233
LJ          0.106923         1.64188       -0.907774
LJ         -0.805424         1.57814       -0.217905
LJ        -0.0235226        0.863553       -0.140669
LJ          0.935561        0.854274       -0.754274
LJ           1.66718         1.74305       -0.691394
LJ           0.82518          1.9123      -0.0657632
LJ           1.74949        0.790159       -0.119986
LJ           2.45993         2.41887        0.611554
LJ          -1.38255        -1.79598        0.661041
LJ           2.52032        -1.41553          1.5818
LJ          -1.97121        -2.37408         1.47131
LJ         -0.791197         2.56047        0.954808
LJ          0.122315        -1.45309         1.02952
LJ         -0.840304        -1.85091         1.89067
LJ         0.0559794        -2.42535         1.70726
LJ          0.700373         2.37715         1.07607
LJ           1.77959        -1.65047        0.936161
LJ          0.920742        -1.76884         1.74142
LJ           1.79496        -2.47154         1.66221
LJ           2.55972       -0.663739         0.75615
LJ          -1.49864       0.0843935        0.863997
LJ           2.49688       0.0359836         1.69337
LJ          -1.75336       -0.721115         1.73576
LJ         -0.815672        -1.00693         1.04873
LJ          0.213381       -0.240499         1.04067
LJ         -0.951928        0.205848         1.97369
LJ          0.159586       -0.871634         1.85497
LJ          0.972133       -0.941107        0.835634
LJ           1.74839       -0.179602        0.609671
LJ          0.611443       0.0202689         1.94908
LJ           1.52884       -0.821695         1.79403
LJ             2.311        0.786565        0.858874
LJ          -1.60919         1.91437         1.04185
LJ           2.39649          1.6621         1.50982
LJ          -1.84098        0.805638         1.51901
LJ         -0.783449        0.786788        0.710549
LJ           0.26608         1.38612        0.824391
LJ         -0.865798         1.45865         1.59809
LJ         0.0817767        0.876924         1.70602
LJ           1.19984        0.732459         0.96703
LJ           1.51812          1.7226        0.623005
LJ          0.978518         1.55621         1.61359
LJ           1.73665        0.817609         1.83215
