108
#Comment!
LJ          -2.52893        -2.41427          2.5516
LJ          -1.71792        -1.68449         2.47357
LJ           2.48797        -1.64724        -1.74196
LJ          -1.70779        -2.35155        -1.79214
LJ         -0.773982        -2.55263         2.52601
LJ         0.0297566        -2.01787        -2.49801
LJ          -1.09863        -1.41992        -1.59606
LJ           0.06478            2.21        -1.71298
LJ          0.957983         2.35374         -2.5353
LJ           1.71466        -1.77637         2.50055
LJ           1.03627        -1.75535        -1.70668
LJ           1.91443         2.42352        -1.60481
LJ           2.47736       -0.766592         2.54712
LJ          -1.83528       0.0642381         2.51501
LJ           2.50545        0.180004        -1.95482
LJ          -1.70976       -0.501137        -1.56934
LJ          -1.06025       -0.876846        -2.39995
LJ         0.0140437       -0.225468        -2.43948
LJ         -0.836143      0.00129182        -1.66279
LJ        -0.0969282        -1.00992        -1.90857
LJ          0.973995        -1.09533        -2.40545
LJ           1.68303       0.0270294        -2.49433
LJ          0.799254      -0.0116965        -1.80224
LJ            1.5709       -0.731132        -1.71713
LJ           -2.4782         1.05859         2.50234
LJ          -1.80172         1.92033        -2.53917
LJ          -2.51285         1.65769        -1.65512
LJ          -1.52625        0.899727         -1.7921
LJ          -0.69459         1.15523         2.53191
LJ         0.0824761         1.81953         2.48932
LJ         -0.832913         1.68986        -1.65726
LJ         0.0262424         1.05581        -1.75405
LJ          0.994986        0.899915        -2.53701
LJ           1.85336         1.81987         2.50717
LJ          0.925526         1.78034        -1.68547
LJ           1.78409        0.921993        -1.83227
LJ           2.43734         2.35472       -0.692566
LJ          -1.52707         -1.9239       -0.741824
LJ          -2.45403        -1.83606      -0.0792606
LJ          -1.75682          2.4688      -0.0370818
LJ         -0.720048        -2.51016        -1.04108
LJ          0.124763        -1.66742       -0.900848
LJ         -0.413524        -1.79166      -0.0153214
LJ         -0.305071         2.38506       0.0904169
LJ           0.79184        -2.53391       -0.940159
LJ           1.71435        -1.74382       -0.958325
LJ          0.645953        -2.11781       0.0970559
LJ           1.69094        -2.42673      0.00114514
LJ          -2.44417       -0.892212       -0.651386
LJ          -1.84863       0.0449524       -0.737987
LJ           2.44934        0.122699       0.0342804
LJ          -1.54015       -0.957657       0.0375833
LJ         -0.604036        -0.89121       -0.763898
LJ        -0.0133074        0.262903       -0.981802
LJ         -0.967152       -0.095167      -0.0973639
LJ       0.000146841       -0.715712        0.223047
LJ          0.880735        -1.01066       -0.748253
LJ           1.97215       -0.149883       -0.925965
LJ          0.693815       0.0228296      -0.0379946
LJ           1.61599       -0.915244      -0.0693272
LJ          -2.44255        0.914783         -0.9747
LJ          -1.57352         1.68523       -0.792372
LJ           2.47353         1.78097        0.129486
LJ          -1.96942         1.01619       0.0354322
LJ          -1.06879        0.689302        -0.88594
LJ         0.0187499         1.68606       -0.812293
LJ         -0.800922         1.51602       -0.156791
LJ        -0.0847422        0.855321       0.0871244
LJ          0.739347        0.972038       -0.665062
LJ           1.55023         1.61171       -0.920848
LJ          0.903603         2.01161      -0.0479311
LJ           1.68893        0.810692       -0.221106
LJ           2.46801          2.4832        0.861281
LJ          -1.42956        -1.77514        0.653866
LJ           2.49811        -1.60391         1.83996
LJ          -2.04489         -2.5551         1.65403
LJ         -0.649012        -2.50857         1.12339
LJ          0.191698        -1.66185        0.974609
LJ         -0.876474        -1.69554         1.69224
LJ         0.0943722        -2.34073         1.71764
LJ          0.934506         2.36241        0.915497
LJ           1.94746        -1.50341        0.711706
LJ          0.990184        -1.79472         1.68122
LJ           1.73601        -2.56472         1.73286
LJ           2.54622        -0.67269        0.992084
LJ          -1.68628       -0.108753        0.882866
LJ          -2.55814      -0.0183408         1.84477
LJ          -1.72051       -0.871586         1.66012
LJ         -0.745256       -0.834253        0.992873
LJ         0.0276298        -0.01912        0.977258
LJ           -0.8576        0.194604         1.94654
LJ          0.156489        -0.90903         1.91195
LJ          0.999976        -1.04241        0.748134
LJ           1.67451       -0.154721        0.728043
LJ          0.873436     -0.00180907         1.87006
LJ           1.69144       -0.832419         1.68016
LJ           2.43554        0.888075        0.920342
LJ          -1.52561         1.90416        0.785712
LJ           2.41763         1.72089         1.61773
LJ          -1.71515        0.968195         1.52318
LJ         -0.905323        0.651474        0.832308
LJ          0.265242         1.45923        0.841338
LJ          -0.90448         1.60847         1.52374
LJ         -0.044162        0.830833         1.67607
LJ           1.02438        0.731587        0.815321
LJ           1.61466         1.71041        0.645082
LJ           0.87183         1.56112         1.78879
LJ           1.76973        0.813832         1.80024
