108
#Comment!
LJ           2.56496        -2.53227         2.50237
LJ          -1.76567        -1.71631         2.45968
LJ          -2.54193        -1.74927        -1.81949
LJ          -1.77626         2.51658        -1.59922
LJ         -0.859566         2.49126        -2.44855
LJ          0.020284        -2.00457        -2.45432
LJ          -1.18283         -1.4687        -1.71768
LJ        -0.0512394         2.23774        -1.86577
LJ          0.809998         2.55043          2.4516
LJ           1.75743         -1.7387        -2.51877
LJ          0.783942        -1.95231         -1.7921
LJ           1.88874         2.52456        -1.69066
LJ           2.54843       -0.922356          2.5325
LJ          -1.82053       0.0514406         2.54459
LJ            2.4751        0.186443        -1.96061
LJ          -1.74699       -0.547823        -1.63604
LJ          -1.14532       -0.769757         -2.4204
LJ        -0.0212644       -0.297484        -2.41981
LJ         -0.757342       0.0374527        -1.81659
LJ         -0.177806        -1.19427        -1.85707
LJ          0.891247        -1.23197         -2.5399
LJ           1.75252      0.00804667         2.54511
LJ          0.892474       0.0574515         -1.8376
LJ           1.64799       -0.603112        -1.77738
LJ          -2.54533        0.903574         2.44153
LJ          -1.69586         1.94174         2.50613
LJ          -2.38204         1.66367        -1.66014
LJ          -1.63449        0.784595        -1.84451
LJ         -0.625262          0.9468         2.46807
LJ          0.102216         1.71781         2.42066
LJ           -1.0543         1.65075        -1.77868
LJ         0.0512184         1.11316        -1.76761
LJ          0.938927        0.817267         2.44652
LJ           1.78725         1.90491         2.46134
LJ          0.895162         1.92276        -1.71353
LJ           1.54846         0.94802        -1.68787
LJ           2.52715         2.40278       -0.825992
LJ          -1.44742        -1.71624       -0.749558
LJ          -2.46337        -1.89627       -0.104042
LJ          -1.61341         2.47861      -0.0712618
LJ         -0.810596         2.52799        -1.02639
LJ          0.122372        -1.69985       -0.833646
LJ         -0.630281        -1.89481     -0.00577474
LJ         -0.158631         2.32258       0.0475666
LJ          0.807332        -2.46833       -0.906566
LJ           1.86642         -1.7482       -0.967071
LJ          0.751846         -1.9588        0.162197
LJ           1.69199        -2.37521      -0.0214984
LJ          -2.44573        -0.96113       -0.741672
LJ           -1.8817        0.129122       -0.819097
LJ          -2.47052       0.0813834       0.0246684
LJ          -1.77561       -0.911182       0.0926094
LJ         -0.549781       -0.855309       -0.689087
LJ         -0.101275        0.353277       -0.919457
LJ         -0.692596      -0.0191569       0.0422528
LJ       -0.00687502       -0.803629        0.294793
LJ          0.793492        -0.89724       -0.657747
LJ           1.96333       -0.115664       -0.673898
LJ          0.703337      -0.0101283      -0.0289702
LJ           1.73812        -1.18386       -0.136531
LJ           2.50973        0.929835       -0.877888
LJ          -1.58514         1.84034       -0.821612
LJ           2.40712         1.68023      -0.0140489
LJ          -1.86331         1.09348        0.170082
LJ           -1.1079        0.771652        -0.87774
LJ          0.145906         1.83058       -0.842212
LJ         -0.750618         1.55278      -0.0988021
LJ         0.0919069        0.895652      -0.0502764
LJ          0.823533        0.952784       -0.751228
LJ           1.65636         1.66636       -0.885596
LJ          0.740854         2.06299      -0.0685988
LJ           1.73865         0.86015       -0.110267
LJ           2.37282         2.34309        0.759836
LJ          -1.38963        -1.83353        0.676594
LJ           2.52476        -1.53234          1.7369
LJ          -2.03934        -2.33993         1.47324
LJ          -0.62586         2.37207         1.12686
LJ         0.0210868        -1.59909         0.96103
LJ         -0.981452        -1.85262         1.78975
LJ         0.0793343        -2.34894         1.77752
LJ           0.86307         2.40588        0.920996
LJ           1.96487        -1.67796        0.755155
LJ          0.963319        -1.74492          1.8071
LJ           1.64371          2.5316         1.67063
LJ           2.48414       -0.690655        0.996137
LJ          -1.77388       0.0936745        0.793163
LJ           2.51128     -0.00782938         1.74849
LJ          -1.88557        -0.71004         1.75554
LJ         -0.723837       -0.942891         1.03513
LJ       -0.00917264       -0.151437         1.08417
LJ         -0.906764        0.182369         1.91068
LJ          0.227516        -1.00082         1.83101
LJ           1.08888        -1.00069        0.690183
LJ           1.54106      -0.0928217        0.731409
LJ          0.855107      -0.0159211         1.87446
LJ           1.60579       -0.794842         1.87945
LJ           2.34495        0.833119         0.84647
LJ          -1.50319         1.88386        0.832009
LJ           2.45863         1.56137         1.59812
LJ          -1.78341         1.00484         1.58921
LJ         -0.873869        0.716102        0.888078
LJ          0.163004         1.46346        0.739153
LJ         -0.790008         1.53463          1.5596
LJ          0.094775        0.760479         1.63102
LJ           1.06796        0.739727        0.903378
LJ           1.54442         1.67357        0.571487
LJ          0.845699         1.53589         1.63967
LJ           1.67025         0.86586         1.76221
