108
#Comment!
LJ          -1.25881        -2.29996         1.52673
LJ           2.38438        -1.23069       -0.221931
LJ          -1.13718        -1.25109          1.0231
LJ        -0.0659408        -1.70908      0.00331043
LJ         -0.427191        -2.56203         2.10392
LJ           1.19374       -0.579688       0.0911435
LJ          0.994075        0.347742         0.96691
LJ          0.404433        0.204739        -2.01814
LJ          0.541751         1.05654         1.82788
LJ         -0.783686        -2.07931       -0.661235
LJ          -1.68874       -0.320783            1.02
LJ          -1.78976         1.64382         1.68592
LJ        0.00110346         1.53295        -2.12236
LJ          0.989833          1.5792         1.02875
LJ           1.90127         1.06038         1.34448
LJ           2.24737        -2.21082        0.694168
LJ          -2.31012        -2.36412         1.76231
LJ          0.233411        0.192808       -0.555122
LJ          0.505099        -2.10187          1.8772
LJ          -1.53798         1.45424       -0.122449
LJ           -2.0642        -1.41427        0.651697
LJ       -0.00363797         2.41488        -1.57866
LJ           2.44741         2.21203       -0.988737
LJ          -1.18502        -1.92972         2.40686
LJ           1.73608        -2.28643         1.66193
LJ        -0.0495699        -1.02196         2.36095
LJ           1.12443        -1.37557        -1.70361
LJ          -2.01894      -0.0431725         1.88589
LJ          -1.02605         1.02108        0.802625
LJ        -0.0766171       -0.654404         1.20415
LJ           -0.9845        0.209347         1.54938
LJ             2.295        0.114251       0.0958945
LJ           2.37829         -1.1757        -1.65432
LJ           1.66555           1.823         1.99818
LJ           1.93508        -1.18232         1.66731
LJ         -0.932907        -2.21474        0.317436
LJ        -0.0474427         1.91563         1.18896
LJ          0.991471        -1.26204         2.37582
LJ           1.12299        -1.55769        -0.36825
LJ         -0.547587        0.747102      -0.0223382
LJ          -0.58343         1.87023        0.259772
LJ          0.219302         2.43748        0.167562
LJ          -1.14089         2.43298          -2.024
LJ          0.160623       -0.963634        -1.85533
LJ           1.28062        -2.14276        -2.38228
LJ          -1.59082        0.246723        -2.09108
LJ           2.31909       -0.386498        -2.47552
LJ           1.75978        -1.36233         0.64131
LJ          -2.14749         -1.0744         1.82394
LJ          0.535072         2.03544         2.15084
LJ          -2.21617        -2.16864        -2.12801
LJ           2.05042      -0.0407889         1.27358
LJ          -1.23861        -1.25887       -0.224918
LJ           1.98656         1.58918        -2.17575
LJ          -1.44397         2.14605       -0.927465
LJ         -0.249035        -1.95883        -2.29309
LJ           1.53706         1.65454       -0.962968
LJ          -2.16611        -2.08568       -0.237036
LJ            1.1701         0.45382       -0.394898
LJ          0.936301         2.02645        -2.00714
LJ           0.86939        -2.54257       -0.844298
LJ          0.590579        -1.62329        0.785828
LJ          -2.11982         1.57591        -1.91867
LJ          -0.33548        -2.03846         1.13156
LJ           1.18882        -0.35701        -1.70758
LJ          -1.04822         1.33328        -2.33492
LJ          0.333726         1.11565        0.373543
LJ          -1.66616        0.412096        0.208219
LJ          -2.48796          2.0218        0.156073
LJ          -1.78582       -0.361025       -0.430142
LJ          -2.34373       -0.332775        -1.37458
LJ          -2.16509         1.28437        -1.02121
LJ           -1.7705         2.30568        0.841868
LJ          0.246288       -0.132735         2.09912
LJ          -1.28165       -0.654145        -1.29887
LJ           1.39243         0.63745        -1.90805
LJ           1.79418         2.46006        -1.72059
LJ          0.233577        -1.83127        -1.09977
LJ           1.81498       -0.743209       -0.882661
LJ         -0.759331         1.67071         1.85708
LJ           1.45784        0.103743         2.29506
LJ           2.05461        0.501877       -0.917734
LJ          -1.87435        -1.08892         -2.1815
LJ          -0.45355         1.11236         -1.3038
LJ           1.86301        -1.88199       -0.937239
LJ            1.6635           1.275       0.0432832
LJ          -2.22741        0.880638         1.12226
LJ         -0.470195        0.535056         2.45735
LJ            1.2012         2.56267         0.71188
LJ           2.10548        -1.58275         -2.5637
LJ           0.91942       -0.696486           1.342
LJ        -0.0122607        0.450376         1.15985
LJ           2.37497           2.013         1.20915
LJ           2.36245        0.737083         2.24927
LJ           0.10047       -0.616679       0.0592006
LJ          -1.98348        -1.63288        -1.16003
LJ         -0.800765       -0.817502        -2.16581
LJ          -1.00201        -1.60039        -1.54274
LJ         -0.342648         -1.0826       -0.835965
LJ           2.46494        0.554888        -1.83499
LJ          0.666458         1.12421        -1.25214
LJ           1.68932         2.42951       -0.212723
LJ          -1.01473       -0.807623         2.02464
LJ          0.653075          1.7208       -0.401945
LJ         -0.811166       -0.346987      -0.0159209
LJ          -1.23741        0.283789       -0.991035
LJ          0.685217       -0.737591       -0.917747
LJ         -0.467234     -0.00822396        -1.59162
