108
#Comment!
LJ           2.05546       -0.784551      -0.0209559
LJ           2.10123       -0.923212         1.04493
LJ          0.141954       -0.956989         1.38439
LJ            1.7874         0.22693       -0.507219
LJ           2.43129        0.479878         1.42861
LJ           -2.3141         2.39515       -0.941446
LJ           2.39185        0.415629         2.48337
LJ          -2.12004       -0.168694        0.361898
LJ          0.873078         1.83471         1.52011
LJ         -0.972932         0.14229         -2.3172
LJ          0.920197       -0.609835        -1.52985
LJ          0.102317         1.24862         1.88763
LJ         -0.232932        -1.19977        0.445394
LJ          -2.37538         2.30184         1.94194
LJ           1.58197       -0.306761          1.5986
LJ          0.784873       -0.665849       -0.494056
LJ         -0.333591         2.21279         1.71331
LJ            -1.714         -1.1412         1.00812
LJ          0.391242        -2.26072         1.38953
LJ         -0.717264      -0.0244858      -0.0439375
LJ          -2.29211           1.347         2.22536
LJ         -0.495878        -2.28927       -0.489204
LJ          0.185528         1.60576        -1.16042
LJ          0.589234        0.612983        -1.16556
LJ          0.849476         -2.5526        -1.76015
LJ          -1.93684         2.54561        0.813355
LJ            2.5482        -2.07328        -1.74237
LJ           1.47145        0.345994        -1.65111
LJ          0.990323         2.30711        0.676168
LJ          -1.95095        -1.93496         2.48085
LJ           1.78662        -2.53087         1.78352
LJ           2.26814         -1.5851        -2.55803
LJ           2.55631        -0.98859        -1.80489
LJ         -0.487278       -0.765164        -2.08289
LJ         -0.678513        -1.18364       -0.616488
LJ          -1.12193       -0.414905         1.95694
LJ           2.16706         2.38531        0.769968
LJ         -0.725428         0.56579         1.92459
LJ          0.230605        -1.57153        -2.17213
LJ          -2.47869        0.845219        0.498262
LJ            1.2931        -1.47759        -1.64158
LJ          -1.35725        -1.74751        0.242184
LJ           1.08265        0.692178        -2.51773
LJ          -2.18944        0.808877        -1.56278
LJ           1.70769         -1.8544        0.863849
LJ         -0.627256        -1.78095          -1.667
LJ          0.241361       0.0669775        -1.92871
LJ           1.47019         0.57397        0.632342
LJ          0.827356        -1.52518        0.811117
LJ          0.997353        -2.08638         2.44896
LJ          -2.18082       -0.951605         2.21693
LJ          0.474199        0.949444        0.897647
LJ          -1.90745         1.98724        -1.95863
LJ          0.792419        -1.92544       -0.121871
LJ          0.626461       -0.598735        -2.52763
LJ         -0.788905         2.01564        -1.41983
LJ         -0.902769         1.97988        0.915865
LJ         -0.320108       -0.161126        -1.06491
LJ          -2.29485        -1.63311       -0.861866
LJ           1.96824           1.308        -2.30821
LJ          -1.15601        -2.25893          1.7042
LJ          -0.75844        -1.46609         1.23896
LJ          -1.72139        0.763531        -0.12334
LJ          -2.04567       -0.234587        -1.86729
LJ          -2.37081     0.000672175       -0.845026
LJ           2.29709         1.13407       -0.713268
LJ          0.193563       -0.187531        0.653538
LJ         0.0629856       0.0905747         1.74796
LJ          0.455056        -1.55394       -0.998969
LJ          -1.13573        0.490041       -0.949897
LJ          0.190535         1.81482        0.388213
LJ          0.562587        0.308841       -0.163693
LJ           1.84471         2.39121        -2.29517
LJ          -2.21045         1.84601     -0.00220524
LJ          -1.56917         -2.1633        -1.62031
LJ         -0.935929       -0.503163         0.87388
LJ          -1.16342         1.06735        -1.91754
LJ          -1.27483       -0.664135        -1.27875
LJ          -2.08402       -0.336867         1.46661
LJ         -0.278612        -2.20688        0.445208
LJ          -1.54174        -1.15893        -2.19005
LJ          0.900572          1.3139       -0.456178
LJ           -2.3855        -1.51294        0.177939
LJ           1.96184         1.34817          1.7156
LJ           -1.6423         1.50019       -0.854003
LJ          -1.25573         1.51355         1.71747
LJ           1.87709       -0.580547         2.55425
LJ           1.22733         0.63731         1.59459
LJ           1.18583       -0.513212        0.538599
LJ           1.99236        -2.04455       -0.295249
LJ           -2.4703        -1.82584         1.60879
LJ          -1.48758        0.675016        0.974095
LJ         -0.968989         2.38721         -2.5076
LJ         -0.623677        -1.60503         2.32291
LJ           -1.5454       -0.889939       -0.204568
LJ          -2.22888         1.54842         1.24403
LJ           1.23163         2.29156       -0.741872
LJ           1.06329         1.85442        -2.52117
LJ           1.16879        -1.26744         1.76355
LJ          -1.76062        0.484491         2.06617
LJ            1.1145         1.42354        -1.64324
LJ           1.85202         1.73268      -0.0598617
LJ          -1.50088        -2.51968       -0.445516
LJ         -0.635854          1.8437       -0.294644
LJ           2.08171         1.85551        -1.45025
LJ         -0.411177        0.821967        0.396457
LJ           1.75949       -0.768671       -0.958359
LJ          0.213931         1.19007        -2.24548
