108
#Comment!
LJ           0.50678        -1.49443          1.5327
LJ          -1.77197        -1.27906       -0.835979
LJ          0.514183       -0.616154         2.14854
LJ           1.94366         1.27456        -1.47056
LJ           1.08037        0.500083         1.70937
LJ           2.44153         1.07136        0.661837
LJ           1.56237        0.079085        -1.23035
LJ           2.12882        -1.52014        -1.04775
LJ          -2.24627        -1.61301         1.79044
LJ           0.95143         1.81766       -0.532437
LJ           2.39831         1.42829         1.61385
LJ          -2.16832         2.50306         1.45419
LJ           1.23714       -0.212757       -0.243243
LJ          -1.40195         1.65491         1.97297
LJ          -1.13438         1.16075       -0.237812
LJ          -1.69527       -0.124425        -0.88928
LJ          -0.16103       -0.573937        -1.92957
LJ          -1.73782         1.05491        -1.21153
LJ           1.66853        -1.33555         1.56921
LJ           1.55566         -2.5027        -2.20147
LJ           2.20317        0.434622          1.7438
LJ        -0.0427179         1.92068         1.56246
LJ          -2.52953         1.56319         -2.2691
LJ           2.03001       -0.848556       -0.149147
LJ           1.99385         2.33872         2.02778
LJ          0.733815       -0.141274        -1.90557
LJ          -2.02665        -2.04758        -1.53958
LJ         -0.980947       -0.796854        -1.30963
LJ          -1.67359        0.142486        0.134015
LJ         0.0686529          2.5529       -0.644676
LJ         -0.687017        0.767494         -1.9764
LJ         -0.304432        0.759473         1.54578
LJ          -2.00425        0.440844         1.39478
LJ           -1.6421        -2.38138       -0.412784
LJ         -0.811682        -1.86528       -0.119161
LJ        -0.0229973         1.23812       -0.147076
LJ            2.4193        -1.97435       -0.225822
LJ           2.39256        -1.36229        0.837596
LJ         -0.229879          1.7133        -2.33443
LJ          0.497797        -0.75913         0.36435
LJ          0.508676         1.07213        0.711022
LJ          -2.24028         1.88433       -0.777327
LJ         -0.405404       -0.882225        0.930986
LJ           2.44247         2.24247        0.631495
LJ          -2.08961       -0.937302        -1.86345
LJ           1.45841          0.5095        -2.20721
LJ           1.61473         1.00359       -0.583753
LJ          -1.35989        -1.32134         1.34238
LJ           2.42317      -0.0709264         0.57916
LJ           1.61618       -0.827369        -1.62287
LJ         -0.653216          2.1411     -0.00517674
LJ         -0.659504       -0.522805       -0.122075
LJ          0.105713        -1.69079         -1.1046
LJ           2.45497        -0.24106        -2.46298
LJ           1.06387         1.72561        -1.79971
LJ          0.514322         2.25511        0.761534
LJ           1.18619       -0.525085         1.03907
LJ          -1.82074        -0.57512        0.854955
LJ          -2.53363         0.53216       -0.343088
LJ           2.48539        0.441299        -1.52082
LJ         -0.830074        -0.31574         1.85408
LJ            2.2746         2.40842        -1.41856
LJ         -0.750178        -2.07809        -1.14336
LJ           1.27773         1.60232         1.37086
LJ           1.45648        -1.52875        0.464743
LJ         -0.168564        -2.39637         2.36065
LJ          -1.78201        -1.42719        0.263303
LJ          0.941125        -2.39426         2.04758
LJ         0.0170469        0.369646        0.186949
LJ           1.26413        -2.45229       -0.121302
LJ          -1.09399         1.85628        -1.11733
LJ         -0.458964        -1.47845          2.0788
LJ           -1.1073         2.54074        -2.24658
LJ          -0.68428         1.38965        0.713007
LJ           2.09164          2.0357       -0.348897
LJ         -0.890817        0.118288        0.911164
LJ           2.48341       -0.692601         1.66862
LJ          0.389217        0.830545        -1.89491
LJ         -0.980522       -0.186269        -2.25925
LJ         -0.748162        0.504597       -0.954594
LJ          0.689603         1.60639         2.20304
LJ          -2.11506        0.527263        -2.46768
LJ          0.265524         2.54476        -1.83259
LJ          0.663585        0.750393       -0.724324
LJ           1.14684        -2.23088         -1.2197
LJ          -2.36853        -2.54889        -2.49682
LJ           1.51735         1.66009         0.36633
LJ           2.50246        -0.47449         -1.1341
LJ         -0.960495        -2.55762         1.59711
LJ          -1.41633         1.58123          -2.059
LJ           1.49019        -2.56446        0.990609
LJ          0.196329        0.349277         2.42529
LJ          0.135743        -1.60014       0.0226396
LJ           1.45597        0.418618        0.506078
LJ          0.116446         1.68149        -1.11676
LJ         -0.823732        -1.50577        -2.08373
LJ          0.994957        -1.45006       -0.528561
LJ          0.672007        -1.66798        -2.31537
LJ          0.136073       -0.277817       -0.848412
LJ          -1.10489        0.698209         2.19631
LJ          -1.54463        -1.81728         2.45853
LJ          -1.40839        -2.37129        0.689265
LJ          0.219822       -0.110619         1.31984
LJ           2.32366        -1.22564        -2.49984
LJ         -0.327992        -2.08514        0.984179
LJ          -1.75667         1.69342        0.858872
LJ          -1.72989       -0.623829          2.2167
LJ           1.51991       -0.391909         2.28498
