108
#Comment!
LJ           -2.5322        -2.52786         2.38007
LJ          -1.77386        -1.63989         2.44839
LJ          -2.47296         -1.6283        -1.81765
LJ          -1.76241         2.53207          -1.705
LJ         -0.859457         2.54779        -2.48375
LJ        0.00651477        -1.98585        -2.49025
LJ          -1.15716        -1.51343        -1.77819
LJ        -0.0535471          2.3007        -1.77554
LJ          0.819691        -2.55679           2.476
LJ           1.75914        -1.72409        -2.56319
LJ          0.747077        -1.91144         -1.8282
LJ           1.94888          2.4267        -1.70029
LJ           2.45969       -0.851465         2.55402
LJ          -1.70408       0.0375048        -2.56251
LJ           2.47841        0.111752        -1.88352
LJ          -1.69844       -0.604524        -1.64165
LJ           -1.0872       -0.686962        -2.47233
LJ         -0.154999        -0.24751        -2.50252
LJ         -0.818648       0.0227758        -1.85428
LJ         -0.136786        -1.13085        -1.94259
LJ          0.908039        -1.13159        -2.50127
LJ           1.67325      -0.0180704         2.53059
LJ          0.910844        0.105544         -1.8775
LJ           1.69227       -0.645691        -1.81115
LJ          -2.56125        0.908275         2.51708
LJ          -1.72037         1.93687         2.48858
LJ          -2.37356         1.59085        -1.65265
LJ          -1.70789        0.846775        -1.83842
LJ         -0.633763        0.997947         2.49761
LJ          0.151217         1.74903         2.30949
LJ          -1.10765         1.66529        -1.77491
LJ           0.12709         1.06341        -1.81732
LJ          0.836204        0.901513         2.46315
LJ           1.77994         1.86868         2.36054
LJ          0.977769         1.92193        -1.87142
LJ            1.5983           1.011        -1.64658
LJ           2.49228         2.40474       -0.732541
LJ          -1.34142         -1.7212       -0.779806
LJ          -2.38368        -1.88568       -0.164716
LJ          -1.66676         2.38385      -0.0279183
LJ         -0.828576        -2.56002        -1.11716
LJ          0.193717        -1.65469       -0.836072
LJ         -0.670797        -1.92412       -0.154491
LJ         -0.134837         2.35334       0.0640947
LJ          0.785783        -2.48535       -0.921691
LJ           1.93575        -1.80246         -1.0737
LJ          0.766604        -1.92167        0.239858
LJ           1.67146        -2.42463       -0.118771
LJ          -2.54929       -0.848099       -0.759605
LJ          -1.90287        0.130125       -0.804464
LJ          -2.46409         0.14044       0.0130462
LJ          -1.81795       -0.859777        0.101188
LJ         -0.613553       -0.841186       -0.608729
LJ        -0.0732051        0.261343       -0.971972
LJ         -0.711876       0.0793567        0.113376
LJ        -0.0328357       -0.703522        0.227656
LJ          0.796391       -0.920604       -0.640533
LJ           1.93378      -0.0710272       -0.709433
LJ          0.610774      -0.0205508       0.0666436
LJ           1.81679        -1.28254       -0.182835
LJ          -2.56173        0.992733       -0.805671
LJ          -1.59423         1.73004       -0.759726
LJ           2.51588         1.64987      -0.0501931
LJ          -1.86245          1.1005        0.255059
LJ          -1.07422        0.779726       -0.809943
LJ         0.0921515         1.70848       -0.972276
LJ          -0.80483         1.54676      -0.0644763
LJ          0.162775        0.902052      -0.0996226
LJ          0.919101        0.959685       -0.796875
LJ           1.71515         1.74002       -0.825357
LJ          0.782651         1.93568      -0.0416287
LJ            1.6445        0.842474      -0.0990712
LJ            2.4158         2.34546        0.711336
LJ          -1.42295        -1.76386        0.666209
LJ            2.4785        -1.59095         1.65936
LJ          -2.04404        -2.41612         1.36724
LJ         -0.675891         2.43395         1.08459
LJ          0.158357        -1.55956        0.960702
LJ         -0.995802        -1.85655         1.85083
LJ         0.0404602        -2.35678         1.71062
LJ          0.831361         2.32482         1.01014
LJ           1.96746        -1.62917        0.820516
LJ           1.02385        -1.79724         1.73923
LJ           1.70511          2.5473          1.6206
LJ           2.50356       -0.672027        0.931349
LJ          -1.64812       0.0561872        0.743863
LJ           2.53822        0.108308         1.75695
LJ           -1.7361        -0.70986         1.77437
LJ         -0.772689        -1.05175        0.995944
LJ         0.0867363       -0.114236         1.06678
LJ         -0.854876        0.167635         1.95674
LJ          0.155628       -0.989156         1.86846
LJ           1.11314        -1.06547        0.708775
LJ           1.55528      -0.0879105        0.600295
LJ          0.791826      -0.0347853         1.96995
LJ           1.63608       -0.791248         1.84187
LJ           2.31829        0.846919        0.794349
LJ          -1.60452         1.87786        0.881722
LJ           2.44577         1.57028         1.47969
LJ          -1.86036         1.03162         1.57145
LJ          -0.86253        0.749976        0.841904
LJ          0.141576         1.41071        0.781715
LJ         -0.796217         1.54209         1.58949
LJ          0.189693        0.864669          1.6363
LJ          0.994542        0.736871          1.0047
LJ             1.582         1.64816        0.589893
LJ          0.858739         1.56631          1.6608
LJ           1.66858        0.896309         1.83612
