108
#Comment!
LJ           2.53774        -2.55054         2.49794
LJ           -1.7937        -1.72983         2.49157
LJ          -2.51194         -1.7221        -1.64009
LJ          -1.76448        -2.38178        -1.73096
LJ         -0.897486          2.5099         2.50988
LJ          0.007492        -1.98336        -2.51405
LJ         -0.891423        -1.58178        -1.53355
LJ         0.0999168         2.28508        -1.69864
LJ           1.00587         2.36478        -2.37205
LJ           1.84811        -1.75979         2.56052
LJ          0.984207        -1.73336         -1.6666
LJ           1.98734        -2.48348        -1.50419
LJ           2.48555       -0.813054        -2.54987
LJ           -1.7522        0.045886        -2.56469
LJ          -2.45602         0.19539         -1.7784
LJ          -1.69036       -0.533513        -1.41635
LJ          -1.16724         -0.8743        -2.42629
LJ        -0.0756711       -0.271984        -2.45426
LJ          -0.79205        0.125987        -1.81396
LJ        -0.0819757       -0.999356        -1.74877
LJ          0.962357        -1.05488        -2.45632
LJ           1.64713       0.0969327         2.55478
LJ          0.780958      -0.0984233        -1.52698
LJ           1.74504        -0.87569        -1.71751
LJ          -2.42426         1.07088         2.33004
LJ          -1.73888         1.86021         2.53686
LJ          -2.49727         1.69149        -1.69957
LJ          -1.55524        0.916451        -1.73489
LJ          -0.70712         1.05174        -2.49841
LJ         0.0863757         1.81175         2.51153
LJ          -0.72376          1.7793         -1.7683
LJ         0.0802439        0.907859          -1.874
LJ          0.850272         0.78159        -2.49672
LJ           1.73865         1.85373         2.39523
LJ          0.940647         1.64905        -1.58384
LJ           1.83254        0.792256        -1.78288
LJ          -2.54384         2.42366       -0.726458
LJ          -1.46514        -1.87818       -0.726779
LJ          -2.48457        -1.75265       -0.165876
LJ          -1.67974         2.47693      -0.0686907
LJ         -0.670678         -2.5118       -0.961512
LJ          0.054907        -1.67826       -0.950043
LJ         -0.560297        -1.79414       0.0500061
LJ         -0.199714         2.30343        0.142364
LJ          0.841403        -2.48423       -0.936476
LJ           1.79734        -1.71127       -0.822149
LJ          0.681814         -1.9823        0.109481
LJ           1.63302        -2.39031      0.00138235
LJ           -2.4381       -0.955607       -0.765711
LJ          -1.92873       0.0565325       -0.656248
LJ           2.37258       0.0192939      -0.0425204
LJ          -1.61042       -0.845525       0.0196152
LJ         -0.602965       -0.804591       -0.832478
LJ         0.0472046         0.18828       -0.902469
LJ         -0.797968      -0.0762896      -0.0710374
LJ          0.103251       -0.796816        0.197546
LJ          0.860265       -0.833217        -0.72547
LJ           1.82867       -0.161514       -0.865252
LJ          0.739459      0.00743394       -0.102863
LJ           1.72598       -0.909415       -0.082758
LJ          -2.44124          0.9684       -0.935181
LJ          -1.64646         1.74149       -0.979775
LJ            2.4772         1.65207       0.0375274
LJ          -1.94695        0.887525       0.0908291
LJ         -0.915747        0.739496       -0.880841
LJ        -0.0921397         1.54701       -0.813388
LJ         -0.885091         1.48297      -0.0314657
LJ         0.0679806        0.943168        0.147645
LJ          0.789432          1.0469       -0.702249
LJ           1.69895         1.67091       -0.917251
LJ          0.842704         1.99567     -0.00323206
LJ            1.7643         0.81879       -0.104573
LJ           2.48314        -2.49061        0.809343
LJ          -1.47806        -1.73721        0.699326
LJ           2.50894        -1.48105         1.64835
LJ          -1.90959         2.51826         1.59541
LJ         -0.796543        -2.48713         1.04137
LJ         0.0925906        -1.58215        0.909047
LJ         -0.854031        -1.65907         1.71558
LJ          0.111506        -2.44232         1.65292
LJ           1.01764         2.54723        0.906167
LJ           1.88081        -1.50923        0.763956
LJ          0.890529        -1.73612         1.75886
LJ           1.61385        -2.55533         1.77056
LJ           2.51794        -0.64506         1.05852
LJ          -1.82468      -0.0159375        0.813325
LJ            2.4534        0.037136         1.92155
LJ           -1.7167       -0.926001         1.52334
LJ         -0.724337       -0.898787        0.988039
LJ          0.057201      -0.0615333        0.944449
LJ         -0.854777        0.136946          2.1395
LJ          0.108602       -0.979871         1.71358
LJ            1.0002       -0.850604        0.783143
LJ           1.64929        -0.12992         0.58395
LJ          0.733235       -0.058081         1.83973
LJ           1.58224       -0.844959         1.65986
LJ           2.46949        0.648058        0.868663
LJ          -1.47346         1.94901        0.759929
LJ           2.50013         1.54919         1.51727
LJ          -1.60367        0.927183         1.61288
LJ         -0.919188        0.680924         0.78992
LJ          0.155002         1.57209        0.873662
LJ         -0.753178         1.67659         1.50222
LJ        -0.0475513        0.925722         1.55623
LJ           0.81866        0.623355        0.881363
LJ           1.73915         1.65405        0.740309
LJ          0.877613         1.55615         1.71476
LJ           1.71174        0.710138         1.71304
