108
#Comment!
LJ          -2.55889        -2.28365         2.52211
LJ          -1.67456        -1.42068         2.49184
LJ          -2.34633        -1.54242        -1.80824
LJ          -1.71874        -2.47759        -1.73467
LJ         -0.786223         2.40304        -2.41511
LJ         -0.134933        -1.42517         2.46346
LJ         -0.905236        -1.42076        -1.92534
LJ         0.0926108        -2.50135        -1.94605
LJ          0.983756        -2.39843        -2.42903
LJ           1.64143        -1.58351         2.39672
LJ           1.11681        -1.70212        -1.76882
LJ           1.90974        -2.53403        -1.65904
LJ             2.485        -0.69859        -2.42608
LJ          -1.88932      -0.0643563         2.32689
LJ           2.54936      0.00487438        -1.60651
LJ          -1.63228       -0.475984        -1.66897
LJ         -0.814598       -0.635134        -2.54503
LJ          0.230337       -0.027152        -2.27987
LJ         -0.737604       0.0288748        -1.73912
LJ          0.143143       -0.927479        -1.51361
LJ          0.740419        -1.01117        -2.52563
LJ           1.71221       0.0438495        -2.41773
LJ          0.874199        0.267804        -1.62603
LJ           1.49675        -0.64535        -1.59853
LJ          -2.54758        0.880579        -2.39849
LJ          -1.77577         2.02024         2.42902
LJ          -2.55604         1.72582        -1.54385
LJ          -1.59854        0.595582         -2.1547
LJ         -0.558308        0.835026         2.48536
LJ         0.0722797         1.78568         2.44192
LJ          -1.26245          1.7073        -1.62157
LJ        -0.0812685         1.02841         -1.5876
LJ          0.997591        0.960445         -2.5421
LJ           1.71259         1.90734         2.55051
LJ          0.911133         1.86515        -1.78535
LJ           1.72123         1.03367        -1.80779
LJ           2.52848         2.54013       -0.732772
LJ          -1.40374        -1.66689       -0.830527
LJ          -2.24822        -1.59056      -0.0573514
LJ          -1.69233         2.43245         0.22846
LJ         -0.733355        -2.52928        -1.07932
LJ         0.0360002        -1.89524       -0.650129
LJ         -0.710125        -1.81509     0.000992601
LJ        -0.0200735         2.31448        0.159587
LJ          0.980446        -2.47618       -0.992575
LJ           1.83623        -1.54546       -0.931888
LJ          0.771172        -1.99137        0.219004
LJ           1.72015        -2.53419       0.0909718
LJ          -2.35761       -0.754325       -0.812848
LJ          -1.91038        0.231357       -0.951633
LJ          -2.36758      -0.0236805       0.0114519
LJ          -1.54599       -0.655361       -0.148575
LJ         -0.760987       -0.716537       -0.807986
LJ       0.000218553       -0.063638       -0.954309
LJ         -0.708431       -0.137091     -0.00131412
LJ         0.0375609        -1.04835         0.12789
LJ          0.970626        -1.08042       -0.613621
LJ           1.89028       -0.235558       -0.650371
LJ          0.741626       0.0828946       0.0339618
LJ           1.88779         -1.0285        0.091947
LJ           2.38487        0.844411       -0.791424
LJ          -1.79364         1.68367       -0.672465
LJ           2.44071         1.69952     -0.00321308
LJ          -1.76328        0.948729        0.128526
LJ         -0.978239        0.799832        -1.03441
LJ         0.0270052         1.76162       -0.843061
LJ         -0.742348            1.68      -0.0858853
LJ         0.0859125        0.930795       -0.143482
LJ          0.858939         1.05552       -0.988811
LJ           1.65824         1.74223       -0.822904
LJ          0.845899         1.81368       -0.124255
LJ           1.70316        0.826953        0.105159
LJ           2.45719         2.44875        0.732275
LJ          -1.44139        -1.83383        0.845368
LJ           2.48522        -1.52545         1.65524
LJ          -1.91246        -2.41005         1.65673
LJ         -0.806895         2.45995        0.915025
LJ         -0.116591        -1.55542         1.08449
LJ         -0.932131        -1.62655         1.74108
LJ         0.0371679        -2.28367         1.76869
LJ          0.761852         2.46348        0.891511
LJ           1.63104        -1.67207        0.993135
LJ          0.802954        -1.56153         1.66621
LJ           1.71018        -2.49912         1.56487
LJ          -2.41798       -0.824618        0.821293
LJ          -1.78069        0.180728        0.780465
LJ           2.33806       0.0126999         1.69178
LJ          -1.66809       -0.847688         1.64335
LJ         -0.838408       -0.890317        0.924495
LJ          0.136243      -0.0182395        0.858778
LJ         -0.905525      -0.0552501         1.73225
LJ         0.0190978       -0.738867         1.75641
LJ           0.98547       -0.933667        0.465682
LJ           1.73806       -0.216795        0.824839
LJ          0.926764       0.0158832         1.77538
LJ           1.55436       -0.742086         1.71868
LJ           2.32476        0.910425         1.10471
LJ          -1.90419         1.65283        0.887303
LJ           2.46148         1.87612         1.60096
LJ          -1.69841        0.845031         1.63163
LJ         -0.919246        0.911102        0.856133
LJ          0.327012          1.4417        0.761319
LJ         -0.684282          1.4643         1.67227
LJ         0.0707861        0.669589         1.64246
LJ           1.06193        0.726709         1.04009
LJ           1.57875         1.76421         0.72963
LJ          0.918849         1.82441         1.63461
LJ           1.86433        0.984163         1.98529
