108
#Comment!
LJ           2.55134         2.52077        -2.55662
LJ          -1.71364        -1.83898        -2.54836
LJ            2.5214        -1.79512         -1.7661
LJ          -1.76825          2.5141        -1.69267
LJ         -0.911763         2.46513         2.48166
LJ        -0.0369266         -1.7391         -2.5194
LJ         -0.734766        -1.66719        -1.67687
LJ       -0.00871815        -2.51596        -1.56441
LJ          0.927201        -2.56445         2.46997
LJ           1.71006        -1.85489        -2.50032
LJ          0.883381        -1.67286        -1.64793
LJ           1.77911        -2.53599         -1.7144
LJ           2.50954        -0.85749         2.55285
LJ          -1.61972       0.0545531         2.54118
LJ          -2.55627       0.0343638        -1.72943
LJ          -1.61511       -0.867925        -1.68737
LJ         -0.894846       -0.836894         2.54871
LJ          0.100102      -0.0424612        -2.51422
LJ         -0.849657        0.150845        -1.62602
LJ        -0.0587455       -0.925667        -1.71825
LJ           0.79823       -0.957146        -2.52758
LJ           1.75417        0.102689          2.5398
LJ          0.736652       0.0595336        -1.68914
LJ           1.61445       -0.867728        -1.59442
LJ            2.5073        0.787707         2.54729
LJ          -1.77899         1.70983         2.54767
LJ          -2.50709         1.54554        -1.75702
LJ          -1.69764        0.819988        -1.67676
LJ         -0.760487        0.937156         2.41112
LJ         0.0907464         1.66572         2.47321
LJ         -0.808094         1.66317        -1.70656
LJ        0.00280121        0.913755        -1.83828
LJ          0.862681          0.9353        -2.55063
LJ            1.7204         1.71523         2.53935
LJ          0.998833         1.74259        -1.76436
LJ           1.61538        0.761952        -1.67165
LJ          -2.50813          2.5549         -0.8522
LJ          -1.60223        -1.69072       -0.842588
LJ           -2.5056         -1.8127     -0.00753699
LJ          -1.65419         2.54321      -0.0381021
LJ         -0.780746         2.51607       -0.772704
LJ        0.00504672        -1.58951       -0.841433
LJ         -0.884105        -1.70169      0.00591453
LJ         -0.152073         2.48806       -0.112159
LJ          0.911674         2.52441       -0.770519
LJ           1.61605        -1.74758       -0.808744
LJ          0.784919        -1.86247       0.0750169
LJ           1.66845        -2.49237      0.00896653
LJ           2.53878       -0.854771       -0.752684
LJ           -1.8381       0.0815465       -0.964933
LJ           2.50949       0.0291579      -0.0802514
LJ          -1.72257       -0.940538       0.0149179
LJ         -0.792834       -0.803326       -0.817293
LJ          0.048242       -0.213015       -0.878447
LJ         -0.913804      -0.0515088       0.0643332
LJ         0.0252097       -0.722815        0.135238
LJ          0.943031       -0.771212       -0.890775
LJ            1.7325    -0.000883269       -0.874448
LJ          0.873047      -0.0132618      -0.0888047
LJ           1.64065       -0.903804       -0.107108
LJ          -2.53852        0.959983       -0.816754
LJ          -1.74573         1.70032       -0.939358
LJ           2.52107         1.65166       0.0298458
LJ          -1.70344        0.951782        0.143437
LJ         -0.762776        0.866322       -0.703596
LJ         -0.148971         1.67915       -0.947583
LJ         -0.948916         1.74351       -0.048984
LJ        -0.0204342        0.834342        0.201552
LJ          0.805933        0.945758       -0.843648
LJ           1.79475         1.76546       -0.780344
LJ          0.750172         1.75423         -0.1031
LJ           1.67438        0.815405       0.0499307
LJ          -2.48471        -2.49029        0.811905
LJ          -1.63551        -1.77117        0.929662
LJ           2.50737        -1.68551         1.70848
LJ          -1.77262         2.55838         1.65794
LJ         -0.927325         2.56327        0.785532
LJ         0.0594226        -1.72772        0.896317
LJ         -0.834658        -1.74022         1.80656
LJ           0.08918         -2.5292          1.7635
LJ          0.889215         2.41458        0.865309
LJ            1.7472        -1.89431        0.889533
LJ          0.977261        -1.80221         1.48876
LJ           1.78355         2.55657         1.71145
LJ           2.53103       -0.805342        0.866818
LJ          -1.73909      -0.0384158        0.863177
LJ           -2.5233      -0.0817927         1.80712
LJ          -1.74189       -0.849697         1.84521
LJ         -0.873765        -0.83435        0.782163
LJ          0.121253      -0.0615658        0.905105
LJ         -0.792942      -0.0336684         1.65958
LJ        0.00575713       -0.919141         1.67853
LJ           0.82897       -0.930926        0.823345
LJ           1.61298       -0.131088        0.841985
LJ           0.81191       0.0235753         1.73407
LJ           1.84099       -0.752418         1.69434
LJ           2.54778        0.864392        0.827314
LJ          -1.67398         1.59449        0.849969
LJ          -2.51222         1.65608         1.78256
LJ          -1.60751        0.820739         1.77725
LJ         -0.807741        0.809829        0.865385
LJ         0.0293447         1.60833        0.968335
LJ         -0.810748         1.71196         1.68231
LJ        -0.0313751        0.745316         1.63972
LJ           0.80975        0.746836        0.703846
LJ           1.61383         1.60337        0.836426
LJ          0.860912          1.5606         1.74459
LJ           1.71946        0.898665         1.65727
