108
#Comment!
LJ          -2.56158        -2.30351         2.26636
LJ          -1.79592        -1.62853         2.48846
LJ          -2.26233        -1.57259        -1.64218
LJ          -1.76016        -2.54893        -1.64178
LJ         -0.688072         2.41843          2.5088
LJ         0.0623394        -1.85642        -2.46626
LJ          -1.19386        -1.49929        -1.77511
LJ        -0.0333701         2.23409        -1.80374
LJ          0.791581        -2.54248         2.48159
LJ           1.76663        -1.57054          2.4642
LJ          0.835764        -1.91629         -1.6768
LJ           1.94763         2.38036        -1.82365
LJ            2.5171       -0.862242         2.36651
LJ          -1.77223       0.0865264         2.52047
LJ           2.41084        0.126272          -1.764
LJ          -1.89083       -0.577871        -1.63297
LJ          -1.00874       -0.821085        -2.38374
LJ       -0.00836093       -0.299381        -2.39378
LJ          -1.09866       0.0734304        -1.75453
LJ        -0.0761571        -1.08829        -1.69138
LJ          0.816479        -1.02558        -2.54943
LJ           1.65814       0.0114326         2.52717
LJ          0.936473        0.112025        -1.74354
LJ           1.61749        -0.76642        -1.74996
LJ          -2.50458        0.914201        -2.47741
LJ          -1.68425         1.90903         2.41024
LJ          -2.49921         1.63187        -1.60636
LJ          -1.73775         0.88049        -1.77033
LJ         -0.532066        0.991644        -2.51843
LJ          0.120325         1.66656         2.38282
LJ          -1.08073         1.64905        -1.81346
LJ          0.170981         1.09514        -1.81405
LJ           0.86143         0.91473         2.54927
LJ           1.78578         1.75372         2.39526
LJ          0.940884         1.84915        -1.92591
LJ           1.71018         1.16194         -1.6558
LJ           2.48155         2.31137       -0.743657
LJ          -1.53963         -1.7116       -0.766947
LJ          -2.33638        -1.77673      -0.0904072
LJ          -1.72957         2.39117       0.0562977
LJ         -0.689146        -2.54656         -1.0612
LJ          0.065978        -1.59453       -0.813284
LJ         -0.772178        -2.06558       -0.148579
LJ         -0.169763         2.30646       0.0783688
LJ          0.865312        -2.49518       -0.917793
LJ           1.92384        -1.69743        -1.02394
LJ          0.832641        -1.81972        0.369919
LJ           1.70417         2.55208       -0.133675
LJ           -2.3638        -0.95659       -0.767898
LJ          -1.86161       0.0265754       -0.704077
LJ          -2.47393        0.192954         0.11425
LJ          -1.64998       -0.682978        0.145568
LJ          -0.67333        -0.87563       -0.805877
LJ         -0.164207       0.0892481        -1.05195
LJ         -0.658277       0.0492691         -0.1077
LJ       -0.00239318       -0.649461       0.0377532
LJ           1.00952        -1.18325       -0.809521
LJ           1.89585       -0.209164       -0.536226
LJ          0.863076       0.0915268        0.145126
LJ           1.99216        -1.08421       -0.100341
LJ           2.50371        0.950222        -0.76821
LJ          -1.57503          1.7846       -0.871119
LJ           2.36484          1.7039      -0.0472676
LJ          -1.84037         1.03058        0.239751
LJ            -1.006         0.69292       -0.877214
LJ          0.148712         1.71769       -0.923494
LJ         -0.790578         1.60561       -0.242116
LJ        -0.0528518        0.922415       -0.172849
LJ          0.958171         0.84066       -0.794824
LJ           1.64751         1.73398       -0.758123
LJ          0.765451         1.85376       -0.137128
LJ           1.79173        0.705699      -0.0717876
LJ           2.40312          2.3796        0.667526
LJ           -1.2543        -1.81352         0.80843
LJ            2.4908        -1.43484         1.50627
LJ          -1.94424        -2.35775         1.42783
LJ         -0.795644         2.47392        0.917929
LJ         0.0753561         -1.4319          0.9382
LJ         -0.834536         -1.8927         1.87677
LJ         0.0629876        -2.37134         1.77124
LJ          0.662762         2.43465         1.06052
LJ            1.7757        -1.68204        0.936859
LJ          0.944892        -1.77039         1.73036
LJ           1.76754        -2.47769         1.66442
LJ          -2.41768       -0.719844          0.7422
LJ          -1.53014       0.0211246        0.815677
LJ           2.45892       0.0417465         1.73103
LJ          -1.76029       -0.749837         1.72938
LJ         -0.880085       -0.986494          1.0521
LJ          0.162736       -0.257547        0.934787
LJ         -0.937526        0.223427           1.904
LJ          0.196845       -0.933694         1.78637
LJ          0.910562       -0.827694        0.814876
LJ            1.7653       -0.112532        0.657818
LJ          0.620352       0.0129118         1.98531
LJ           1.46342       -0.780119         1.72979
LJ           2.22557        0.856643        0.801104
LJ           -1.6292          1.8912        0.992537
LJ           2.44536          1.7133         1.53406
LJ          -1.86921        0.870178          1.4665
LJ         -0.784178         0.78234        0.661422
LJ          0.282733         1.42665         0.81757
LJ         -0.959163         1.38737         1.55511
LJ         0.0206946        0.907952         1.65404
LJ           1.17347        0.676397         0.96623
LJ           1.50397          1.7333        0.591591
LJ           1.01585         1.57908          1.6944
LJ           1.72474        0.857696         1.88531
