108
#Comment!
LJ           2.56225        -2.43986        -2.55106
LJ          -1.73657        -1.66378         2.48575
LJ           2.52181        -1.68131         -1.7085
LJ          -1.73194        -2.36715        -1.75631
LJ         -0.837398         2.51177         2.52704
LJ         0.0456412        -2.04143        -2.50511
LJ          -1.09365        -1.42118        -1.61181
LJ          0.033286         2.24912        -1.67254
LJ          0.959891         2.32855        -2.49705
LJ           1.81065        -1.77492         2.56243
LJ           1.03448        -1.80275        -1.66033
LJ           1.93839         2.49714        -1.56737
LJ           2.45228       -0.795795         2.52132
LJ          -1.77021        0.114246         2.51283
LJ           2.54669        0.162735        -1.85013
LJ          -1.64025       -0.532206        -1.54812
LJ          -1.12026       -0.856532        -2.42582
LJ         0.0137436       -0.208629         -2.4255
LJ         -0.845207      -0.0456943        -1.68314
LJ         -0.110485        -1.03104         -1.8933
LJ          0.971595        -1.06749         -2.4538
LJ           1.70483     0.000745751        -2.47672
LJ          0.772788       0.0312095        -1.72141
LJ            1.6198       -0.731768        -1.69374
LJ          -2.43745         1.09733         2.48982
LJ          -1.74502         1.85671         2.55992
LJ          -2.51167         1.64768        -1.62474
LJ          -1.53781        0.888239        -1.76669
LJ          -0.65689         1.04604        -2.54902
LJ          0.119341         1.78517         2.52628
LJ         -0.797841         1.73737        -1.67737
LJ         0.0565171         1.07569        -1.72951
LJ          0.987752         0.84227        -2.56257
LJ           1.83411         1.84333         2.52036
LJ          0.884046         1.75227         -1.6455
LJ           1.77891        0.904767        -1.81266
LJ           2.52192         2.34285       -0.647891
LJ          -1.50825         -1.9402       -0.759656
LJ          -2.43087        -1.78113      -0.0773501
LJ          -1.76653         2.41242    -0.000962989
LJ          -0.69165        -2.48871        -1.03773
LJ          0.119926        -1.71257       -0.911828
LJ         -0.455609        -1.74618     -0.00547022
LJ         -0.324692         2.37218        0.176546
LJ          0.799526         -2.5304       -0.964527
LJ           1.76601        -1.68811       -0.980233
LJ          0.614101        -2.09671       0.0197793
LJ           1.69715        -2.31266     -0.00919733
LJ          -2.40496       -0.906543       -0.684213
LJ          -1.83756       0.0421211       -0.630628
LJ           2.46931       0.0682743       0.0205237
LJ          -1.54805       -0.930866       0.0207514
LJ         -0.610053       -0.869257       -0.792124
LJ        -0.0760339        0.287871       -0.993737
LJ         -0.920876      -0.0710952      -0.0943687
LJ       -0.00192026       -0.762394        0.237401
LJ          0.865131        -1.03896       -0.727935
LJ           1.90159       -0.139764       -0.858006
LJ          0.764057      0.00718151      -0.0558399
LJ           1.65833       -0.918598       -0.153693
LJ          -2.40778         0.91428       -0.956571
LJ          -1.60681         1.72266       -0.842889
LJ           2.44363         1.66903        0.122281
LJ          -1.97744        0.984197     -0.00378865
LJ          -1.06069        0.657712       -0.838495
LJ         0.0411634         1.67635       -0.799128
LJ         -0.832634         1.56392       -0.157955
LJ        -0.0178404        0.864272       0.0592972
LJ          0.772631        0.921565       -0.661543
LJ           1.59226         1.63215       -0.995254
LJ          0.882009         2.04193      -0.0330312
LJ           1.74416        0.798944       -0.244414
LJ           2.44988         2.49172        0.845338
LJ          -1.40525         -1.7262        0.621449
LJ           2.50358        -1.54746         1.80004
LJ          -2.01975         2.51649         1.67819
LJ         -0.696035        -2.45058         1.08666
LJ          0.135106        -1.65763        0.875018
LJ         -0.893995        -1.70377         1.69096
LJ         0.0630857        -2.36047         1.77197
LJ          0.900193         2.48102        0.905233
LJ           1.97563        -1.51114        0.695279
LJ          0.968912        -1.88127         1.64452
LJ           1.69997         2.53636         1.71347
LJ           2.51043       -0.629128         1.00303
LJ          -1.71827      -0.0609249        0.893576
LJ           2.51995      -0.0119402         1.85771
LJ          -1.68665       -0.909717         1.60209
LJ         -0.698974       -0.869033        0.973213
LJ         0.0635104       0.0411031         1.02402
LJ         -0.879599        0.217036          2.0033
LJ          0.128111       -0.852887          1.8769
LJ           1.02574        -1.01789        0.669577
LJ             1.672       -0.188391        0.724299
LJ          0.764281     -0.00882216         1.91623
LJ           1.67025       -0.862853         1.70182
LJ            2.5205        0.826072        0.943569
LJ          -1.42471         1.88879        0.771232
LJ           2.38462         1.70952          1.5827
LJ          -1.70863        0.974078         1.56008
LJ         -0.892794        0.671791        0.868516
LJ          0.249483         1.43322        0.880717
LJ         -0.887303         1.56858         1.56022
LJ         0.0138564        0.849654         1.60631
LJ          0.987651         0.68416        0.834487
LJ           1.61383         1.73224        0.689072
LJ          0.916138         1.53467         1.85273
LJ           1.74428        0.839224         1.80628
