108
#Comment!
LJ          -2.53792        -2.31891         2.31228
LJ          -1.77286        -1.57362         2.49222
LJ          -2.25547        -1.56644         -1.6393
LJ           -1.7872        -2.55284        -1.59602
LJ         -0.656113         2.39327         2.53845
LJ         0.0737863        -1.81776        -2.48724
LJ          -1.18917        -1.52892        -1.75442
LJ        -0.0224386         2.18773        -1.85798
LJ          0.803653        -2.53633         2.52016
LJ           1.80717        -1.57564         2.43567
LJ          0.841959        -1.92107        -1.67689
LJ           1.96748         2.37972        -1.83044
LJ           2.50531       -0.882802         2.44138
LJ           -1.7563       0.0731128          2.5309
LJ            2.3845        0.138266        -1.74594
LJ          -1.86481       -0.523878        -1.64338
LJ          -1.02604       -0.792076         -2.3739
LJ        -0.0356545       -0.270361        -2.39752
LJ          -1.04782       0.0512658        -1.77564
LJ        -0.0602037        -1.09171        -1.70624
LJ          0.783538        -1.03701        -2.53851
LJ           1.68604       0.0242707         2.54157
LJ          0.945316         0.11097         -1.7598
LJ           1.63785       -0.754162        -1.70273
LJ          -2.48569        0.859999        -2.48988
LJ          -1.67079          1.9093          2.3829
LJ           -2.4545         1.60376        -1.59499
LJ           -1.7349        0.899097        -1.77184
LJ         -0.529794         1.00902        -2.53458
LJ          0.146711           1.693         2.39702
LJ          -1.08228         1.66248        -1.81207
LJ          0.175405         1.07233        -1.80823
LJ          0.854773        0.908322         -2.5391
LJ           1.72992         1.78599           2.393
LJ          0.942478         1.89292        -1.89231
LJ           1.72379         1.15934        -1.72055
LJ           2.50735         2.34081       -0.762307
LJ          -1.53567        -1.71304       -0.745809
LJ          -2.37876        -1.78049       -0.082612
LJ          -1.70679         2.39237       0.0633002
LJ         -0.681217        -2.53436        -1.09979
LJ         0.0954898        -1.63622       -0.809481
LJ         -0.775104        -2.06952       -0.197693
LJ         -0.147841         2.34208        0.151454
LJ          0.905889        -2.50787       -0.920328
LJ           1.89133        -1.70954        -1.06139
LJ          0.829537        -1.85776        0.344991
LJ           1.69143        -2.52953       -0.164728
LJ          -2.38385       -0.980164       -0.761701
LJ          -1.91624       0.0572916       -0.687291
LJ           -2.4895        0.212174        0.114755
LJ          -1.66943       -0.677172        0.141037
LJ          -0.70276       -0.875949       -0.788065
LJ         -0.171654        0.112708         -1.0589
LJ         -0.660776       0.0807484       -0.118641
LJ        -0.0284765       -0.643093       0.0799758
LJ           1.03483        -1.14715       -0.809035
LJ           1.87728       -0.217936       -0.525455
LJ          0.812808       0.0733024         0.12554
LJ           1.98143        -1.05688      -0.0878254
LJ           2.50206        0.914457       -0.782627
LJ          -1.56276         1.79049       -0.834017
LJ           2.36593         1.67199      -0.0360584
LJ          -1.81526         1.03419        0.280873
LJ          -1.04427        0.715608       -0.928421
LJ          0.125259         1.69644       -0.879887
LJ         -0.795869         1.60078       -0.220127
LJ        -0.0519457        0.895344       -0.156416
LJ          0.958304        0.836818       -0.790952
LJ           1.62332         1.73703       -0.739294
LJ          0.795885         1.89899      -0.0959951
LJ           1.77481        0.752083       -0.070332
LJ           2.40792          2.3537        0.633521
LJ          -1.27285        -1.82938        0.799071
LJ           2.54027        -1.44207         1.50763
LJ          -1.90665        -2.35011         1.42792
LJ         -0.775805         2.53106        0.939575
LJ         0.0852747        -1.45949        0.941999
LJ         -0.854631        -1.88566         1.91261
LJ          0.068604         -2.4192         1.75727
LJ          0.652242         2.42918         1.06224
LJ           1.74405        -1.65397        0.953139
LJ          0.914209         -1.7212         1.75584
LJ           1.72296        -2.50692         1.68113
LJ          -2.45921       -0.700574        0.749963
LJ           -1.5168       0.0204927        0.802649
LJ           2.46519       0.0821691         1.69295
LJ          -1.75956       -0.722377         1.73249
LJ         -0.823697        -1.01933         1.04103
LJ          0.167113       -0.278015        0.988814
LJ         -0.910417        0.210041          1.9367
LJ          0.172195       -0.961788         1.82279
LJ          0.950332       -0.851323        0.840174
LJ           1.74829       -0.143288        0.685929
LJ          0.627138      -0.0216125         1.97667
LJ           1.48426       -0.801258         1.73288
LJ           2.27026        0.876209        0.826281
LJ          -1.65036         1.89989          1.0165
LJ           2.44083         1.68712         1.55937
LJ          -1.86056        0.858957         1.49971
LJ          -0.80617        0.814213        0.645109
LJ          0.272845         1.45162        0.808204
LJ         -0.905149          1.3812         1.57651
LJ         0.0114926        0.898205         1.68463
LJ           1.17929        0.659625        0.978818
LJ           1.50487         1.76265        0.587709
LJ          0.984609         1.54556         1.64643
LJ           1.71657        0.875972         1.87888
