108
#Comment!
LJ          -2.54356        -2.42934        -2.54705
LJ          -1.74732        -1.70927         2.48868
LJ           2.48736        -1.66961        -1.68965
LJ          -1.73145        -2.37017        -1.77074
LJ         -0.788632          2.5513         2.54743
LJ         0.0277271        -2.02232        -2.49133
LJ          -1.08855        -1.40989        -1.59601
LJ         0.0407545         2.22859        -1.69661
LJ          0.964135          2.3585        -2.51415
LJ           1.73564        -1.77533             2.5
LJ           1.02832        -1.75062        -1.72273
LJ           1.88672         2.47695        -1.60524
LJ           2.46368       -0.777048         2.55158
LJ          -1.85088        0.115786          2.4988
LJ           2.52133        0.166284        -1.94643
LJ           -1.6943       -0.525681        -1.56292
LJ          -1.11239       -0.869436        -2.39082
LJ        -0.0320497        -0.24491        -2.45181
LJ         -0.813394      0.00428312        -1.67128
LJ         -0.105497        -1.03937        -1.89177
LJ          0.985953        -1.06493        -2.43057
LJ           1.68168       0.0389123        -2.46399
LJ          0.758035       0.0263988        -1.80557
LJ           1.59816         -0.7481        -1.76173
LJ          -2.47909         1.09585         2.50263
LJ          -1.76014         1.89182          2.5401
LJ          -2.52291         1.65044        -1.64423
LJ          -1.55458         0.88704        -1.79981
LJ         -0.678559         1.10957         2.54405
LJ         0.0778854         1.78768         2.47382
LJ         -0.815113         1.71283        -1.63552
LJ         0.0119376         1.10411        -1.74384
LJ          0.984617        0.864505        -2.55194
LJ           1.83665         1.81473         2.50366
LJ          0.911389         1.76806        -1.66722
LJ           1.78951          0.8927        -1.87178
LJ           2.42723          2.3758       -0.679282
LJ          -1.52797        -1.90542       -0.748983
LJ          -2.46565        -1.81635       -0.100184
LJ          -1.79956         2.42407       -0.071478
LJ         -0.658315        -2.49873        -1.04662
LJ          0.121863        -1.66751       -0.891442
LJ         -0.405044        -1.77484      0.00517919
LJ         -0.259658         2.40135        0.134215
LJ          0.839205        -2.53927       -0.953307
LJ           1.68443        -1.70194        -0.98074
LJ          0.597653         -2.1003       0.0764978
LJ           1.74223        -2.36858       0.0129637
LJ          -2.42204       -0.896912       -0.629173
LJ          -1.85223       0.0814784       -0.700702
LJ           2.44655        0.117859       0.0103915
LJ          -1.53797       -0.977373     -0.00779305
LJ         -0.585615       -0.884681       -0.743685
LJ        -0.0555997        0.282623       -0.993771
LJ         -0.966027       -0.110073       -0.100941
LJ         0.0363405       -0.726745        0.246863
LJ           0.87907        -1.06924       -0.770007
LJ           1.94708       -0.158741       -0.930786
LJ          0.742008       0.0115065      -0.0590352
LJ           1.62969        -0.91698       -0.108181
LJ          -2.42156        0.950443       -0.978872
LJ          -1.59071         1.69401       -0.805231
LJ           2.45729         1.73969        0.137069
LJ          -1.94575         1.01393       0.0132819
LJ          -1.05607        0.668376       -0.866958
LJ       -0.00459913         1.67761       -0.834501
LJ          -0.77163         1.52621       -0.192565
LJ        -0.0784067        0.891214       0.0679968
LJ           0.71977        0.981843       -0.635368
LJ           1.53898         1.60913       -0.972106
LJ          0.900755         2.01626      -0.0237584
LJ           1.69443        0.810744       -0.211525
LJ            2.4325         2.49581         0.86487
LJ          -1.42225        -1.75929        0.653665
LJ           2.46592        -1.56522         1.82121
LJ          -2.01808         2.53255         1.67803
LJ         -0.683416        -2.50114         1.12573
LJ           0.16007        -1.65781        0.936713
LJ         -0.911878        -1.71964         1.71408
LJ         0.0890054        -2.33265         1.72003
LJ          0.914787         2.36982        0.908196
LJ           1.91973        -1.49867        0.684276
LJ           1.00364        -1.83922          1.6848
LJ            1.7483         2.55666         1.71256
LJ           2.55516       -0.619973        0.993665
LJ          -1.68574      -0.0973791        0.873246
LJ           2.56393      -0.0264672         1.87857
LJ          -1.70183       -0.885279         1.63318
LJ          -0.70862       -0.802597        0.979244
LJ         0.0504223      -0.0141658         1.00388
LJ         -0.854456        0.159584          1.9479
LJ             0.166       -0.909462         1.90575
LJ           1.03381        -1.02145        0.709457
LJ           1.69375       -0.186485        0.757522
LJ          0.837933      -0.0138177         1.90042
LJ           1.68262       -0.856277         1.63743
LJ           2.47959        0.873579        0.907743
LJ          -1.47446         1.88216        0.787982
LJ           2.39064         1.72369          1.6131
LJ           -1.7263         1.00004         1.47866
LJ         -0.912633        0.647495        0.834449
LJ          0.265783         1.47914        0.848916
LJ         -0.874224         1.59486         1.51307
LJ         -0.041249        0.838047         1.66981
LJ           1.03057        0.706862         0.83247
LJ           1.62524         1.72208        0.645249
LJ          0.876287         1.57796         1.78292
LJ           1.78008        0.834596         1.79175
