108
#Comment!
LJ           2.45376        -2.54801         2.52686
LJ          -1.70115         -1.8817         2.55595
LJ          -2.49846        -1.68326        -1.78517
LJ          -1.81231         2.52733        -1.70279
LJ         -0.934034         2.33082         2.45793
LJ         -0.172832        -1.81132        -2.48343
LJ         -0.836274        -1.61677         -1.5663
LJ        0.00765781         -2.5637        -1.68798
LJ          0.917825         2.54661        -2.53235
LJ           1.62895         -1.8155        -2.50865
LJ          0.840505        -1.49782        -1.61456
LJ           1.87646        -2.44057        -1.73027
LJ           2.42092       -0.885078         2.51754
LJ          -1.58895       0.0666313           2.542
LJ           2.55961        0.146755        -1.81269
LJ          -1.84425       -0.949561        -1.74017
LJ          -1.15365       -0.822634         2.54507
LJ         0.0171874       -0.126286         2.48825
LJ         -0.843348       0.0477273        -1.73818
LJ         0.0507347       -0.818098        -1.68447
LJ          0.883082       -0.968319         -2.5487
LJ           1.80384        0.133015        -2.52936
LJ          0.722045        0.215013        -1.63775
LJ           1.67343       -0.813173        -1.67702
LJ          -2.53862        0.843946         2.51206
LJ          -1.76794          1.7808         2.52159
LJ          -2.55076         1.58597        -1.76416
LJ           -1.7437        0.926202        -1.68545
LJ         -0.698701        0.991657         2.31467
LJ          0.172682         1.74201         2.41497
LJ          -0.90475         1.60922         -1.6298
LJ         -0.104962         0.90043        -1.85732
LJ          0.771815        0.941107        -2.37894
LJ           1.75003         1.69383        -2.49069
LJ          0.937582         1.79683        -1.63649
LJ           1.74627        0.870285         -1.7116
LJ          -2.49214        -2.44206       -0.821209
LJ          -1.50159        -1.70105       -0.744657
LJ           2.48196        -1.77099      -0.0131686
LJ          -1.58641         2.53911      -0.0030302
LJ         -0.776948        -2.52551       -0.813432
LJ        -0.0741934        -1.71682       -0.932682
LJ         -0.859911        -1.77333        0.138912
LJ         -0.122851         2.41796      -0.0482861
LJ          0.832582         2.52601       -0.886968
LJ           1.57965        -1.82642        -0.84294
LJ          0.724233        -1.78639        0.146623
LJ           1.62909        -2.50853      -0.0765467
LJ          -2.43336       -0.942125       -0.796018
LJ          -1.93467        0.189054       -0.821723
LJ           2.46181       0.0347785      -0.0492411
LJ           -1.6464       -0.874445      -0.0468798
LJ         -0.908348       -0.729303       -0.818881
LJ        -0.0363417      -0.0149337       -0.762809
LJ         -0.848837     -0.00688764      -0.0525389
LJ         -0.036392       -0.706631      -0.0212281
LJ          0.970078        -0.85446       -0.749968
LJ           1.73571       -0.195883       -0.818496
LJ          0.881705      -0.0729835      -0.0655305
LJ           1.73265        -1.04178       -0.142198
LJ          -2.49059         1.08462       -0.880385
LJ          -1.73584         1.77147       -0.993628
LJ          -2.54153         1.81085        0.141031
LJ          -1.77363        0.939864       0.0966517
LJ         -0.817946        0.751329       -0.816759
LJ        -0.0950231         1.67914       -0.978656
LJ         -0.885033         1.72586       -0.154674
LJ         -0.138378        0.970239       -0.058505
LJ          0.674477        0.924007       -0.841134
LJ           1.74217          1.9216       -0.904726
LJ          0.706268         1.76322      -0.0495149
LJ           1.64318         0.79909       0.0924236
LJ            2.5367         2.52591        0.910633
LJ          -1.57011        -1.70783        0.936584
LJ           2.36788        -1.70392         1.70548
LJ          -1.83693         2.48497         1.61734
LJ         -0.819654         2.51371        0.737429
LJ         0.0214114        -1.73747        0.852146
LJ         -0.921569        -1.75667         1.70681
LJ          0.107767        -2.45273         1.90811
LJ            1.0982         2.51243        0.960796
LJ           1.72504        -1.79575         0.86392
LJ          0.937952        -1.57316         1.61652
LJ           1.68528         -2.5296         1.80755
LJ           2.49395       -0.571907        0.903566
LJ           -1.7867       0.0353711        0.884032
LJ          -2.44142      -0.0192598         1.97292
LJ          -1.77109       -0.819772         1.69972
LJ         -0.675972       -0.879455        0.788527
LJ         0.0390145      0.00112889        0.814217
LJ         -0.652528       0.0969944         1.74091
LJ        0.00710353       -0.827933         1.59183
LJ          0.813698       -0.945015        0.795128
LJ           1.60823      -0.0225183        0.703559
LJ          0.824441       -0.162682         1.77814
LJ           1.64977       -0.879815         1.69984
LJ           2.38902         0.95074        0.860016
LJ          -1.78165         1.72086         0.79507
LJ          -2.52543         1.67975          1.8075
LJ          -1.78962        0.800623         1.67442
LJ         -0.838431         0.68468        0.850755
LJ        -0.0486775         1.64465        0.900631
LJ         -0.813531         1.76141         1.63138
LJ         0.0450874        0.813136         1.56068
LJ          0.852153        0.753132        0.826227
LJ           1.76459         1.77276        0.796545
LJ          0.863462         1.60251         1.70749
LJ           1.65367         1.03942         1.62463
