108
#Comment!
LJ           2.42872         2.53889         2.49571
LJ          -1.67737        -1.90005        -2.55957
LJ          -2.51916        -1.69876         -1.7886
LJ          -1.80849          2.5059        -1.68514
LJ         -0.943808          2.3831         2.48162
LJ         -0.166143        -1.83549        -2.45208
LJ         -0.818001        -1.61519        -1.57273
LJ       -0.00920479        -2.56269        -1.65033
LJ          0.896121         2.53988        -2.50556
LJ           1.61313        -1.81401        -2.52225
LJ          0.830596        -1.51478        -1.61184
LJ           1.87679        -2.40542         -1.7114
LJ           2.46244       -0.893164         2.49116
LJ          -1.60988       0.0562799         2.54386
LJ          -2.53169        0.151464        -1.82029
LJ          -1.82892       -0.970424        -1.73807
LJ          -1.13722       -0.820121         2.49328
LJ         0.0195182       -0.111925         2.49494
LJ         -0.791603       0.0661631        -1.71132
LJ          0.026154       -0.838499        -1.66272
LJ          0.876061       -0.909477         2.56232
LJ           1.81252        0.131474        -2.52708
LJ          0.728653        0.192259        -1.62081
LJ           1.68995       -0.798628         -1.7004
LJ          -2.53997        0.844927         2.53355
LJ          -1.76954         1.77625         2.53233
LJ            2.5605         1.63822        -1.80323
LJ          -1.77868        0.924096        -1.70733
LJ         -0.667627         1.01793         2.31197
LJ          0.163831         1.75615         2.39363
LJ         -0.871211          1.6676        -1.60908
LJ        -0.0885934        0.949767        -1.82257
LJ          0.754987        0.936634        -2.34679
LJ           1.80398         1.72668        -2.51587
LJ           0.91572         1.77379        -1.60559
LJ           1.75155        0.869641        -1.71152
LJ          -2.48446        -2.42708       -0.811142
LJ          -1.47682        -1.73466       -0.748917
LJ           2.48871        -1.84064     0.000290263
LJ          -1.55858         2.50847      -0.0128529
LJ         -0.785324        -2.54888       -0.779451
LJ        -0.0226981        -1.74313       -0.994476
LJ         -0.869256        -1.77589        0.152471
LJ         -0.120566         2.40948       -0.011241
LJ          0.834589         2.51566       -0.822953
LJ           1.54916        -1.81854       -0.819043
LJ          0.733256        -1.78725        0.150425
LJ           1.65501         -2.4768      -0.0860963
LJ          -2.47474       -0.911828       -0.786816
LJ          -1.97522        0.203186       -0.814694
LJ           2.50605       0.0397284      -0.0419074
LJ          -1.64238       -0.884058      -0.0573073
LJ         -0.895186       -0.700526       -0.827422
LJ        -0.0459688      0.00229001       -0.748863
LJ         -0.866852       0.0148894      -0.0871125
LJ        -0.0389898       -0.660705      -0.0407995
LJ          0.974681         -0.8307       -0.751084
LJ           1.74312       -0.163824       -0.841993
LJ          0.884527      -0.0318278      -0.0647504
LJ           1.69146        -1.01173       -0.141963
LJ          -2.55384         1.04369       -0.862679
LJ          -1.71664         1.73249       -0.972306
LJ           2.53618         1.77478        0.149438
LJ          -1.77947        0.915904       0.0541913
LJ         -0.779617        0.748444       -0.810582
LJ         -0.129077         1.69019       -0.944146
LJ         -0.879284         1.70196       -0.179772
LJ         -0.118788        0.984265      -0.0743011
LJ          0.669897        0.947982       -0.832879
LJ           1.77315         1.90343        -0.87929
LJ          0.650846         1.79627      -0.0590599
LJ           1.61379        0.762438        0.083414
LJ           2.49608         2.50271        0.881734
LJ          -1.59128        -1.71094         0.91796
LJ           2.39786        -1.71894         1.71763
LJ          -1.83868         2.49801          1.6511
LJ         -0.819169         2.47608        0.785877
LJ         0.0038081        -1.71495        0.820827
LJ         -0.859469         -1.7687         1.72688
LJ          0.155068        -2.51306         1.84783
LJ           1.07866         2.51564        0.987598
LJ           1.72331        -1.78148        0.845759
LJ          0.932243        -1.60634         1.65229
LJ           1.68255        -2.49304         1.79822
LJ           2.48982       -0.597286        0.882874
LJ          -1.78858      0.00379708        0.870337
LJ            -2.425      -0.0109237         1.95868
LJ          -1.78771       -0.826725         1.63408
LJ         -0.666835       -0.888492        0.788121
LJ         0.0703973      -0.0334287        0.812565
LJ         -0.650368       0.0878056         1.77409
LJ         0.0530412        -0.88353         1.61409
LJ          0.786859       -0.903543        0.841723
LJ           1.58812     -0.00127614        0.743714
LJ          0.803369       -0.178798         1.81446
LJ           1.66136        -0.90941         1.70628
LJ           2.38611        0.922786        0.853257
LJ          -1.81299         1.74839        0.790834
LJ          -2.54286          1.7162         1.81933
LJ          -1.79594        0.774407         1.65083
LJ         -0.848456        0.707268        0.868522
LJ        -0.0588516          1.6499        0.878239
LJ         -0.875671         1.73417         1.62844
LJ         0.0200812        0.798855         1.55946
LJ           0.84423        0.781398        0.823306
LJ           1.75815         1.80267        0.836051
LJ          0.864463         1.59001         1.67463
LJ           1.69501         1.04129         1.65211
