108
#Comment!
LJ         -0.982643        -2.28208         1.85296
LJ           1.54558        0.613953        -1.92371
LJ           2.45906        0.439129        -2.51751
LJ         -0.711528         1.53283         2.01991
LJ          -1.37231       -0.917357        0.474645
LJ          -1.55029         1.82988         2.53479
LJ          0.854248        0.149376         2.52237
LJ           2.37362       -0.920526       -0.781029
LJ        -0.0463496        0.508211       0.0631815
LJ           -1.6895        0.762239       -0.717948
LJ          0.192542        -2.32975       -0.762879
LJ           1.64706         1.19964        0.312501
LJ          0.243512        -2.39614        -1.81978
LJ          0.701166        -1.30152         1.02899
LJ          0.267756        0.572978        -1.23869
LJ         -0.558049         0.94434         1.04389
LJ          -1.42344       -0.114588          2.5153
LJ           1.17851         1.60862         1.11496
LJ          0.462482       -0.291735        -1.85768
LJ            2.3614         2.10058        0.962387
LJ          -1.48252        -1.12433        -2.37591
LJ          0.755019         1.21073         -1.9703
LJ          -1.71422       -0.311472       -0.469243
LJ          0.326868         1.64148        -1.11955
LJ         -0.230665       -0.909384         1.33066
LJ           1.92146        -1.69064        0.516043
LJ         -0.549692         2.12017        -1.21285
LJ          -1.45679        -1.32884         1.61703
LJ          0.919212         2.40816      -0.0561053
LJ         -0.565766        -1.22396         2.50354
LJ         -0.686114        -1.91108       -0.275024
LJ           1.16174        0.364255       -0.270596
LJ         -0.675621         1.91743         1.01115
LJ          0.617783       -0.555567       -0.588133
LJ           2.52721        0.486685         0.97932
LJ         -0.276785        -2.04213         1.04415
LJ           1.52799        -1.16052        -2.20974
LJ          0.128406         2.11199          2.5368
LJ           2.38258        -1.99976       -0.892327
LJ          -1.87444       -0.354116        -1.66328
LJ           2.13998       -0.414012        -1.84035
LJ          -1.50611         1.65981         -1.6484
LJ          -1.89662        -2.04372        -2.49956
LJ         -0.514029        0.188201        -1.84281
LJ         0.0415878       -0.431739         2.21647
LJ         -0.205857        0.476491         2.40654
LJ          -0.46656         1.53152        -1.97539
LJ          -1.43876        0.802087         1.42686
LJ           1.52556        -1.25409       -0.261633
LJ           1.06626        -2.32641        0.968905
LJ        -0.0568378       -0.947534        0.278062
LJ          0.136088         -1.7775         2.02755
LJ           1.55837       -0.383825        -0.97114
LJ          -2.52614        0.713536        -1.49451
LJ           1.97338         2.34123      -0.0739146
LJ          -1.29149         -2.3774       -0.943869
LJ         -0.554019         -1.7752        -1.61598
LJ           2.34111        0.213082       -0.594425
LJ         0.0871697        0.261864         1.49503
LJ         -0.876359       -0.896658       -0.456175
LJ          -2.43652        -0.85664        0.236429
LJ          0.294122         1.28033         1.67843
LJ          -1.73993         1.83053         1.47477
LJ          -1.91264        -2.21981         1.42859
LJ          -1.95568         2.52841        -1.69364
LJ         -0.890358         2.55424        -2.21545
LJ           1.96875          1.7153        -2.26544
LJ           1.81732         1.18542        -1.00499
LJ           1.87511        -2.35564        -1.83966
LJ          -1.52225        0.574101        -1.68725
LJ         -0.681971         1.21045       -0.744062
LJ            -1.237        -2.21091        0.551587
LJ          0.658034        -1.71165       0.0628061
LJ           2.51453         2.11249        -0.97709
LJ          -2.12168          2.5192        0.340027
LJ           2.54746         2.41361         2.21404
LJ          -2.55957         1.29852       -0.240314
LJ          -2.39525        -1.43782         1.04068
LJ          -1.73183        0.130601        0.517791
LJ          -2.31977        -0.41715         1.75711
LJ           -1.3438       -0.285771         1.47555
LJ         -0.972186        0.870424        0.120207
LJ          0.983589       -0.730552         1.96889
LJ          0.865996       -0.251231        0.965546
LJ          0.257889        -1.38419        -1.12628
LJ         -0.936166       -0.677046         -1.4247
LJ           1.09216         2.25224         2.10845
LJ           1.20031        -1.74186         1.82429
LJ           1.82247       -0.120516        0.540101
LJ          -1.70874        -1.35391        -1.02702
LJ           1.39185         1.92837        -1.33707
LJ          0.381396            2.18          1.2264
LJ           1.80829         1.05483         1.69832
LJ          -2.44835         1.34644          2.1311
LJ         -0.730613         2.19166       0.0357069
LJ          -1.86842         1.17364        0.539893
LJ          -1.67668         1.87787       -0.533775
LJ           2.02352         -2.1683         1.51225
LJ          0.398009         1.61375        0.253579
LJ          0.400224         -1.4336        -2.19448
LJ            1.6789       0.0939893          1.9177
LJ          -2.45012        -1.25169        -1.92967
LJ          -0.65922        0.195109       -0.690922
LJ           2.43426        -1.35408         2.23274
LJ          -1.19399        0.891515        -2.54234
LJ           1.87205        -0.82538         1.37029
LJ            1.2701        -2.06055        -1.02066
LJ         -0.713533      -0.0628849        0.639096
