108
#Comment!
LJ           2.37499        -2.52705        -2.52512
LJ          -1.69195        -1.85048         2.47966
LJ          -2.49323        -1.73066        -1.67619
LJ          -1.86459         2.49537        -1.74173
LJ         -0.851525        -2.53669         2.49247
LJ         -0.142937        -1.84865        -2.51478
LJ          -0.90124        -1.54876        -1.65803
LJ         0.0585071         2.37345         -1.7845
LJ          0.912695         2.50865        -2.38987
LJ           1.73093        -1.69682        -2.49383
LJ          0.802651         -1.5345        -1.51841
LJ           1.94682        -2.47971        -1.60249
LJ           2.43735       -0.922136        -2.48369
LJ          -1.65559        0.120421         2.54541
LJ          -2.44648        0.126791        -1.82536
LJ          -1.83358        -0.91587        -1.58371
LJ          -1.04101       -0.916159         2.53441
LJ        0.00382292      -0.0452808         2.51894
LJ         -0.780654        0.134372        -1.75561
LJ         0.0978919       -0.843254        -1.76902
LJ           1.02195        -1.00623        -2.53098
LJ            1.7753         0.13759         2.48486
LJ          0.701052        0.148611        -1.60228
LJ           1.57576       -0.870115        -1.74312
LJ          -2.50826         0.92349         2.45917
LJ          -1.81457         1.86861         2.51115
LJ           2.56433         1.59197        -1.80839
LJ          -1.71507        0.866587        -1.75772
LJ         -0.645717         1.04341         2.29304
LJ          0.127384         1.66762         2.37708
LJ         -0.793211          1.6343        -1.71848
LJ        -0.0833908        0.868707         -1.7447
LJ          0.784825        0.844808        -2.43191
LJ           1.75404         1.81447        -2.53298
LJ          0.972948         1.72064        -1.53416
LJ             1.754        0.840601        -1.74526
LJ          -2.45816         2.54712       -0.856715
LJ          -1.53722        -1.79286       -0.651901
LJ          -2.56462        -1.77889      -0.0861594
LJ          -1.75364         2.43939      0.00629051
LJ         -0.747575         2.52224       -0.804611
LJ        -0.0295534        -1.72329       -0.882513
LJ         -0.749417        -1.78744       0.0854442
LJ          -0.13379         2.36178      -0.0282618
LJ           1.01778        -2.55816       -0.896051
LJ           1.67315        -1.71964       -0.790278
LJ          0.750632        -1.86225        0.120723
LJ           1.66125        -2.42073        -0.11108
LJ          -2.53509        -0.95967       -0.786112
LJ          -1.90244        0.126351        -0.72935
LJ          -2.56176     -0.00871305       0.0218652
LJ          -1.73511        -0.74341      -0.0949344
LJ         -0.868949       -0.710185       -0.799955
LJ        -0.0149127       0.0683396       -0.731882
LJ         -0.842486      0.00259675       0.0657584
LJ        -0.0899189       -0.744507       -0.108491
LJ          0.789001       -0.768594       -0.821893
LJ           1.86829       -0.114204       -0.892161
LJ          0.923668       0.0479894       -0.129994
LJ           1.76201       -0.999685       -0.036578
LJ          -2.49494         1.16201       -0.683906
LJ          -1.62461         1.69971       -0.964446
LJ           2.50457         1.73297        0.138474
LJ          -1.87684        0.957598       0.0739107
LJ         -0.871357        0.824891       -0.835217
LJ       -0.00943442         1.70497       -0.839662
LJ         -0.965762         1.63772        -0.22085
LJ         -0.109739         1.00116      -0.0475946
LJ          0.713711        0.931417       -0.837241
LJ           1.94444         1.80876       -0.952218
LJ          0.737701         1.90334       -0.132014
LJ           1.77472        0.826354      -0.0971366
LJ           2.46425         2.48933        0.977244
LJ          -1.53796          -1.817        0.966722
LJ           2.52212        -1.63719         1.72689
LJ          -1.87293          2.4714         1.61265
LJ         -0.814016         2.54703        0.809796
LJ          0.103768        -1.69526        0.828337
LJ         -0.888049        -1.64387         1.74446
LJ          0.115592        -2.48294         1.75297
LJ            1.0627          2.5606        0.998493
LJ           1.95582        -1.60754        0.804491
LJ          0.887844         -1.6773         1.63921
LJ           1.61654        -2.50806         1.88338
LJ           2.50517       -0.711463        0.879954
LJ          -1.87194       0.0271908        0.889291
LJ          -2.53755     0.000788857         1.88166
LJ          -1.86528       -0.844969         1.66754
LJ         -0.652783       -0.794758         0.75601
LJ        -0.0100119        -0.05534        0.833245
LJ         -0.763123       0.0770642         1.81174
LJ          0.046129       -0.917265         1.64515
LJ          0.874275       -0.938372        0.888178
LJ           1.57412    -6.84684e-05        0.674606
LJ           0.78573      -0.0684783         1.86384
LJ           1.68642       -0.843623         1.65983
LJ           2.44581        0.764616        0.754863
LJ          -1.58444         1.80453        0.823327
LJ           2.49451         1.68454         1.69693
LJ          -1.67039        0.740941         1.63128
LJ         -0.900252        0.657991        0.832614
LJ         0.0128419         1.69999        0.816299
LJ         -0.810007         1.73119         1.46824
LJ         0.0210186        0.930331         1.53356
LJ          0.872429        0.852096         1.06234
LJ           1.74369         1.78688        0.831949
LJ          0.977553         1.73547         1.88026
LJ           1.70984        0.951074          1.6579
