108
#Comment!
LJ           2.51686        -2.41799         2.54708
LJ           -1.7843        -1.66753          2.4197
LJ           2.52315        -1.73508        -1.69112
LJ          -1.80646        -2.45721        -1.67562
LJ         -0.848394         2.53122          2.4991
LJ       -0.00575142        -2.05185          -2.466
LJ          -1.09293        -1.51058        -1.60823
LJ         0.0175604         2.27624        -1.75536
LJ          0.940228         2.47078         2.51233
LJ           1.73567        -1.78637        -2.55877
LJ          0.892146        -1.77471         -1.7664
LJ           1.89856        -2.55264        -1.68329
LJ           2.46287       -0.825283         2.56005
LJ          -1.89183      -0.0470106         2.56095
LJ           2.50429        0.135962        -2.00237
LJ           -1.7329       -0.538473        -1.49126
LJ          -1.18307       -0.801462         -2.4585
LJ         0.0068078       -0.182002        -2.46318
LJ         -0.714734       0.0383447         -1.8076
LJ         -0.130245        -1.13491        -1.90392
LJ          0.832519        -1.15751        -2.53847
LJ           1.65845       0.0190559         -2.5248
LJ          0.808141       0.0896835        -1.77343
LJ           1.67304       -0.744404        -1.70515
LJ          -2.45141         1.01443         2.47854
LJ          -1.70125         1.92885        -2.56359
LJ          -2.52891         1.71168        -1.65769
LJ          -1.54771        0.816462         -1.8532
LJ         -0.617566         1.04574         2.47909
LJ          0.172424         1.78508         2.48384
LJ         -0.904521         1.60986        -1.74981
LJ         0.0711424         1.04477        -1.82116
LJ          0.938891        0.954011        -2.54823
LJ           1.87339          1.8342         2.44763
LJ          0.909285         1.84704         -1.6191
LJ           1.68139        0.906249         -1.6884
LJ           2.35164         2.36012       -0.766336
LJ          -1.49984        -1.79595       -0.775102
LJ           -2.4353        -1.86579      -0.0844567
LJ          -1.61045         2.53617      -0.0107464
LJ         -0.827717         -2.5372        -1.08712
LJ          0.130071        -1.73885       -0.914077
LJ         -0.537994         -1.8073      -0.0150109
LJ          -0.20643         2.40614       0.0481866
LJ          0.893873        -2.51715       -0.866814
LJ           1.76302        -1.70609       -0.950738
LJ          0.649357         -1.9939        0.126632
LJ           1.68028        -2.38322      -0.0425032
LJ          -2.53879       -0.962403       -0.689169
LJ          -1.92149        0.154359       -0.755148
LJ          -2.55156        0.106081       0.0302625
LJ          -1.71048       -0.926734       -0.011946
LJ         -0.574305       -0.877606       -0.651155
LJ         -0.114765        0.300228       -0.997425
LJ           -0.7628      -0.0567137       -0.101546
LJ          0.143876       -0.725187        0.252881
LJ          0.795158       -0.965399       -0.625967
LJ           2.03261       -0.108649       -0.884712
LJ           0.69213       0.0866029      -0.0148829
LJ           1.74286        -1.00724       -0.110286
LJ          -2.46984         1.05522       -0.853699
LJ          -1.54303         1.82659       -0.833312
LJ           2.38093         1.75699        0.054835
LJ          -1.97238        0.957398        0.114595
LJ          -1.06501        0.654457       -0.959594
LJ         0.0465431         1.86049        -0.91519
LJ         -0.779308         1.57579      -0.0686011
LJ        -0.0292053        0.869131      -0.0144666
LJ           0.72611        0.965274       -0.681222
LJ           1.61807         1.64947       -0.882939
LJ          0.789775          2.0275       -0.115528
LJ           1.71278        0.844319        -0.20726
LJ           2.45807         2.37194        0.842639
LJ          -1.42827         -1.8703        0.733227
LJ           2.55387        -1.62583         1.80885
LJ          -1.96959         -2.4787         1.62567
LJ         -0.694901          2.5431         1.12476
LJ          0.125759        -1.61083        0.922922
LJ         -0.889944        -1.78384         1.74164
LJ          0.098009        -2.36936         1.72887
LJ          0.861262         2.32374        0.948999
LJ           1.98667          -1.567        0.692661
LJ          0.972298        -1.79129         1.73187
LJ           1.69089        -2.51819         1.68449
LJ           2.49668       -0.619429        0.938283
LJ           -1.7377       0.0535004        0.807222
LJ           2.51122      -0.0491008         1.75097
LJ          -1.87811        -0.81798         1.72609
LJ         -0.719094       -0.879148         1.01269
LJ        -0.0360024      -0.0857058        0.985463
LJ         -0.838628        0.183786         1.94982
LJ          0.216263       -0.951995         1.84262
LJ           1.03549        -1.05474        0.688129
LJ           1.60477       -0.198322         0.72577
LJ          0.839235       0.0413146         1.94235
LJ           1.56602       -0.881655         1.78148
LJ           2.35346        0.690406        0.832283
LJ          -1.41633         1.98302        0.793561
LJ           2.47141         1.65545         1.59452
LJ          -1.79641        0.959127          1.6119
LJ         -0.859988        0.663918        0.885038
LJ          0.242552         1.50748        0.680546
LJ          -0.86536         1.63233         1.60643
LJ        -0.0327204        0.819079         1.54566
LJ           1.01095        0.764943         0.85003
LJ           1.57407         1.69831        0.565588
LJ          0.824156         1.61957         1.72119
LJ           1.85364        0.822272         1.78083
