108
#Comment!
LJ           2.22355        0.601249         1.57658
LJ         -0.254247         1.10257       -0.469158
LJ           -1.8228       0.0691885         1.74264
LJ          0.258531        -2.00379         -2.3618
LJ         0.0417655         2.48609       -0.451882
LJ          -2.34206        -1.94389        -1.56441
LJ          0.302936       -0.970214          1.1139
LJ          -1.01063       -0.263055        0.798194
LJ          0.830027        -1.90058       -0.648469
LJ           2.52772        -0.93699        0.432644
LJ           2.48048         2.23626       -0.942225
LJ         -0.354459        -2.49176         1.21679
LJ          -1.52161      -0.0546181        -2.11166
LJ           1.79504         -1.4532       -0.305554
LJ         -0.964306        0.176089       -0.599439
LJ          -0.51757         2.32559        -2.32461
LJ         0.0960034       -0.677343         2.10542
LJ          0.718999         1.35706       -0.647689
LJ           2.38153       -0.947397        -2.14599
LJ         -0.953532        0.569802           2.369
LJ          -1.98001         1.00221          2.3952
LJ           1.78104       -0.412814         2.06596
LJ           2.03103      0.00800053        -1.38946
LJ           1.70461        -2.04463        -1.26458
LJ          0.767386       0.0530544        -2.04134
LJ         -0.198029        -2.34527        -1.44945
LJ          -0.63629         1.83034        -1.31965
LJ           1.39545        0.539414       -0.368327
LJ           2.24955         1.18188        0.527865
LJ         -0.328635        0.173688         1.48797
LJ         -0.696016       -0.546163        -1.39684
LJ          0.665718         1.93964         2.14165
LJ             -2.48        -1.80149         1.02857
LJ          -2.09478        0.147878        0.598719
LJ           1.13305         1.03956         1.49429
LJ           -0.1411        -1.29743       -0.883705
LJ          -2.53529         1.73478          1.5135
LJ          -1.60327        -2.37613       -0.987056
LJ           1.70977         2.14159        -1.78001
LJ           1.52311       -0.852512         1.21507
LJ          -2.56283      -0.0340577         2.51527
LJ          -1.04731         2.10035       -0.191773
LJ          0.467716        0.874552        0.645497
LJ           1.53991       -0.546199        0.127381
LJ         -0.176451         1.76865        0.444927
LJ           1.95115        -2.40045        0.445207
LJ          -2.55779       -0.984785        -1.13273
LJ          0.037808       -0.252633         0.38707
LJ          0.256616       -0.726032         -1.5956
LJ          0.864546       -0.679657        -0.74914
LJ           2.49222       -0.453036         1.38729
LJ          -1.63317        -1.12396        0.605924
LJ         -0.979567       -0.574725         1.95551
LJ            2.3483       0.0184559       -0.203424
LJ         -0.866446        -1.92601       -0.100401
LJ          -0.55232        0.686643        0.484127
LJ           1.75611        -2.45965         1.48544
LJ         0.0272459        0.698906        -1.45953
LJ           1.94462        0.808235         2.50154
LJ          0.952109       -0.994435         2.37073
LJ         -0.332205       -0.285587        -2.23145
LJ          -1.12743         -2.0062         1.93328
LJ         -0.622017        -1.55417        -2.37186
LJ          -1.13742         1.86674         1.04782
LJ           -1.0891        0.779619        -1.72068
LJ          -2.20409        -1.34892         2.18777
LJ          -1.65931        -1.18936        -2.14519
LJ          -1.61162         1.81799          -1.987
LJ          0.996076         2.47278       0.0476053
LJ          -1.07435         1.70524         2.08553
LJ            2.5527        -2.32148         2.18866
LJ            1.0922        -1.68034        0.934348
LJ            1.0035         1.12351        -2.38731
LJ          -1.41168        -2.08184        0.887813
LJ           1.20231        -1.31912        -1.83686
LJ          -1.64234         1.16146        0.266563
LJ          -1.13803        -1.42332        -1.19536
LJ          0.569863        -2.04172         1.73798
LJ           1.40669         1.88364        0.852745
LJ          0.658403        0.166437         2.04481
LJ          -1.72317         -1.0553       -0.407292
LJ           1.17523        0.742425         -1.4032
LJ          -1.76378         1.57717       -0.960734
LJ           2.50087         1.04353       -0.742026
LJ          -2.37557         1.91272         2.49234
LJ          -1.59581        0.945374         1.40927
LJ           1.97665       0.0694731        0.696059
LJ         -0.166053         1.61709         1.63529
LJ         -0.823451       -0.738268       -0.272628
LJ          0.620839        -1.07484        0.171465
LJ           1.67679         1.80272       -0.405238
LJ          0.581622         2.35597        0.988748
LJ          0.124216        -2.08315        0.304558
LJ            1.7611        -1.52862         2.10673
LJ          0.374902         1.98264        -1.94578
LJ          0.962419       0.0279793          1.0051
LJ          -2.12351        0.383645        -1.30815
LJ           2.47293         1.16047        -1.77663
LJ          -2.22218         2.18004        0.516252
LJ         -0.379804         1.21906        -2.34122
LJ          -1.71362        -2.22648        -2.42523
LJ          -1.78602         2.44317          1.6573
LJ          0.953912         2.31609        -1.06005
LJ            1.7429         1.80847         2.42661
LJ         0.0603276        0.102902         -0.6426
LJ          -2.27379        -2.00217      -0.0890699
LJ         -0.666564        -1.24701         1.12361
LJ           1.24635        -2.34849         2.56443
