108
#Comment!
LJ          -2.53058        -2.37906         2.40773
LJ          -1.75124        -1.67832         2.48345
LJ          -2.37289        -1.52689        -1.67827
LJ          -1.71954         2.54291        -1.70497
LJ         -0.801466         2.41728        -2.47817
LJ        -0.0527882        -1.88892        -2.46448
LJ           -1.0568         -1.5337        -1.77947
LJ        -0.0277652         2.22934        -1.79842
LJ          0.829662         2.51984         2.51002
LJ             1.749        -1.65092         2.56302
LJ          0.756738        -1.87481        -1.75404
LJ           2.02827         2.42487        -1.76724
LJ            2.5399       -0.861192         2.49825
LJ          -1.75396        0.057036        -2.56231
LJ            2.4597       0.0596693        -1.76882
LJ          -1.77136       -0.529455        -1.66979
LJ          -1.04389       -0.760003        -2.44173
LJ        -0.0766651       -0.166975        -2.47398
LJ         -0.951803       0.0942959        -1.81397
LJ         -0.109364        -1.11359        -1.87981
LJ          0.865498        -1.10042         2.56153
LJ           1.69711      -0.0221344         2.49221
LJ          0.983243        0.073148         -1.8874
LJ            1.6089       -0.677378        -1.75367
LJ           -2.5622        0.923105         2.53714
LJ          -1.66075         1.91247         2.39593
LJ          -2.38167         1.59656        -1.63932
LJ          -1.67145        0.788793        -1.76355
LJ         -0.474855        0.915567         2.54948
LJ         0.0803812         1.72712         2.29186
LJ          -1.12758         1.70117        -1.76773
LJ         0.0964415         1.11915        -1.79708
LJ           0.82899        0.857465         2.49971
LJ           1.68483         1.72669         2.38238
LJ          0.926779         1.89362        -1.88549
LJ           1.66264          1.0848         -1.6601
LJ          -2.54545         2.47596       -0.703915
LJ          -1.51425        -1.66396       -0.811294
LJ          -2.39328        -1.78889       -0.157445
LJ          -1.76382         2.44286      -0.0409005
LJ         -0.684064          2.5635       -0.993715
LJ          0.179993        -1.68007       -0.797565
LJ         -0.729607         -1.9523       -0.203094
LJ         -0.208515         2.26113       0.0679243
LJ          0.807366         2.54161       -0.943016
LJ           1.84166        -1.85569        -1.02608
LJ           0.78555        -1.94078        0.281427
LJ           1.69562         -2.5006       -0.111114
LJ          -2.42242       -0.940614        -0.71215
LJ          -1.94875      -0.0286486       -0.748396
LJ          -2.55172        0.214281       0.0316636
LJ           -1.8125       -0.743286        0.124722
LJ         -0.650179       -0.858925       -0.714818
LJ         -0.143425         0.24031        -1.04382
LJ         -0.610426        0.127791       -0.124971
LJ        -0.0988248       -0.703027        0.111698
LJ          0.935998        -1.05023       -0.781052
LJ           1.85253        -0.16683       -0.581599
LJ          0.744114       0.0639983        0.104444
LJ           1.91612        -1.15669      -0.0846954
LJ          -2.54355        0.970185       -0.806198
LJ          -1.66295         1.83957       -0.839263
LJ           2.45442         1.68869      -0.0347964
LJ          -1.91719         1.16351        0.358741
LJ          -1.10399        0.731978       -0.868469
LJ         0.0585315         1.63482       -0.974353
LJ         -0.802354         1.42841       -0.128912
LJ        -0.0087213        0.905368       -0.193417
LJ           1.00178        0.890551       -0.719176
LJ           1.62328         1.77632       -0.739314
LJ          0.831721         2.02195      -0.0245628
LJ           1.72127        0.869506      -0.0940326
LJ           2.43252         2.37587        0.732238
LJ          -1.34575        -1.74546        0.712418
LJ           2.48601        -1.46758         1.68643
LJ          -2.01998        -2.36044         1.40883
LJ         -0.791556         2.52893        0.959684
LJ          0.127892        -1.47719         0.94953
LJ         -0.937945        -1.85179         1.87576
LJ         0.0235604        -2.34103         1.73637
LJ          0.738093         2.39731        0.983687
LJ           1.83523        -1.65951        0.860725
LJ          0.942802        -1.78478         1.76879
LJ           1.74743        -2.44786         1.69651
LJ           2.46453       -0.637427        0.849176
LJ          -1.57144       0.0353678        0.856677
LJ           2.48955       0.0265204         1.75648
LJ          -1.72812       -0.780924         1.79654
LJ         -0.787771        -1.05127         1.05249
LJ          0.208342      -0.0907132         1.07039
LJ         -0.963457        0.162797         1.99217
LJ          0.126977       -0.904996         1.86321
LJ           1.02512        -1.03178        0.830971
LJ            1.6048       -0.175835        0.600784
LJ          0.691237     -0.00799541         1.98755
LJ           1.56968       -0.769774          1.7411
LJ           2.24037        0.832696        0.883102
LJ          -1.56464         1.93761           1.029
LJ           2.48195         1.65109         1.52512
LJ           -1.8303         0.89407         1.52052
LJ          -0.77359        0.732635        0.783743
LJ          0.252713         1.44468        0.802498
LJ         -0.842331         1.43803         1.56892
LJ          0.131304        0.835011         1.71393
LJ           1.15879        0.733711        0.990712
LJ           1.47638         1.75502        0.642384
LJ          0.927904         1.51657         1.62237
LJ           1.66026        0.763737         1.90118
