108
#Comment!
LJ           1.67888        0.838032         1.45511
LJ         -0.302223         1.08369        0.167412
LJ          -1.49098       -0.179566         1.33496
LJ          0.634316        -1.55203        -2.01118
LJ          0.691406          2.0286       -0.362992
LJ          -2.27404         2.35829         -1.5699
LJ         -0.396521        -2.00984         1.17597
LJ         -0.296573       -0.180489         1.76394
LJ          0.979459        -2.10694       -0.175654
LJ           1.23578        -0.28773        0.945249
LJ           2.56191         1.74164       -0.747759
LJ         -0.584086         2.13986         0.69236
LJ          -1.57746       -0.891886         2.30535
LJ           1.90036       -0.674505       -0.733709
LJ          -0.61053       -0.823814       -0.613274
LJ         -0.669488        -2.15089         2.46751
LJ         -0.619263        -1.09253         2.49898
LJ           1.09848          1.1213       -0.894518
LJ           1.72513        -1.33241        -2.47158
LJ         -0.860888         1.26497         1.16692
LJ          -1.72332        0.759646         2.21702
LJ           2.00644        0.385784        -1.45097
LJ           1.86744        0.621217       -0.432408
LJ            1.8213        -2.22534        -1.52571
LJ          0.782537        0.475336        -1.74333
LJ         -0.823364        -2.35524         -1.1313
LJ        -0.0530834         1.47039       -0.972379
LJ          0.910037        0.070405       -0.041702
LJ           2.49941         1.20122        0.111582
LJ          0.310021       -0.232228        -2.42611
LJ          -1.21165       -0.919879        -1.77731
LJ         -0.323909         2.19504        -2.00644
LJ           1.53381        -1.33077        0.307226
LJ          -1.66521       -0.468739       -0.867214
LJ         -0.218949         1.83387         1.60214
LJ        -0.0323545        -2.10806      -0.0117667
LJ           2.32697        0.343368         2.21832
LJ          -1.23811         1.70958        -1.30712
LJ           2.14432         2.15857         -2.2995
LJ          0.525734        -0.89299         1.34432
LJ           2.03412       -0.326304        -2.22896
LJ         -0.853925         1.93016       -0.318314
LJ          0.808251         1.03127        0.454738
LJ          0.446442        -1.06714       0.0785243
LJ         0.0424071        0.605592         1.08202
LJ            2.1195         -1.8983       -0.594847
LJ           2.36417        -1.22862        -1.40618
LJ          -1.05378       0.0742061        0.317937
LJ         0.0836111        -1.51971       -0.970469
LJ          0.521403       -0.635672       -0.763914
LJ            1.1107       -0.288741         2.05454
LJ           2.18977       -0.706288        0.950985
LJ          -1.70105       -0.938269        0.468881
LJ           1.65608        0.674624          0.5609
LJ           -1.9794        -2.53615       -0.493775
LJ          -1.48674        0.998092        0.345367
LJ           1.66758        -2.31539         1.58781
LJ          -0.20874        0.311678        -1.39821
LJ           1.42054        0.652489         2.55097
LJ           1.26753       -0.473349        -1.55857
LJ         -0.153771        -0.75066        -1.68992
LJ          -1.32901         2.12156         1.55818
LJ         -0.446871        -1.71945        -1.78339
LJ          -2.10458         2.30607        0.491999
LJ         -0.822565       -0.138045        -2.31197
LJ          -2.24292        -1.22466         1.54068
LJ          -1.95569        -1.69101        -2.16532
LJ          -1.36221        -2.55465        -1.98047
LJ           1.77948        -2.46783        0.456146
LJ           -2.1101         1.42143         1.26507
LJ           2.44521        -2.06171         2.32824
LJ          0.676176         -2.1099        0.939188
LJ          0.600826         1.74706        -2.43209
LJ          -1.49719        -1.91209          1.9913
LJ           1.16059        -1.48905        -1.21083
LJ          -1.04967        0.792914       -0.719783
LJ          -1.01936        -1.84352        -0.20943
LJ          0.375633        -1.60192         2.16633
LJ           2.12769         1.79364        0.924798
LJ           0.56163         0.63182         1.98823
LJ          -2.19609        -1.46486       -0.389727
LJ           1.74857         1.42509        -1.61783
LJ           -1.3532        0.813355        -1.83304
LJ          -2.04361        0.907895        -0.91192
LJ           -1.9586         1.81256         2.55025
LJ          -2.26982         0.45834         1.02744
LJ           1.17827         1.68867         1.77721
LJ         -0.962753         1.67702         2.54262
LJ           -2.2317        0.105257      -0.0297396
LJ         -0.592699        -1.04153        0.452503
LJ           1.52569         1.61532      -0.0362073
LJ          0.523104         2.00571        0.906798
LJ          -1.32263        -1.99248        0.789852
LJ            1.4306         -1.2263         1.49227
LJ          0.601946        -2.48742        -1.29426
LJ         -0.627507        0.736279         2.13248
LJ          -2.01162      -0.0698525        -2.10535
LJ          -2.34477        0.908506        -2.14247
LJ          -2.29135        -2.49561         1.39106
LJ         -0.181363         1.18623        -2.07036
LJ          -1.01681        -1.06494         1.40185
LJ           2.25569         1.38281           2.249
LJ           1.52456         2.25985       -0.877252
LJ           0.52295         2.50977         1.84183
LJ         -0.153568       0.0641969       -0.143821
LJ          -1.62038        -1.76386        -1.20815
LJ           2.53718        -1.55876        0.642404
LJ           1.25285        -2.51102        -2.32352
