108
#Comment!
LJ          -2.49061        -2.29712         -2.5222
LJ          -1.64392        -1.55313         -2.5566
LJ          -2.44429        -1.53329        -1.71032
LJ          -1.74487        -2.40556        -1.80885
LJ         -0.827147         2.33291        -2.52316
LJ        -0.0495935        -1.50814          2.5365
LJ         -0.785391        -1.42698        -1.91297
LJ            0.1483         2.56358        -1.82464
LJ           1.03761        -2.51749        -2.54871
LJ           1.57889        -1.52809         2.40518
LJ           1.05579        -1.69635        -1.73102
LJ           1.91058        -2.55361        -1.65112
LJ           2.50853       -0.739753        -2.46819
LJ          -1.93817     -0.00547728         2.32944
LJ            2.5353       0.0433278        -1.58771
LJ          -1.66668       -0.590141        -1.63536
LJ         -0.756234       -0.670068         2.51056
LJ         0.0933105      -0.0320158        -2.30743
LJ         -0.769136       0.0434167        -1.77386
LJ           0.17046       -0.897955        -1.52426
LJ          0.725204        -1.00168        -2.47328
LJ            1.6977       0.0636107        -2.45276
LJ          0.878478        0.244972        -1.63275
LJ            1.4227       -0.732844        -1.54718
LJ           -2.5606        0.868315        -2.36556
LJ          -1.74307         1.90023          2.3935
LJ          -2.43834          1.7555        -1.48399
LJ           -1.5713        0.659332        -2.00146
LJ         -0.463423        0.854168         2.50171
LJ          0.115417         1.85496         2.40765
LJ          -1.19749         1.62315        -1.74512
LJ          -0.21083         1.05921        -1.63006
LJ           1.02333         1.02122        -2.46508
LJ           1.78021         1.90485        -2.53334
LJ          0.929863         1.84136        -1.79705
LJ           1.74422         1.21689        -1.82843
LJ            2.4889        -2.36834        -0.64512
LJ          -1.38427        -1.59131       -0.944159
LJ          -2.29169         -1.6366        0.104615
LJ          -1.70283         2.40629        0.366882
LJ         -0.691288         2.51532       -0.995095
LJ          0.085181        -1.80202         -0.7154
LJ         -0.826829         -1.8734       0.0459467
LJ         -0.027406         2.43456       0.0545967
LJ           1.04014        -2.44672        -0.91256
LJ           1.93055        -1.50909       -0.846402
LJ           0.71625        -1.95012        0.214309
LJ           1.66142        -2.54576        0.056868
LJ          -2.23106       -0.826835       -0.751456
LJ          -1.83254         0.30036       -0.914401
LJ          -2.45277     -0.00445672      -0.0266419
LJ          -1.56411       -0.596074      -0.0819502
LJ         -0.728752       -0.829314       -0.849268
LJ       -0.00389714       0.0202186       -0.789824
LJ         -0.662825      -0.0549142       0.0777929
LJ        -0.0697432        -1.08596       0.0888871
LJ          0.891216        -1.08596       -0.651718
LJ           1.89519        -0.30489       -0.569454
LJ          0.892291       0.0793835     0.000232924
LJ           1.89938        -1.05151        0.202614
LJ           2.30972        0.831243       -0.721777
LJ          -1.74631         1.69301        -0.66137
LJ           2.36007         1.66333       0.0287678
LJ          -1.79081         1.03034        0.125285
LJ         -0.890269        0.842753       -0.873053
LJ         0.0563218         1.81651        -0.92846
LJ         -0.844596         1.68468      -0.0863634
LJ           0.16032        0.930341       -0.132489
LJ          0.872763        0.963385       -0.917499
LJ           1.71319         1.76519       -0.865591
LJ          0.852725         1.84769       -0.137267
LJ           1.69847        0.647844       0.0323924
LJ           2.42072         2.41869        0.726096
LJ          -1.54211        -1.76301        0.908225
LJ           2.43112        -1.44064         1.66187
LJ          -1.89421        -2.38288         1.65787
LJ         -0.685814         2.45468        0.968657
LJ         -0.131595        -1.59161         1.09719
LJ         -0.817369        -1.62998         1.82772
LJ         0.0184701        -2.30616         1.76331
LJ          0.849975         2.49084        0.897335
LJ            1.5168        -1.65645        0.998603
LJ          0.788369        -1.54472         1.71484
LJ           1.51891        -2.53515         1.56309
LJ          -2.30763       -0.776383        0.927567
LJ          -1.81982        0.197028        0.784483
LJ           2.30802        0.119294          1.6601
LJ          -1.64031       -0.893767         1.61707
LJ         -0.881637       -0.895144        0.854895
LJ          0.144902      -0.0883934         0.88288
LJ         -0.987224       -0.054464         1.58229
LJ         0.0476988       -0.621051         1.83198
LJ          0.944073       -0.902086        0.484851
LJ            1.6557       -0.236618        0.875527
LJ          0.986425      -0.0318172          1.7505
LJ           1.58021       -0.818009         1.71517
LJ           2.39581        0.921614         1.03822
LJ          -1.92389         1.63951         0.93272
LJ           2.42889         1.94343          1.6391
LJ          -1.68554        0.826213          1.6173
LJ         -0.945489        0.880838        0.942051
LJ          0.267862         1.45925        0.704448
LJ         -0.733768          1.5073         1.67307
LJ          0.110194        0.723921         1.65837
LJ           1.11565        0.689575         1.08486
LJ           1.60973          1.7643        0.883414
LJ          0.781599         1.76802         1.61562
LJ           1.75811        0.891132         1.89992
