108
#Comment!
LJ          -1.19503        -1.87781        -2.41534
LJ         -0.175134         1.07215         2.30498
LJ           1.94999        0.987347         2.45531
LJ            2.3109         2.04634        -2.46814
LJ         -0.249727        0.420886        -0.30653
LJ          -2.23496         1.20027         -2.3044
LJ          -0.34919      -0.0424174         2.49191
LJ           1.80839       -0.584974        -0.40735
LJ           1.75023        0.501103        0.691687
LJ           1.58954         1.39329        0.285563
LJ           0.31689        -1.95711       -0.157263
LJ           1.67383       -0.490032        -1.70309
LJ         -0.618824         2.51554        -2.03764
LJ         -0.938109       -0.510365        0.218233
LJ          0.234502        -2.14317        -1.65087
LJ          -1.94982         2.36271         1.03371
LJ          -1.33239       -0.536726         2.56353
LJ          0.951269        0.276142         1.89075
LJ          0.722186        -1.09532        -1.54662
LJ          0.590385          2.3378         1.41725
LJ          -2.26076        -1.95857        -2.55731
LJ        -0.0352144         0.14594         1.44484
LJ          -2.56276        0.523645        -0.47806
LJ         -0.163238         1.89708     4.44312e-05
LJ          -1.32495       -0.643986         1.24989
LJ            1.5891        -1.41596        0.790933
LJ           2.39733         2.25201        0.356538
LJ          -1.39341         2.48262         2.01918
LJ           1.37569         2.43133        0.823892
LJ          -1.64553        -2.24558        -1.45937
LJ          -1.21287         2.50122        0.140794
LJ          -2.06682       -0.290247       -0.877282
LJ           1.62612         1.86146         1.65097
LJ           1.18825        -1.80118        -2.10724
LJ           1.85718       -0.105095         2.39887
LJ          -1.88091         1.90584       -0.432915
LJ         -0.150125        -1.50632        -2.32686
LJ          0.788127         1.48704         2.01773
LJ          -2.37814       -0.488552        0.204836
LJ          -1.30921        0.456128       -0.709762
LJ           1.05055        0.512458        -2.12997
LJ          -2.14648         1.26029        -1.13671
LJ          -2.55413         2.24344        -1.34579
LJ          -1.36247        0.615418         2.44897
LJ          -1.71377        0.459592         1.29571
LJ         -0.393523         2.24238         1.89872
LJ          -1.74905         2.04583        -2.28023
LJ          -2.20899         1.68663         1.85041
LJ          -2.54618       -0.258211        -1.97024
LJ          0.773394        -1.60638         1.76424
LJ         -0.724367        -1.66651        0.447107
LJ         -0.108585        -2.53054        0.747874
LJ          0.346043        0.208289        -1.16334
LJ           1.56314         0.50803       -0.567661
LJ          0.887681         2.07966       -0.183206
LJ          -2.09085        -2.25733       -0.463417
LJ          -1.58928        -1.34804       -0.365676
LJ           2.43536       -0.235898         1.23366
LJ          -1.77991        -1.43513         1.85168
LJ           -1.0384        -0.49308       -0.721453
LJ           1.84308         -1.2757         1.85494
LJ        -0.0899958         1.29506         1.11924
LJ           1.82729         1.39733        -1.74729
LJ         -0.987566         1.64226        0.738618
LJ          -2.55515        -1.26295       -0.802434
LJ          -1.09424         1.94833         -1.1202
LJ          0.435565         1.83583        -1.89008
LJ         -0.165705       -0.621094        -1.78718
LJ           1.32286        -2.32492        -1.03798
LJ         -0.841377         1.53902        -2.23813
LJ         -0.958395         1.30461       -0.248788
LJ           2.52633        -1.57696        0.186224
LJ            0.7802        -1.07944       -0.524379
LJ          0.616084         0.98239       -0.267901
LJ          -2.40085        -1.23803         1.11386
LJ           2.00492        0.445498        -1.69022
LJ             2.225         1.64479       -0.472014
LJ          -1.71572        -1.86395        0.701923
LJ          -1.69411        0.183338        0.220276
LJ          0.751879       -0.919945        -2.49533
LJ          -2.29128        0.257986         2.25784
LJ          -2.22493         1.23233        0.284182
LJ        -0.0470597        0.673034        -1.96567
LJ          0.285972        -1.47658        0.813938
LJ           1.72022        -1.37628        -1.11435
LJ         -0.883074        -1.44534        -1.43415
LJ          0.880111         1.09601        -1.34854
LJ           1.38215         2.28272        -2.12169
LJ         -0.235154        -1.10456       -0.611934
LJ          -1.74598        -1.03301        -1.53845
LJ         -0.857786        -1.82082         1.43489
LJ         -0.662008        0.408373        0.620233
LJ          0.491866       -0.606572         1.66911
LJ          -1.78853        0.527992        -1.69908
LJ         -0.512554        -2.16112       -0.835254
LJ           1.15215       -0.429838        0.728537
LJ           1.72483        -1.95433       -0.223304
LJ           2.07952        -1.34718        -2.31247
LJ          0.620163         0.58204        0.696965
LJ         -0.455385       -0.905332         1.77159
LJ          -2.39225       -0.802792         2.17702
LJ          0.303887        -2.42156          2.5303
LJ          0.196344       -0.476054        0.318806
LJ           2.43024          -2.475         1.80878
LJ          -1.09903         1.35817         1.73203
LJ           2.26274        -2.05755        -1.69934
LJ        -0.0600582         1.51475       -0.985209
LJ            2.3971        0.915847         1.30977
