108
#Comment!
LJ         -0.552856        -1.56932       -0.843401
LJ          -2.04292        -1.68753         1.39748
LJ          0.430793         1.52534       -0.259164
LJ          -1.23074        -1.78619        -1.56316
LJ          -2.31293       -0.203878         2.01976
LJ         0.0241863          -1.628         1.33029
LJ           1.12933       -0.683868       -0.552874
LJ        -0.0836766        -1.56684        -2.24874
LJ          0.165253        0.631007        -2.32176
LJ           1.44683         2.00599        -2.41132
LJ        -0.0492753        -1.96325        0.258715
LJ         -0.890709        -1.39388         1.99355
LJ          -1.66968          2.3877       -0.518564
LJ         -0.674053        0.572899         1.75733
LJ           1.26096      -0.0796308         2.39855
LJ          0.611077        -1.62213       -0.658933
LJ          -1.79877         1.47053        0.128117
LJ           2.17572         1.27282       -0.415635
LJ         -0.274397         1.56466         1.62558
LJ           1.67683        0.927091         1.44112
LJ           1.27504        -2.07913         2.45918
LJ          0.112726         1.64453         -1.3853
LJ         -0.818141         -0.6895         -1.3635
LJ           1.82713        -0.20419         1.43892
LJ          0.950093        -1.93885        -1.71591
LJ          -1.68134         2.18702        0.984057
LJ           1.31223        -1.96617         1.36018
LJ          -1.06969       -0.305898        -2.51906
LJ           1.09971         1.81933        0.743205
LJ           2.41042       -0.758223        -1.33536
LJ         -0.924021        0.888209       -0.560402
LJ         -0.536049        -2.42943         1.31325
LJ           1.76993        -1.80653        -1.05688
LJ          -1.81421         2.30266         -1.5243
LJ          -2.14204        -1.25477         0.31226
LJ          -1.32023         1.00035         1.06623
LJ          0.444411         2.44505         1.62909
LJ           2.14669        -0.22478        -2.26145
LJ          0.433629         2.48078       -0.281373
LJ          0.838593        0.359753       -0.482498
LJ        -0.0422509       -0.569819       -0.588567
LJ         -0.773823        0.202833        0.675986
LJ          -1.18675        -1.85733       -0.213419
LJ          -2.20922        -2.20152        -2.46684
LJ           1.02823        -2.07109        0.188258
LJ           2.55131        -2.18512       -0.249242
LJ          -1.84394        -0.19761        -1.87754
LJ           1.44922         2.02613         1.66562
LJ          -1.18576        -1.77266        0.800482
LJ          0.407246      -0.0807429         2.03781
LJ          -2.46668         0.58555       0.0540635
LJ           2.19568        -2.41936         1.96284
LJ           0.74332         1.05505         1.87823
LJ           -1.4706         1.62646         1.90707
LJ           1.47259         2.08238       -0.223704
LJ         -0.683924         1.55353        -2.40899
LJ          -2.30424         1.94185         -2.3958
LJ         0.0316704        -2.26005        -1.43128
LJ         -0.999893        0.294324        -1.51604
LJ          0.055349        0.591471        -1.09804
LJ           2.07813        -1.22162          1.9402
LJ           -1.7912        -1.15544         2.52466
LJ           2.28911         1.60089        0.704445
LJ           1.43959       -0.801423        -1.57346
LJ         -0.108026        0.463534       -0.113326
LJ           1.13225        0.877462        -1.39596
LJ           1.10666       -0.780853        0.500955
LJ          0.673982      -0.0596744        -1.49644
LJ          -1.44874       -0.549605         1.30288
LJ           2.08982          1.4449         -1.5947
LJ          -2.38422        0.684015         1.15992
LJ           1.00366       -0.916537          1.4237
LJ          -1.37773       -0.111325       -0.413087
LJ           2.09397        -2.43548        0.865357
LJ          0.519248         1.56503        -2.32788
LJ         -0.884342         2.39869        0.323697
LJ           0.36042         -1.0811        -1.47855
LJ           2.48964       -0.426401       -0.328186
LJ         -0.851506         1.29376        -1.45818
LJ          -2.50235       -0.689142         1.16092
LJ          -1.14539       -0.949275        0.195705
LJ        -0.0431811         1.05404        0.718345
LJ         -0.796099         2.36651        -1.70837
LJ          -2.39435        0.306916       -0.999177
LJ           1.71279        0.122317        -1.07615
LJ          0.133085          2.4492        -2.46544
LJ           2.16627        -1.53652        -2.06069
LJ         0.0108403       -0.441724        -2.15776
LJ           -1.0921        -2.36111         2.32934
LJ         -0.573261         2.44149       -0.684468
LJ           1.77638        -1.46501      -0.0631775
LJ          -2.31096        -1.93067        -1.27586
LJ           2.13567         2.50977        -1.76707
LJ          -1.91943        -0.12609        0.516653
LJ           1.07682        -1.04674         2.53188
LJ          0.533374       0.0717163        0.679932
LJ           1.54124        0.963278        -2.48677
LJ           2.02048       0.0101538        0.484117
LJ         -0.124431       -0.954231        0.502889
LJ          -1.55462         0.74218        -2.46549
LJ         0.0992716         2.05913        0.677845
LJ          -1.96071         1.28388        -1.14899
LJ           1.17393         2.45233        -1.10162
LJ           1.38769        0.945481        0.251181
LJ          -2.56403        0.872411        -2.32289
LJ           2.50296         1.57822         1.79145
LJ           2.29117         2.17877        -0.87998
LJ          -1.77679       -0.824628       -0.939921
