108
#Comment!
LJ           2.55041        -2.55181          2.4871
LJ          -1.75755        -1.72881         2.52755
LJ          -2.54651        -1.69932        -1.62156
LJ          -1.75334        -2.45134        -1.74054
LJ         -0.988243         2.45302         2.52318
LJ        -0.0256432        -1.99674        -2.54773
LJ         -0.886584        -1.57848        -1.61251
LJ         0.0891217         2.27222        -1.69166
LJ           1.02401         2.40967         -2.3462
LJ           1.81125        -1.75436        -2.54165
LJ          0.945118        -1.72382        -1.66828
LJ           1.97686        -2.51791        -1.50785
LJ           2.44309        -0.82559        -2.54065
LJ          -1.74919      -0.0107684        -2.54498
LJ          -2.48132        0.199548        -1.76722
LJ           -1.6341        -0.55148        -1.36506
LJ          -1.17755       -0.862182        -2.45076
LJ         -0.111032       -0.264553        -2.47975
LJ         -0.798236          0.1676        -1.86368
LJ        -0.0728303        -0.98979        -1.75862
LJ           1.01046         -1.0851        -2.48829
LJ           1.63115       0.0927198         2.55943
LJ          0.764023       -0.107737        -1.53605
LJ           1.71952       -0.834027        -1.69267
LJ          -2.42415         1.04715         2.29676
LJ          -1.78275         1.83813         2.54746
LJ          -2.50948         1.68217        -1.75651
LJ          -1.63131        0.942672        -1.80744
LJ         -0.707039         1.08142        -2.50122
LJ          0.108163         1.84581         2.53649
LJ         -0.758485         1.72283        -1.75023
LJ         0.0472008        0.823738        -1.86879
LJ          0.860948        0.760479        -2.42457
LJ            1.7393         1.84554         2.42027
LJ          0.941752         1.58947        -1.58025
LJ            1.8321        0.809044        -1.74299
LJ          -2.51442         2.47941       -0.737651
LJ          -1.48318        -1.85066       -0.706247
LJ          -2.53082        -1.75229        -0.17347
LJ           -1.6548         2.48923      -0.0296551
LJ         -0.640457        -2.56086       -0.917906
LJ         0.0625328        -1.69327       -0.939717
LJ         -0.620251        -1.84241        0.100874
LJ         -0.156834         2.33231        0.106054
LJ          0.827175        -2.48434       -0.897679
LJ           1.82418        -1.70866       -0.823044
LJ           0.72096        -1.96561        0.112399
LJ            1.6935        -2.40888      -0.0483454
LJ          -2.45894        -0.93244       -0.787045
LJ          -1.95167       0.0813076       -0.674153
LJ           2.32799        0.050195      -0.0897248
LJ          -1.63464       -0.842926       0.0264111
LJ         -0.641013       -0.757718       -0.822417
LJ         0.0308398        0.206197       -0.960172
LJ         -0.795594      -0.0937944      -0.0442063
LJ         0.0863496       -0.777432        0.225229
LJ          0.763194       -0.827899       -0.770865
LJ           1.78865        -0.15298       -0.873174
LJ          0.733659       0.0308242       -0.100847
LJ           1.68693       -0.933705      -0.0794834
LJ          -2.42241        0.946783       -0.937544
LJ          -1.63858         1.70665        -1.00348
LJ           2.46651         1.60724       0.0415416
LJ          -1.94407        0.877539       0.0851179
LJ         -0.926071        0.711415       -0.892163
LJ        -0.0396039         1.56247       -0.840926
LJ         -0.848525         1.49656      -0.0718677
LJ         0.0467755        0.933494        0.116293
LJ          0.824031          1.0743       -0.719142
LJ           1.74929         1.67805       -0.891818
LJ          0.836728         2.00113      -0.0255812
LJ           1.83647        0.825883       -0.144341
LJ           2.51973        -2.47832        0.854226
LJ           -1.4773        -1.70874        0.774805
LJ            2.5316        -1.47207         1.68094
LJ          -1.93117         2.47847         1.56299
LJ         -0.782316        -2.49496         1.02071
LJ          0.103386        -1.65879        0.935168
LJ         -0.895224        -1.66812         1.68736
LJ          0.102131        -2.41636         1.68473
LJ          0.995776         2.52717        0.925948
LJ           1.87706        -1.55358        0.756111
LJ          0.912241        -1.70219          1.6614
LJ           1.61636        -2.48475         1.81762
LJ           2.49917       -0.619067         1.06303
LJ          -1.84615      0.00743169        0.791887
LJ           2.46913        0.054288         1.89436
LJ          -1.66775       -0.926855         1.45894
LJ         -0.736565       -0.933068         1.00717
LJ         0.0410983      -0.0595371        0.995033
LJ         -0.822166        0.147627         2.12172
LJ          0.103035       -0.946883         1.72163
LJ          0.918068       -0.876001        0.796373
LJ           1.66452       -0.118656        0.632961
LJ           0.70661       -0.103604         1.89239
LJ           1.66039       -0.829894         1.68824
LJ           2.43618        0.649832        0.812897
LJ           -1.4765         1.91674        0.773249
LJ          -2.54756         1.61195         1.54306
LJ          -1.57289        0.881784         1.60696
LJ         -0.913273        0.703443        0.732386
LJ          0.179413         1.62637         0.87707
LJ         -0.728924         1.65976         1.51079
LJ         0.0167686        0.911843          1.5551
LJ          0.885832        0.656685        0.904512
LJ           1.73132         1.61544        0.769607
LJ          0.864034         1.56641         1.74796
LJ           1.68183        0.726377         1.71879
