108
#Comment!
LJ          -2.51808         -2.3513         2.53734
LJ          -1.67167        -1.51985         2.48438
LJ          -2.35159        -1.51532        -1.81391
LJ          -1.66464        -2.50799        -1.71172
LJ         -0.745128         2.35401        -2.41443
LJ         -0.113562        -1.46338         2.54067
LJ         -0.970243        -1.41696        -1.94766
LJ         0.0956603        -2.49202        -1.98369
LJ           1.00448         -2.3583        -2.40443
LJ           1.70874        -1.52729         2.35141
LJ           1.18335        -1.66437        -1.74051
LJ           1.91414        -2.54738        -1.66376
LJ           2.44505       -0.734114        -2.45269
LJ          -1.81078      -0.0676552         2.31593
LJ           2.54788       0.0181257        -1.70444
LJ          -1.54182       -0.567979         -1.6598
LJ         -0.794096       -0.662106        -2.53931
LJ          0.119201      -0.0935684        -2.36171
LJ         -0.812619       0.0945138        -1.72652
LJ          0.162493       -0.918264        -1.60784
LJ          0.747442        -1.03394         -2.5341
LJ           1.67951       0.0214907        -2.38378
LJ          0.946899        0.158281        -1.65207
LJ           1.55832       -0.603091        -1.53688
LJ          -2.47758        0.840631        -2.41367
LJ          -1.80681         2.02833         2.43445
LJ          -2.54485         1.71626        -1.57838
LJ          -1.54726        0.677897        -2.08212
LJ         -0.563327        0.817421         2.51713
LJ         0.0740639         1.72554         2.39297
LJ          -1.28621         1.72085         -1.6707
LJ        -0.0229912         1.06573        -1.65951
LJ          0.967872         0.93109        -2.54229
LJ           1.74595         1.88453         2.44359
LJ          0.925054         1.87554        -1.77246
LJ           1.70641         1.00497        -1.82868
LJ          -2.56285        -2.51056       -0.716506
LJ          -1.35884        -1.69836       -0.952826
LJ          -2.28885        -1.59973       -0.109669
LJ           -1.6551          2.3897        0.169559
LJ         -0.745836        -2.52749        -1.02627
LJ         0.0249012        -1.86266       -0.667752
LJ         -0.741095        -1.82311      0.00909837
LJ        -0.0175508         2.38487        0.184379
LJ          0.849133        -2.49411        -1.05218
LJ           1.89337        -1.56266       -0.873585
LJ          0.805255        -1.91055        0.219079
LJ           1.75298        -2.55884        0.110621
LJ          -2.37493       -0.761501       -0.762242
LJ          -1.86054        0.207171       -0.924695
LJ          -2.34228      0.00629044      -0.0340025
LJ          -1.51885       -0.670869      -0.0721762
LJ         -0.682683       -0.766494       -0.738289
LJ         -0.023033      -0.0437393       -0.942862
LJ         -0.667172       -0.131435      0.00835735
LJ         0.0497295        -1.00529        0.195402
LJ          0.998557        -1.03321       -0.746128
LJ           1.91685       -0.263544       -0.667441
LJ          0.784981       0.0971014       0.0607183
LJ           1.87335        -1.05087        0.081881
LJ           2.37203        0.782779       -0.762671
LJ          -1.83102         1.73561       -0.653573
LJ           2.48532         1.73945      -0.0369982
LJ          -1.73169         0.96086        0.187909
LJ         -0.987182        0.790541       -0.984551
LJ       -0.00276135          1.7437       -0.800526
LJ         -0.719893         1.65941       -0.145139
LJ          0.064632        0.873821       -0.111169
LJ          0.848475         1.06746       -0.960782
LJ           1.65192         1.69016       -0.786316
LJ          0.864929         1.79557       -0.102568
LJ           1.67147        0.818512        0.103909
LJ           2.50359         2.46432        0.719534
LJ           -1.4258        -1.81646        0.826469
LJ           2.52445        -1.51746         1.60586
LJ           -1.8369        -2.38511         1.65143
LJ         -0.906796         2.47092        0.994815
LJ        -0.0504099        -1.54235         1.07275
LJ         -0.856676        -1.65541         1.78857
LJ        -0.0149788         -2.3015         1.77557
LJ          0.733939         2.38024        0.887036
LJ           1.67332        -1.62253        0.940579
LJ          0.778349        -1.61047         1.63408
LJ           1.69445        -2.51287         1.59285
LJ          -2.41811       -0.853855        0.796471
LJ          -1.70586        0.170679         0.83379
LJ           2.38265       0.0546037         1.66439
LJ          -1.65877       -0.864277         1.58036
LJ         -0.874888       -0.870688        0.995915
LJ          0.125892       -0.109775        0.844862
LJ          -0.92242      -0.0294602         1.73489
LJ         0.0635106       -0.738783         1.76931
LJ           1.01858       -0.910151        0.533309
LJ           1.74984       -0.254657        0.848982
LJ          0.851874       0.0069242          1.7197
LJ           1.52955       -0.686691         1.75616
LJ           2.31265        0.925765         1.08953
LJ          -1.82474         1.68446        0.925939
LJ           2.44175         1.87375         1.57948
LJ          -1.73669         0.84015         1.70128
LJ         -0.954129        0.943787        0.866411
LJ           0.37998         1.38063        0.778496
LJ         -0.645062         1.50835         1.70867
LJ         0.0783079        0.774247         1.64096
LJ           1.02839        0.696957        0.991256
LJ           1.60575         1.78436        0.713347
LJ          0.916095         1.80406         1.66457
LJ           1.82731         1.03972         1.96853
