108
#Comment!
LJ           2.30814        -2.51978         2.55869
LJ          -1.58625        -1.84661         2.45187
LJ          -2.49881        -1.73606         -1.7368
LJ          -1.86049         2.49739        -1.75831
LJ         -0.908164         2.50019         2.49581
LJ         -0.136441        -1.88907        -2.46713
LJ         -0.852388        -1.58469        -1.63492
LJ         0.0219531         2.46037        -1.73967
LJ          0.896462         2.47944        -2.40305
LJ           1.64702        -1.73007        -2.48011
LJ          0.787534        -1.49759        -1.53452
LJ           1.90185        -2.49439         -1.6724
LJ             2.416       -0.901497         2.55867
LJ          -1.64209      -0.0168538         2.55852
LJ          -2.40652        0.168231        -1.80466
LJ          -1.81964       -0.933597        -1.58041
LJ          -1.12588       -0.928751         2.49153
LJ        -0.0438277       -0.072905         2.49457
LJ         -0.736503        0.125735         -1.7443
LJ          0.077192       -0.801841        -1.80331
LJ           1.02142        -0.91951        -2.51908
LJ           1.78141        0.129022         2.56135
LJ          0.698976        0.168454        -1.66571
LJ           1.61598       -0.857643        -1.71715
LJ          -2.52761        0.870971         2.47872
LJ          -1.82081         1.88597         2.41245
LJ          -2.52752         1.62624        -1.80519
LJ          -1.71388        0.900993        -1.75074
LJ         -0.607833         1.01968         2.29937
LJ          0.177929         1.68775         2.42396
LJ         -0.815623         1.66391        -1.71453
LJ         -0.102274        0.937983        -1.71045
LJ          0.749452        0.760452         -2.4484
LJ           1.71094         1.78643        -2.51116
LJ           0.94096         1.70518        -1.55079
LJ           1.75106        0.844398        -1.69307
LJ          -2.50318        -2.54389       -0.764293
LJ          -1.54462        -1.76038       -0.702005
LJ           2.51435        -1.74992     -0.00168556
LJ          -1.74037         2.47251       -0.068001
LJ         -0.795783         2.47188       -0.793447
LJ        -0.0565503        -1.68292       -0.883453
LJ         -0.812223        -1.79014        0.073786
LJ         -0.189898         2.39168        0.051928
LJ          0.929677         2.48075       -0.866368
LJ           1.62212        -1.73595       -0.892841
LJ          0.766396        -1.81665        0.163729
LJ           1.65061        -2.44361      -0.0625651
LJ          -2.49024        -0.95569       -0.777909
LJ          -1.92633        0.118434        -0.79218
LJ            2.5362       0.0639336      -0.0369497
LJ          -1.74595       -0.719131      -0.0995688
LJ         -0.825753       -0.732981       -0.774477
LJ         -0.059068        0.138528       -0.715989
LJ         -0.875193      -0.0131935       0.0648766
LJ        -0.0945618       -0.705739        -0.12424
LJ          0.878972       -0.751834       -0.871853
LJ           1.81358       -0.156014       -0.843043
LJ          0.949855       0.0193316       -0.111657
LJ           1.72074        -0.98747      -0.0910975
LJ          -2.53401         1.02186       -0.692372
LJ           -1.6755          1.7301       -0.971807
LJ           2.49381         1.72316        0.216651
LJ          -1.82333        0.917084       0.0786132
LJ         -0.815692        0.758553        -0.86377
LJ        -0.0118547         1.67947       -0.885565
LJ          -0.90707         1.64564        -0.13006
LJ        -0.0428393         1.03965      -0.0530897
LJ          0.680826        0.925227       -0.833033
LJ           1.86991         1.81976       -0.931823
LJ          0.744621          1.8478      -0.0884023
LJ           1.71331        0.895236      -0.0276927
LJ           2.45508          2.5374         1.00222
LJ          -1.55752         -1.8611        0.936632
LJ            2.4888        -1.67781         1.65724
LJ          -1.79553        -2.56022         1.66191
LJ         -0.831891          2.4972        0.797034
LJ        -0.0123866        -1.71713        0.804665
LJ         -0.873307        -1.65189         1.67937
LJ          0.196798        -2.45113         1.80013
LJ           1.10406        -2.51632        0.963758
LJ           1.87448        -1.72414        0.773464
LJ          0.913589        -1.58557          1.5745
LJ           1.61645        -2.53867         1.79956
LJ           2.47083       -0.687251        0.856432
LJ           -1.9084       0.0204555        0.923475
LJ          -2.52577      -0.0111492         1.92566
LJ          -1.82334       -0.822011         1.68107
LJ         -0.681418       -0.805635        0.724272
LJ           0.07217       -0.073536        0.797239
LJ          -0.74383        0.105453          1.7381
LJ        -0.0020151       -0.954183         1.69951
LJ          0.809219       -0.953837        0.828149
LJ           1.56926      -0.0184293        0.722371
LJ          0.763957       -0.105455         1.84256
LJ           1.74715       -0.856516         1.67653
LJ           2.41695        0.758187        0.761414
LJ          -1.73769         1.73056        0.760053
LJ           2.51155         1.71698         1.70498
LJ          -1.75819        0.766921         1.58672
LJ         -0.877933        0.704772         0.78872
LJ         0.0772949         1.67304        0.829048
LJ         -0.840202         1.69304         1.49841
LJ         0.0557672        0.869482         1.51389
LJ          0.891547        0.864868         1.03308
LJ           1.70477         1.74806        0.833198
LJ          0.975068         1.69927         1.75065
LJ           1.69942         1.04277         1.73968
