108
#Comment!
LJ           2.55911         2.53984        -2.56467
LJ          -1.73332        -1.79578         2.55359
LJ           2.54417        -1.80604        -1.78619
LJ          -1.79289         2.52279        -1.68253
LJ         -0.954736         2.46181         2.51902
LJ        -0.0730008        -1.74782        -2.52351
LJ         -0.762592        -1.63146        -1.70179
LJ        -0.0270471        -2.50376        -1.55753
LJ          0.916459        -2.55956         2.49495
LJ            1.7136        -1.84182        -2.49017
LJ          0.877623        -1.62605        -1.61921
LJ           1.78108         2.54969        -1.67949
LJ           2.45031       -0.870404         2.50868
LJ          -1.61791       0.0562683         2.46966
LJ           2.49955       0.0212471        -1.71923
LJ          -1.62853       -0.899821        -1.66221
LJ         -0.906782       -0.850452         2.56478
LJ          0.118873       -0.073758        -2.52711
LJ         -0.823193        0.151581        -1.62033
LJ        -0.0691895       -0.944887        -1.69907
LJ          0.815443         -0.9968        -2.51473
LJ           1.76276       0.0742108          2.5379
LJ          0.769842       0.0508641        -1.73059
LJ           1.67366       -0.891953        -1.61786
LJ           2.54193        0.835104         2.50869
LJ          -1.77985         1.72869        -2.55636
LJ          -2.45611         1.58301        -1.75407
LJ          -1.76193        0.828064        -1.73745
LJ         -0.778298        0.922984           2.382
LJ         0.0785255         1.65303         2.43692
LJ         -0.804171         1.69034        -1.70507
LJ        0.00948109        0.822939        -1.81133
LJ           0.85064        0.944611        -2.54529
LJ            1.6997         1.75623        -2.53321
LJ             1.002         1.71511        -1.76601
LJ           1.61575        0.752038        -1.63333
LJ          -2.51791        -2.56306       -0.865125
LJ          -1.60795        -1.70768        -0.82134
LJ          -2.55593        -1.77069     -0.00798472
LJ          -1.66854         2.53485      -0.0467261
LJ         -0.799209         2.51777         -0.7961
LJ        -0.0340723        -1.60199       -0.862375
LJ         -0.866452        -1.69352       0.0107877
LJ         -0.136639         2.45307      -0.0629682
LJ          0.914951          2.5464       -0.728222
LJ            1.6361        -1.70095       -0.825947
LJ          0.768828        -1.85791        0.101459
LJ           1.65891        -2.46938      0.00255322
LJ          -2.56074       -0.886576       -0.754434
LJ          -1.81232        0.135812       -0.993222
LJ           2.52248       0.0336775      -0.0559543
LJ           -1.7558       -0.916661    -0.000576541
LJ         -0.790095       -0.786759       -0.814898
LJ         0.0458515       -0.189721       -0.908172
LJ         -0.949433      -0.0756886       0.0371859
LJ         0.0106254       -0.718928       0.0998007
LJ          0.932085       -0.824568        -0.87709
LJ           1.69109      0.00173476       -0.882611
LJ          0.873382    -0.000263323       -0.108213
LJ           1.64113       -0.903919       -0.117763
LJ          -2.52707        0.927983       -0.855953
LJ          -1.74049         1.67865       -0.923433
LJ            2.5173         1.66457       0.0071779
LJ          -1.68427        0.949187        0.149033
LJ         -0.773934        0.832991       -0.672638
LJ         -0.151794         1.69915       -0.957202
LJ         -0.955067          1.7274      -0.0872857
LJ        -0.0259876        0.871519        0.176619
LJ          0.794998        0.954343       -0.856936
LJ           1.78209         1.77313       -0.775239
LJ          0.742443         1.72295      -0.0953642
LJ           1.68658        0.782345       0.0405884
LJ          -2.52484        -2.51984        0.811072
LJ          -1.65452         -1.7404         0.94433
LJ           2.47116        -1.67974         1.72431
LJ          -1.81619         2.55512         1.67063
LJ          -0.91643         2.52354        0.754058
LJ         0.0232145        -1.74643        0.876984
LJ         -0.864681        -1.73185         1.84969
LJ           0.06941        -2.51907         1.75446
LJ          0.908955         2.41533        0.887916
LJ           1.73466        -1.88372        0.873117
LJ          0.948434        -1.79192         1.55801
LJ           1.77308        -2.54879         1.74572
LJ           2.52236       -0.767607        0.888017
LJ          -1.73586       0.0255215        0.877602
LJ          -2.53324      -0.0988063         1.85335
LJ          -1.71979       -0.860242         1.85017
LJ         -0.884514        -0.79976        0.791455
LJ          0.174032      -0.0460694        0.884157
LJ         -0.731626       0.0191387         1.69258
LJ         0.0329244       -0.917487         1.67466
LJ           0.80353        -0.87979        0.847462
LJ           1.64992       -0.115557        0.870616
LJ          0.841901      -0.0460634         1.69999
LJ           1.80557       -0.791545         1.63887
LJ           2.51118        0.823152         0.81227
LJ           -1.6691         1.64886        0.839442
LJ          -2.51289         1.64599         1.81135
LJ          -1.60201         0.80722         1.75283
LJ         -0.853378        0.797854        0.844478
LJ         0.0335807         1.58083        0.876822
LJ         -0.814364         1.73599         1.65805
LJ        -0.0279926        0.749414         1.60912
LJ          0.862077        0.757164        0.676558
LJ           1.60373         1.63418         0.78663
LJ          0.883467          1.5618          1.7312
LJ            1.7018        0.971716         1.63275
