108
#Comment!
LJ          -2.55319        -2.50954         2.45514
LJ          -1.73104        -1.64693         2.49411
LJ          -2.41017        -1.56634        -1.80769
LJ           -1.7109         2.54422        -1.59431
LJ         -0.821654         2.54823        -2.47599
LJ        -0.0348748        -1.95954        -2.47743
LJ          -1.13447         -1.5009        -1.81357
LJ        -0.0709634         2.21046        -1.83482
LJ           0.82815         2.56491         2.39557
LJ           1.77786        -1.71092        -2.53179
LJ          0.681681        -1.86773        -1.74924
LJ           1.98239         2.45291        -1.70637
LJ           2.45515       -0.828169         2.54374
LJ          -1.76113       0.0415758        -2.56084
LJ           2.46181        0.134128        -1.87053
LJ          -1.71003       -0.569968        -1.57528
LJ          -1.08844         -0.7648        -2.46437
LJ         -0.131907       -0.212004        -2.51077
LJ          -0.84842       0.0456441        -1.85548
LJ        -0.0981244        -1.15435         -1.9019
LJ          0.894635        -1.11847        -2.53725
LJ           1.67327       -0.066359         2.47186
LJ          0.949703       0.0511242        -1.84023
LJ           1.69154       -0.655101        -1.76758
LJ           2.53453        0.896345         2.54533
LJ          -1.72263         1.90728         2.48801
LJ          -2.34654         1.63156        -1.62079
LJ          -1.61738        0.759576        -1.86064
LJ         -0.586627        0.944952         2.49387
LJ          0.134811         1.77959         2.32989
LJ          -1.03274         1.71672        -1.73012
LJ          0.133957         1.13385          -1.799
LJ          0.837798        0.907942         2.46177
LJ            1.8135         1.84105         2.40267
LJ          0.954412         1.96952        -1.90229
LJ            1.5847         1.01252        -1.67253
LJ           2.45312         2.46068       -0.692803
LJ          -1.40461        -1.74232       -0.800132
LJ          -2.34877        -1.90191       -0.146293
LJ          -1.75784          2.4008       -0.069332
LJ         -0.803809        -2.53719        -1.07996
LJ          0.159046        -1.67475       -0.832525
LJ         -0.656212        -1.95011       -0.179618
LJ         -0.140345         2.29471     6.96726e-05
LJ          0.788646        -2.49795       -0.958561
LJ           1.88589        -1.81421        -1.05445
LJ          0.710501        -1.91249        0.223354
LJ           1.69086        -2.49966      -0.0692394
LJ          -2.52275       -0.878116       -0.808982
LJ          -1.95498        0.106394       -0.810612
LJ           -2.5017        0.127489      -0.0127537
LJ           -1.7974       -0.843084        0.115751
LJ         -0.631465       -0.818731       -0.670772
LJ        -0.0862685        0.226724       -0.999307
LJ          -0.66862       0.0825056       0.0185595
LJ        -0.0410611       -0.764591        0.201357
LJ          0.899137       -0.931071       -0.664485
LJ            1.8693       -0.047179       -0.642659
LJ           0.66777       0.0710642       0.0723176
LJ           1.80397        -1.26311       -0.153713
LJ          -2.55891           1.018       -0.752896
LJ          -1.55866         1.74966       -0.796133
LJ           2.51238         1.65499      -0.0737689
LJ          -1.86358         1.11759        0.313417
LJ          -1.06702        0.779907       -0.825213
LJ          0.118327         1.66535       -0.980962
LJ         -0.785073         1.54333      -0.0955858
LJ           0.12911        0.941202       -0.190623
LJ          0.960235        0.965556       -0.789974
LJ           1.69177         1.76367        -0.84615
LJ          0.759808         1.92332      -0.0249461
LJ           1.63985         0.83618      -0.0978497
LJ           2.43844         2.31358         0.73439
LJ          -1.39603        -1.74067        0.705828
LJ           2.52454        -1.57354         1.79098
LJ          -2.08486        -2.41042         1.36133
LJ         -0.796538         2.47241         1.07611
LJ          0.101523        -1.49406        0.972473
LJ         -0.963292         -1.8404         1.82439
LJ         0.0834735        -2.36042          1.6987
LJ          0.836495         2.28448         1.02006
LJ           1.94882        -1.59523        0.873793
LJ          0.997184        -1.84083         1.71841
LJ            1.7248        -2.47615         1.59861
LJ           2.49037       -0.648663        0.860197
LJ          -1.70317       0.0668433        0.787899
LJ            2.4751       0.0811958         1.69695
LJ          -1.67364       -0.737446         1.81282
LJ         -0.770859         -1.0611        0.999847
LJ         0.0455293      -0.0669963         1.09825
LJ            -0.911        0.146724         1.98998
LJ          0.135748       -0.945696         1.84966
LJ           1.08174         -1.0665        0.757134
LJ           1.60173      -0.0865822        0.616939
LJ          0.796311      -0.0485891         2.00255
LJ           1.56247       -0.785573         1.79685
LJ           2.26408        0.874432        0.779148
LJ          -1.63559         1.86203        0.932351
LJ           2.43157          1.5396         1.49415
LJ          -1.82288        0.994811         1.57877
LJ          -0.84755        0.703994        0.854376
LJ          0.191837         1.47647        0.780152
LJ          -0.87569         1.46855         1.59182
LJ          0.181709        0.866293         1.62568
LJ           1.10756        0.755208          1.0068
LJ           1.54298         1.64136        0.615341
LJ          0.883466         1.56424         1.63847
LJ           1.68084        0.908783         1.85444
