108
#Comment!
LJ           2.55479        -2.49155         2.55809
LJ          -1.76343        -1.69694         2.40193
LJ            2.5625        -1.76396        -1.76945
LJ          -1.79448         2.53712        -1.59573
LJ         -0.848875         2.48518        -2.48962
LJ        0.00663738        -2.03157        -2.53212
LJ          -1.20408        -1.49167        -1.73322
LJ         0.0158776         2.20797        -1.80102
LJ          0.873078         2.55482         2.48026
LJ           1.77696        -1.71995        -2.48873
LJ          0.826181        -1.88861        -1.77778
LJ           1.84991         2.52945        -1.73807
LJ            2.5262       -0.936399         2.54208
LJ          -1.83153       0.0223733         2.53791
LJ           2.48313        0.137869        -1.97321
LJ          -1.80623       -0.546328        -1.64863
LJ          -1.19949       -0.744513        -2.42818
LJ        0.00435948       -0.243792        -2.47366
LJ         -0.739666       0.0243031        -1.81823
LJ         -0.133954        -1.16715        -1.87492
LJ          0.876224        -1.22367        -2.49494
LJ           1.73221       0.0157694         2.49409
LJ          0.906135       0.0727897        -1.77304
LJ            1.6795       -0.639263        -1.73782
LJ           -2.5315         0.94828         2.42021
LJ          -1.70292         1.93168         2.44364
LJ          -2.40085         1.64913        -1.62411
LJ          -1.62067        0.769594        -1.81365
LJ         -0.615393        0.995849         2.47247
LJ          0.172861         1.72245         2.46799
LJ           -1.0199         1.63962        -1.78636
LJ         0.0605516         1.04692         -1.8046
LJ          0.930428        0.832255         2.45559
LJ           1.81257         1.86872         2.50786
LJ          0.884731         1.85505        -1.61841
LJ           1.58668        0.988774        -1.69139
LJ           2.46991         2.35651       -0.754189
LJ          -1.44014        -1.69475       -0.756441
LJ          -2.48625        -1.92834      -0.0751808
LJ          -1.63052         2.48499     -0.00129367
LJ         -0.818866        -2.55666        -1.01917
LJ          0.155629        -1.68278       -0.939499
LJ         -0.639892        -1.85669       0.0101156
LJ         -0.207002         2.37869       0.0949447
LJ          0.827771        -2.43233       -0.944643
LJ           1.84706        -1.76775       -0.943697
LJ          0.771225        -2.00498        0.198885
LJ           1.68214        -2.41256      -0.0472423
LJ          -2.53936       -0.940824       -0.708033
LJ          -1.85569        0.168643       -0.803954
LJ          -2.49359       0.0974572       0.0347591
LJ          -1.78201       -0.924972        0.051311
LJ         -0.577219       -0.855175       -0.725566
LJ         -0.100937        0.350493       -0.941884
LJ         -0.667817      -0.0334019     -0.00406952
LJ         0.0682736       -0.809993        0.316449
LJ          0.770045       -0.977468       -0.604036
LJ           2.00539       -0.151292       -0.719818
LJ          0.722768       0.0200968      -0.0433191
LJ           1.70436        -1.13492       -0.129402
LJ           2.51909        0.990517       -0.882256
LJ          -1.53457         1.85736       -0.776112
LJ           2.41519         1.72002      -0.0327136
LJ          -1.90801         1.14538        0.185003
LJ          -1.05058        0.786376        -0.91846
LJ          0.173217         1.82835       -0.848571
LJ         -0.729703         1.57849       -0.119318
LJ         0.0958201        0.893293      -0.0707441
LJ          0.760009         1.01269       -0.793903
LJ           1.67071         1.71355       -0.872691
LJ          0.735803         2.05248      -0.0299861
LJ           1.76757        0.836585       -0.162244
LJ           2.37204         2.25694        0.785767
LJ          -1.38848        -1.86039        0.657384
LJ           2.50336        -1.55506         1.70803
LJ          -2.01276        -2.37584         1.47939
LJ          -0.58254         2.47139         1.13757
LJ         0.0854698        -1.57906        0.955672
LJ         -0.914766        -1.88214         1.78764
LJ         0.0793451        -2.30322           1.724
LJ          0.828322          2.3476        0.948932
LJ           1.98943        -1.62827        0.728514
LJ           0.97335        -1.77344         1.73695
LJ           1.62972         2.53776         1.63944
LJ           2.47374       -0.691868        0.930981
LJ          -1.78767       0.0675538        0.833947
LJ           2.51385     -0.00923768         1.75346
LJ          -1.88795       -0.737802         1.74396
LJ         -0.740363       -0.898676         1.01343
LJ         0.0190831       -0.164218         1.04927
LJ         -0.913062        0.205108         1.94641
LJ          0.216409        -1.00882         1.85006
LJ           1.10247        -1.00863        0.668524
LJ            1.5751       -0.128967        0.780546
LJ          0.848532      -0.0519187         1.92196
LJ           1.56566       -0.839508         1.86209
LJ           2.34462         0.87473        0.830731
LJ          -1.44872          1.9165        0.843993
LJ           2.42942         1.59311         1.57258
LJ          -1.82872        0.982804         1.61026
LJ         -0.894755        0.664008        0.937115
LJ          0.197637         1.49074        0.733176
LJ         -0.794522         1.60396         1.62286
LJ         0.0233659        0.792477         1.55691
LJ           1.07427        0.766433        0.934605
LJ           1.56758         1.67696        0.581257
LJ          0.851196         1.53283         1.64556
LJ           1.68249        0.788728         1.76072
