108
#Comment!
LJ          -2.52163        -2.27723          2.3674
LJ          -1.64618        -1.61895         2.51643
LJ          -2.25299        -1.56102        -1.68738
LJ          -1.71805        -2.50047        -1.67651
LJ         -0.711058         2.36046         2.47688
LJ         -0.013719         -1.8652        -2.53185
LJ          -1.16661        -1.57674        -1.72797
LJ        -0.0961904         2.28051        -1.86459
LJ          0.864429        -2.53594        -2.56354
LJ           1.71872        -1.66409          2.4886
LJ          0.837323        -1.89827        -1.65294
LJ           1.95373          2.4419        -1.84088
LJ            2.5266       -0.888154         2.32598
LJ          -1.78241       0.0914736        -2.55293
LJ           2.43479       0.0767482        -1.78251
LJ          -1.83519       -0.558035        -1.67462
LJ          -1.12524       -0.755592        -2.41363
LJ       -0.00815803       -0.216193        -2.40965
LJ          -1.00601      0.00454579        -1.71633
LJ        -0.0151579        -1.04169        -1.75487
LJ          0.904746       -0.997237        -2.53136
LJ           1.59571      -0.0190373         2.55176
LJ           0.93735        0.145742        -1.72919
LJ           1.64139       -0.710141        -1.67163
LJ          -2.45772        0.946457        -2.52975
LJ          -1.70681         1.95924         2.36089
LJ          -2.55669         1.63863        -1.61346
LJ          -1.73375        0.835548        -1.81442
LJ         -0.525968        0.919907        -2.53475
LJ          0.182657         1.60985         2.41576
LJ          -1.18762         1.61888        -1.80265
LJ          0.141446         1.15981        -1.83919
LJ          0.924064         0.88083        -2.56408
LJ           1.75957         1.72878         2.49559
LJ           1.00062         1.81449        -1.90921
LJ            1.7009         1.10952        -1.61645
LJ           2.52181         2.39746       -0.704745
LJ          -1.47912        -1.77786       -0.827906
LJ          -2.29311        -1.78669      -0.0764236
LJ          -1.74139         2.46889       0.0976506
LJ         -0.648939        -2.46897        -1.04543
LJ         0.0577993        -1.56151       -0.840463
LJ         -0.811541        -2.07143      -0.0608737
LJ         -0.159177          2.3086       0.0662944
LJ          0.874353        -2.52122       -0.831592
LJ           2.03198        -1.70837       -0.947342
LJ          0.803166        -1.83001        0.336938
LJ           1.72489          2.4925      -0.0362087
LJ          -2.36487       -0.951543        -0.74495
LJ          -1.90477      0.00407958       -0.787772
LJ          -2.45716        0.097038        0.100637
LJ          -1.61285       -0.623576       0.0588778
LJ          -0.74168       -0.837373       -0.785417
LJ          -0.11604       0.0781662        -1.03434
LJ         -0.752365       0.0219934      -0.0975268
LJ         0.0105347       -0.641734        0.024272
LJ           1.04189        -1.25389       -0.817024
LJ           1.92235       -0.125231       -0.563616
LJ          0.867868       0.0415261        0.156467
LJ           1.99913        -1.07915    -1.32084e-05
LJ           2.48754        0.950242       -0.835027
LJ           -1.6341         1.75905       -0.849176
LJ           2.35156         1.66187      -0.0668104
LJ          -1.83963         1.00546        0.238615
LJ          -1.04567        0.671186       -0.805084
LJ          0.072118         1.66123       -0.943534
LJ         -0.827131         1.53193       -0.295641
LJ        -0.0815317        0.890055       -0.228489
LJ           1.13812        0.824308        -0.77138
LJ           1.61948         1.72546       -0.726732
LJ          0.729324         1.87045       -0.202757
LJ           1.71904         0.82643      -0.0806355
LJ           2.38408         2.43059        0.744164
LJ          -1.29728        -1.84525         0.75538
LJ           2.52378        -1.43691         1.52485
LJ          -1.91969        -2.36379         1.47322
LJ         -0.785648         2.47898        0.881887
LJ         0.0280072        -1.49455        0.954344
LJ         -0.867834        -1.81772         1.87526
LJ          0.090548        -2.37752         1.75102
LJ          0.706378         2.43763         1.04642
LJ           1.71264         -1.6407        0.921279
LJ          0.929609        -1.71695         1.63519
LJ           1.74573        -2.54456         1.60742
LJ          -2.49295       -0.724506          0.7215
LJ          -1.48717      -0.0132549        0.834039
LJ           2.41874      -0.0142979          1.7097
LJ          -1.79028       -0.712113         1.65322
LJ         -0.894933       -0.990672         1.07299
LJ          0.209403       -0.239522        0.962573
LJ         -0.992993        0.136232         1.85428
LJ           0.24316       -0.899712         1.75875
LJ          0.937233       -0.868979        0.727024
LJ           1.79592       -0.161007        0.690099
LJ          0.645466       0.0458599         2.01151
LJ           1.54829       -0.838789         1.68388
LJ           2.22808        0.850249        0.853626
LJ          -1.64845         1.87608          1.0086
LJ           2.41141         1.73872         1.55963
LJ           -1.8478        0.814595         1.43136
LJ         -0.766135        0.801096        0.594311
LJ          0.315275         1.52529        0.819302
LJ          -1.02368         1.47601         1.59962
LJ         0.0345834        0.890675         1.55771
LJ           1.15178        0.709909         1.00859
LJ           1.47466         1.71624        0.650461
LJ          0.997096         1.53682         1.67626
LJ           1.75089        0.934115         1.91873
