108
#Comment!
LJ          -2.55427        -2.45734         2.50298
LJ          -1.70032        -1.68529         2.39781
LJ          -2.49975        -1.68805        -1.62589
LJ          -1.69636        -2.40306        -1.76415
LJ         -0.842082         2.46019         2.47073
LJ          0.030527        -2.02871        -2.47972
LJ          -1.06492        -1.49379        -1.60024
LJ         0.0596919         2.22899        -1.65412
LJ          0.989728         2.37876        -2.48583
LJ           1.86238        -1.68052         2.54203
LJ           1.06035        -1.81512        -1.67491
LJ           1.92989         2.54011         -1.5619
LJ           2.42093       -0.834787         2.51836
LJ            -1.741       0.0384082         2.52985
LJ          -2.53263        0.159608        -1.87219
LJ          -1.68052       -0.455728         -1.4803
LJ          -1.14964       -0.882882        -2.45277
LJ       -0.00458502       -0.195304        -2.39421
LJ         -0.794011       0.0293849        -1.70972
LJ        -0.0952926       -0.987476        -1.84642
LJ          0.944313        -1.09982        -2.46229
LJ           1.71576       0.0771476        -2.54398
LJ          0.748045      0.00903367        -1.68192
LJ           1.65265       -0.800338        -1.74154
LJ           -2.4046         1.09166         2.42052
LJ          -1.78152         1.84942         2.49542
LJ          -2.48876         1.68743        -1.65259
LJ          -1.51187        0.868868        -1.65635
LJ         -0.672868           1.104        -2.50995
LJ          0.105223         1.80613         2.55988
LJ         -0.846969         1.73562        -1.71132
LJ          0.033217        0.999689        -1.73924
LJ           1.01771        0.821553        -2.41292
LJ           1.85549         1.88559         2.53859
LJ          0.960448         1.70913        -1.62127
LJ           1.83402        0.866293        -1.76444
LJ           2.50336         2.35388       -0.610446
LJ          -1.57764         -1.8765       -0.725781
LJ          -2.42208        -1.81171       -0.141424
LJ          -1.72621         2.42711      -0.0980583
LJ         -0.694411        -2.49348       -0.986706
LJ          0.100873        -1.75099       -0.906602
LJ         -0.519557        -1.71991      -0.0238533
LJ          -0.27578         2.35509        0.216547
LJ           0.76497        -2.52825       -0.975218
LJ           1.77632        -1.62753       -0.952708
LJ          0.623149        -2.03786       0.0979864
LJ           1.67433         -2.2754      -0.0504527
LJ          -2.37226       -0.869578       -0.731061
LJ          -1.82855       0.0235812       -0.587875
LJ           2.44088       0.0672907        0.044287
LJ          -1.63465       -0.876389        0.049748
LJ         -0.602545       -0.825273        -0.78328
LJ        0.00226065        0.246109       -0.869656
LJ         -0.941031       -0.102864      -0.0302305
LJ          0.109637       -0.824518        0.212111
LJ          0.899912       -0.978139       -0.770599
LJ           1.91328       -0.136097        -0.83482
LJ          0.818886       0.0229482      0.00132676
LJ           1.69661       -0.916736       -0.146521
LJ          -2.37698        0.921787       -0.953502
LJ           -1.6144          1.7548       -0.872573
LJ           2.50875         1.63893        0.131208
LJ          -1.94578        0.975968       -0.045398
LJ          -0.98172        0.748059       -0.803705
LJ        -0.0413665         1.63813       -0.810938
LJ         -0.828477         1.48911      -0.0749005
LJ        -0.0608651        0.857619       0.0696285
LJ          0.826389        0.925863       -0.615403
LJ            1.6813          1.6481       -0.933354
LJ          0.829251         1.99715      -0.0152811
LJ           1.71747        0.777645       -0.169183
LJ           2.38076         2.53473        0.844863
LJ          -1.44642        -1.69764        0.662825
LJ           2.47681         -1.5041         1.71425
LJ          -1.96406         2.49215         1.62015
LJ          -0.74808        -2.49876         1.19948
LJ          0.131795        -1.58773        0.883441
LJ         -0.875716         -1.6631         1.69141
LJ         0.0982746         -2.3409         1.74441
LJ          0.962624         2.42338        0.863943
LJ           2.02259        -1.54155        0.708513
LJ          0.969461        -1.73493          1.6478
LJ            1.6699        -2.52551         1.61216
LJ           2.54039         -0.6364        0.957995
LJ          -1.70532      -0.0729317        0.907999
LJ           2.51029       0.0706667         1.92046
LJ          -1.71486       -0.984881          1.5784
LJ         -0.712867       -0.939645        0.961268
LJ         0.0776379       0.0178756         1.08815
LJ         -0.878483        0.128238          2.0674
LJ         0.0896392       -0.923461         1.83865
LJ           1.03637       -0.992996        0.740789
LJ           1.65268       -0.123664        0.707836
LJ          0.760545      -0.0336717         1.83304
LJ           1.62041       -0.836784         1.71487
LJ           2.47919        0.760115        0.973745
LJ          -1.45761         1.86013        0.787985
LJ           2.44795         1.66943         1.56192
LJ          -1.65522        0.984816         1.58714
LJ         -0.991249        0.627957        0.825677
LJ           0.24376         1.49697         0.79672
LJ         -0.784874           1.604         1.62245
LJ        -0.0678751        0.859443         1.56851
LJ          0.891652        0.685027        0.835349
LJ           1.69533          1.7704        0.735016
LJ           0.88057         1.56892         1.79529
LJ           1.79796        0.830215         1.74233
