108
#Comment!
LJ           2.53901         2.56415         2.54587
LJ          -1.69774        -1.80567         2.54925
LJ          -2.53944        -1.76022        -1.76135
LJ          -1.81133         -2.5602          -1.698
LJ         -0.901155         2.44072         2.50209
LJ         -0.206403        -1.80623        -2.52567
LJ         -0.833108         -1.6271        -1.53577
LJ        -0.0146574        -2.50662        -1.53015
LJ          0.921101         2.48683          2.4449
LJ           1.69938        -1.74677        -2.51077
LJ            0.9131        -1.53742        -1.56834
LJ           1.85003        -2.47201        -1.74512
LJ           2.39008       -0.883286         2.47959
LJ          -1.63446       0.0091965         2.47719
LJ           2.49604      0.00742516        -1.72065
LJ          -1.68388        -0.93219        -1.66983
LJ         -0.980168       -0.954904         2.53633
LJ         0.0775116       -0.128258          2.5376
LJ         -0.891157       0.0998223        -1.72704
LJ        -0.0163854       -0.867376        -1.67524
LJ          0.778588        -1.04874        -2.54541
LJ           1.83039        0.137051        -2.55282
LJ          0.770578        0.102663        -1.66928
LJ           1.69677       -0.894831        -1.60974
LJ           2.55636        0.877458          2.5604
LJ          -1.77539         1.69335         2.53724
LJ          -2.47673         1.57505        -1.74617
LJ          -1.79029        0.846357        -1.63152
LJ         -0.821979        0.999212         2.39983
LJ          0.148843         1.63146         2.39697
LJ         -0.867237         1.76026        -1.64574
LJ        -0.0555345        0.846079         -1.8185
LJ          0.841406        0.905442        -2.45123
LJ            1.7983         1.76391         2.52953
LJ           1.09765         1.76482        -1.77271
LJ           1.66011         0.77561        -1.64274
LJ           -2.5176        -2.47286       -0.907045
LJ          -1.57903        -1.75042       -0.774059
LJ           2.53305        -1.77448      -0.0693541
LJ          -1.64201         2.46596       0.0175647
LJ         -0.752241          2.5505         -0.8739
LJ        -0.0296669        -1.64317        -0.90789
LJ         -0.885745        -1.68057       0.0754728
LJ        -0.0719512         2.49409      -0.0460556
LJ          0.888967         2.52606       -0.852069
LJ           1.67211        -1.80904       -0.756173
LJ          0.672395        -1.94496         0.15762
LJ           1.63373        -2.56393      -0.0384244
LJ          -2.50078         -0.7811       -0.798183
LJ          -1.86405        0.129226       -0.868017
LJ           2.45756        0.016474     0.000616356
LJ          -1.73376       -0.869396      0.00737887
LJ         -0.922015       -0.764547       -0.824401
LJ        -0.0704914       -0.132358       -0.867675
LJ         -0.880911      -0.0792871     -0.00238927
LJ        -0.0493671       -0.748486       0.0719616
LJ          0.870309       -0.796679       -0.817001
LJ           1.71078      -0.0742597       -0.915265
LJ          0.949833      -0.0123387       -0.129932
LJ           1.70895       -0.981515       -0.213661
LJ          -2.48571         0.89452       -0.819403
LJ          -1.80882         1.72916       -0.912967
LJ           2.55411         1.69221       0.0881737
LJ           -1.6666         0.86839         0.12046
LJ         -0.831065        0.736525       -0.610837
LJ         -0.127996         1.73962       -0.951927
LJ         -0.947544         1.77305       -0.131735
LJ        -0.0643166        0.929095       0.0589619
LJ          0.772215        0.955331       -0.808449
LJ           1.70722         1.83012       -0.852867
LJ          0.677142         1.65964       -0.181925
LJ           1.74533        0.769173       0.0530365
LJ           2.55112         2.52241        0.957498
LJ          -1.64374        -1.77801          1.0368
LJ           2.45384        -1.65222         1.76116
LJ          -1.79342        -2.52797          1.7027
LJ         -0.831178         2.37424         0.86708
LJ           0.11202        -1.78199         0.94137
LJ          -0.82314        -1.69408         1.81573
LJ         0.0364062        -2.51989         1.78753
LJ           1.03684         2.48046        0.888791
LJ           1.71611        -1.84054        0.790754
LJ            1.0231        -1.66861         1.57573
LJ           1.72423        -2.50892         1.70742
LJ           2.45105       -0.673819        0.978204
LJ          -1.74779     -0.00296314        0.762599
LJ          -2.51347      -0.0429068         1.86254
LJ          -1.71351       -0.925375          1.8556
LJ         -0.840684       -0.944681        0.818972
LJ         0.0858113      -0.0533527        0.870586
LJ         -0.743309      -0.0246994         1.63108
LJ         0.0235073       -0.909123         1.60481
LJ          0.821695       -0.897333        0.886688
LJ           1.66599       -0.132376        0.759141
LJ          0.813673       -0.113549         1.62472
LJ           1.76982       -0.810044         1.74933
LJ          -2.55372        0.945392        0.785485
LJ          -1.70367         1.71921        0.806113
LJ          -2.52006         1.70172         1.82535
LJ          -1.64228        0.753708         1.75296
LJ         -0.844386        0.718091        0.832115
LJ        -0.0331686         1.55074        0.891027
LJ         -0.820632         1.73228         1.70002
LJ         0.0215417        0.845684         1.53166
LJ          0.847221        0.756945        0.796335
LJ           1.72086         1.63822        0.791133
LJ          0.853108          1.6431         1.65705
LJ           1.68026        0.986112         1.65219
