108
#Comment!
LJ           2.33393         2.55316         2.48926
LJ          -1.67104        -1.86841         2.53527
LJ           -2.5129         -1.7042        -1.82813
LJ          -1.84221         2.50276        -1.75454
LJ         -0.943312           2.464         2.54467
LJ         -0.109059        -1.90948        -2.40293
LJ          -0.86882        -1.59466        -1.56488
LJ         0.0100465         2.48633        -1.74078
LJ          0.911172         2.52473        -2.45018
LJ           1.64129        -1.81399        -2.49909
LJ          0.818414        -1.51614        -1.53232
LJ           1.92317        -2.50967        -1.62686
LJ           2.43376       -0.885671         2.54221
LJ          -1.62891       0.0659038        -2.53367
LJ          -2.43983        0.130231        -1.78938
LJ          -1.83141       -0.906145        -1.64068
LJ          -1.23144       -0.886439         2.49764
LJ        -0.0416416      -0.0520656         2.54281
LJ         -0.759453        0.150779        -1.68948
LJ          0.123484       -0.789024         -1.7524
LJ          0.924891       -0.956905        -2.53365
LJ           1.75594        0.105962        -2.55271
LJ          0.751121        0.165363        -1.64484
LJ           1.61109       -0.797638        -1.77673
LJ          -2.49764        0.882864         2.50563
LJ          -1.78984         1.83472         2.45663
LJ          -2.51243         1.68069        -1.81035
LJ          -1.69945        0.975496        -1.73469
LJ         -0.633275        0.984692         2.30595
LJ          0.163782         1.72948         2.40095
LJ         -0.815421         1.69735        -1.71894
LJ         -0.104166        0.966687        -1.72802
LJ          0.783874        0.853164        -2.39761
LJ           1.79911         1.81478        -2.44785
LJ          0.968605         1.71237        -1.64736
LJ           1.71645        0.756089        -1.67216
LJ          -2.49445        -2.54163       -0.816835
LJ          -1.51158        -1.76461       -0.687619
LJ           2.46709        -1.81593      -0.0764368
LJ          -1.75379         2.49238      -0.0563899
LJ          -0.80911         2.49298       -0.837456
LJ        -0.0435882        -1.71178       -0.871358
LJ         -0.840926        -1.81128       0.0706432
LJ          -0.13792         2.33087         0.02544
LJ          0.926548          2.4597       -0.873694
LJ           1.58065        -1.72904       -0.862108
LJ          0.734276         -1.8001        0.148424
LJ           1.64147        -2.48004      -0.0468476
LJ          -2.41864       -0.965333       -0.795559
LJ          -1.90202        0.131356       -0.768652
LJ            2.4704        0.119901      -0.0403693
LJ          -1.71511       -0.794515      -0.0873566
LJ         -0.850392       -0.685307       -0.765912
LJ        -0.0136238       0.0287876       -0.738964
LJ         -0.883061       0.0194665      0.00272384
LJ        -0.0351896        -0.71909      -0.0531903
LJ          0.934704        -0.80803       -0.818663
LJ           1.81048      -0.0937584       -0.783641
LJ          0.962772      -0.0288729      -0.0709062
LJ           1.67906        -1.06285       -0.108639
LJ          -2.52064         1.06975       -0.750974
LJ          -1.66755         1.74809        -0.96802
LJ           2.50947         1.76628        0.168712
LJ          -1.85696        0.887376       0.0279935
LJ         -0.789884        0.736422       -0.879835
LJ        -0.0325729         1.73259       -0.923135
LJ         -0.933821          1.6321       -0.172082
LJ         -0.113967         1.06807      -0.0410995
LJ          0.690221        0.930004       -0.798764
LJ           1.81868         1.87638       -0.912972
LJ           0.68829         1.77521      -0.0710406
LJ           1.65404        0.854855     -0.00280858
LJ           2.51134         2.52677        0.910751
LJ          -1.52278        -1.74898        0.896122
LJ           2.44458        -1.67995         1.66044
LJ          -1.84536         2.55684         1.64396
LJ         -0.829987         2.54031        0.824353
LJ       2.41706e-05        -1.66959        0.818439
LJ         -0.828315        -1.68403         1.70659
LJ          0.175706        -2.46602         1.77936
LJ           1.11586         2.55748        0.946014
LJ           1.83831        -1.73811        0.841021
LJ          0.884428        -1.58721         1.61452
LJ           1.66851        -2.49632         1.81038
LJ           2.44169       -0.662614        0.842017
LJ          -1.85797       0.0094947        0.935615
LJ          -2.46749       -0.019954         1.96315
LJ          -1.86991         -0.8438          1.6972
LJ         -0.677363       -0.829927        0.748977
LJ          0.119309      -0.0561584        0.799067
LJ         -0.692272       0.0885281         1.69468
LJ        -0.0815911        -0.91451         1.71651
LJ           0.74874       -0.915749        0.837759
LJ           1.56895      -0.0171863        0.776307
LJ          0.789392        -0.10166         1.82906
LJ           1.72541       -0.813295         1.66587
LJ           2.40434        0.799012        0.818124
LJ          -1.74347         1.77782         0.77412
LJ          -2.55254         1.71353         1.73886
LJ          -1.74841        0.770219         1.64766
LJ         -0.912358        0.711782        0.799749
LJ         0.0627125         1.60894        0.906246
LJ         -0.920938         1.68236         1.57837
LJ       -0.00754086        0.884609          1.5391
LJ          0.947942        0.804018        0.967176
LJ           1.74571         1.73276        0.855531
LJ           0.96397         1.64532         1.69263
LJ           1.66157         1.03161         1.72755
