108
#Comment!
LJ          -2.35842        -2.35145         2.40075
LJ          -1.74353         -1.6241         2.52833
LJ          -2.25637         -1.5143        -1.75988
LJ          -1.59632        -2.48095        -1.80013
LJ         -0.738186         2.42337        -2.56063
LJ         -0.107831         -1.5357         2.45973
LJ          -1.02178        -1.55114        -1.81733
LJ         0.0771446         2.43189        -1.90881
LJ          0.876552        -2.50972         2.53464
LJ           1.76184        -1.61844         2.43474
LJ           1.03025        -1.79345        -1.64067
LJ           1.93609         2.40006        -1.66214
LJ           2.56271       -0.674297         2.54635
LJ          -1.86845      0.00466133         2.34096
LJ          -2.46959      -0.0290325        -1.82902
LJ          -1.65044       -0.645691        -1.62767
LJ          -1.06431        -0.76513        -2.55555
LJ        0.00451568       -0.184052        -2.33002
LJ         -0.899856       0.0432762        -1.78876
LJ         0.0471427         -1.0864        -1.72576
LJ          0.820479       -0.969132        -2.55224
LJ           1.74243     -0.00155568        -2.44539
LJ          0.789109        0.152287        -1.70745
LJ           1.57811       -0.741123        -1.71088
LJ          -2.48472         0.98606        -2.49083
LJ          -1.76511         1.99865          2.3251
LJ          -2.44305         1.60194        -1.53176
LJ          -1.62649        0.771185        -1.87341
LJ         -0.542202        0.681758          2.5254
LJ          0.142305         1.67031         2.30392
LJ          -1.20233         1.62481        -1.63719
LJ        -0.0533409         1.16718        -1.73899
LJ           1.10249        0.946491         2.48286
LJ           1.81356          1.7261         2.54936
LJ          0.939585         1.79589        -1.96084
LJ            1.6458        0.826719        -1.69566
LJ           2.55699         2.33303       -0.807316
LJ          -1.46988         -1.6844       -0.903885
LJ          -2.26701        -1.68655        -0.06916
LJ          -1.58517         2.53204        0.165766
LJ         -0.610515        -2.47549        -1.10881
LJ        0.00074974        -1.69872       -0.854209
LJ         -0.815534         -1.8372      -0.0563435
LJ        -0.0730549         2.26986       0.0896743
LJ          0.726155        -2.44322       -0.919494
LJ           1.91824         -1.7045       -0.921717
LJ          0.825782        -1.85802        0.248819
LJ           1.65604        -2.49612       0.0498137
LJ          -2.39304       -0.851119       -0.818674
LJ          -1.95156        0.136327       -0.916609
LJ          -2.43791        0.108671       0.0562762
LJ          -1.62818       -0.751353        0.046243
LJ         -0.827491       -0.855754       -0.851094
LJ         -0.228439      -0.0386611          -1.013
LJ         -0.733714        0.005729       0.0293032
LJ        -0.0213167       -0.791814       0.0968492
LJ          0.948026        -1.29038       -0.788111
LJ           1.80434       -0.180574       -0.666794
LJ          0.854427        0.113678       0.0806806
LJ           1.95862       -0.959356      -0.0211105
LJ            2.5063        0.862359       -0.861472
LJ          -1.65462         1.65836       -0.818327
LJ           2.37049         1.54528       0.0691772
LJ          -1.77473         1.10134        0.245623
LJ          -1.09488        0.720047       -0.991447
LJ          0.144228         1.72055       -0.825899
LJ         -0.870153           1.626       -0.134838
LJ         0.0856422        0.895638        -0.18023
LJ          0.985934         0.93149       -0.833328
LJ           1.70359         1.71317       -0.740186
LJ          0.915211         1.61233       -0.158031
LJ           1.61474        0.791617       0.0440328
LJ          -2.56468         2.37556        0.661353
LJ          -1.37906        -1.81407        0.813424
LJ          -2.48279        -1.46951         1.53923
LJ          -1.93657        -2.27112         1.51945
LJ          -0.83279          2.3635        0.925071
LJ          -0.13084        -1.55096        0.955381
LJ         -0.952187        -1.63636         1.86172
LJ          0.072787        -2.32428         1.69004
LJ          0.790188         2.45829        0.987302
LJ           1.66408        -1.54815        0.976519
LJ          0.928912        -1.60612          1.7407
LJ           1.81645        -2.56167         1.61993
LJ          -2.46019       -0.930818        0.764495
LJ           -1.5197     -0.00964704        0.770383
LJ           2.44144      -0.0526824         1.62429
LJ          -1.73515       -0.789677          1.6257
LJ         -0.858564       -0.934441         1.11367
LJ          0.186653       -0.107811        0.941891
LJ         -0.942189     -0.00717539         1.73237
LJ          0.199309       -0.787489         1.72906
LJ          0.922439       -0.909924        0.640593
LJ           1.72803       -0.272804        0.828924
LJ           0.79865       0.0139296         1.81251
LJ            1.5936        -0.76876         1.76518
LJ           2.28504        0.927403        0.973885
LJ          -1.72179         1.77781         1.04906
LJ             2.514         1.84573         1.67685
LJ          -1.90234        0.811477         1.43817
LJ         -0.856769        0.858425        0.580882
LJ          0.473839         1.53331         0.80407
LJ         -0.899313         1.39654         1.64945
LJ        0.00278658        0.896944         1.48345
LJ           1.22155        0.709117         1.02235
LJ           1.52692         1.71968        0.684005
LJ           1.11478         1.67812         1.73826
LJ           1.85401         1.03532         1.86376
