108
#Comment!
LJ          0.208502       0.0637487        -1.95866
LJ           0.80033        -1.52601       -0.916854
LJ           2.12817         1.04143        0.672256
LJ          -1.79306        -2.20687        -2.10294
LJ          0.350687        -2.50469       -0.251546
LJ          0.999095          2.2843        -1.91874
LJ           1.42581        -0.70288         1.18516
LJ          -2.45259        -0.79934       -0.442732
LJ           0.44134        0.546391        -1.06389
LJ          0.191817        -2.28927        0.827187
LJ           1.63186       -0.847723       0.0242321
LJ           1.84399         1.92156         1.21286
LJ          0.283583          -1.051        0.387403
LJ         -0.958901         2.01884        -2.48956
LJ          -2.24292         2.03835         1.03106
LJ         0.0918954         2.42758        -1.42976
LJ         -0.846229        -2.02396       -0.171356
LJ          0.992143        -0.27253       -0.527759
LJ           2.40214         1.58084       -0.316245
LJ          -2.38081       0.0267353        0.438589
LJ           2.47588       -0.221567        -1.45334
LJ         -0.572286         2.23786        0.452301
LJ        -0.0709104       -0.797159       -0.684226
LJ          -1.60515         2.16198        0.216623
LJ          -1.23816        0.145822        0.706519
LJ           1.07569       0.0190755          1.8091
LJ           1.96484        -1.63894        0.930331
LJ         -0.903608        -1.14655         1.98826
LJ           1.50675        0.909541       -0.433161
LJ           1.93306         -1.7043       -0.650647
LJ           2.11318       -0.768531         2.13925
LJ          0.750278         1.23788        -1.97449
LJ         -0.571704        0.491203        -1.34192
LJ           2.26498        -1.70143         2.44498
LJ            1.2307        -2.42263        -1.02498
LJ          -1.12429         2.43426         1.39883
LJ           1.05955         2.24184         1.85682
LJ          0.166662         2.25633        -2.47147
LJ          0.124557         1.89966         1.28101
LJ          0.461356         1.68719        0.217662
LJ          0.590345         1.72637        -1.02418
LJ           0.73337        0.764365        0.117466
LJ         -0.180921        0.495854         1.64531
LJ          -2.36343        0.586357        -2.07714
LJ           1.66147        0.139554        0.416827
LJ           1.99727        0.199517         1.44308
LJ          -1.73844        -2.02196        0.790556
LJ          0.429753         1.31886         2.03305
LJ          0.355034      -0.0646126        0.592887
LJ          -1.95196         2.17588         2.24998
LJ         -0.794111       -0.661485        -1.81734
LJ          -2.50603        0.800779        -1.05015
LJ         -0.482524       -0.678007         1.20018
LJ         -0.726952        -1.81255        0.834223
LJ           1.80111         1.88699        -1.22535
LJ          -2.42583         1.96696        -1.87911
LJ          -2.03833        0.885698         1.07427
LJ         -0.756402        -2.09693        -1.35972
LJ          -1.56486       -0.186846       -0.233858
LJ           1.18921       -0.780521        -2.53757
LJ           1.08932        -1.99222        0.184908
LJ           2.01583        -1.12803        -1.78339
LJ         -0.234155         1.41383        -1.70134
LJ           2.45018        -2.31963         1.63913
LJ          -0.52988         1.49212       -0.293957
LJ          -1.92408        -1.22998        0.322708
LJ           1.83392        0.170594        -2.33478
LJ          -1.66628        0.175783        -1.16111
LJ         -0.627642        0.777715        -2.43855
LJ          -0.67739        -1.58052        -2.26912
LJ          -1.66026        -1.15362        -2.43105
LJ          -2.32532      -0.0291301         2.16145
LJ           2.16647        -2.31069        -1.51904
LJ          -1.18214        0.275329         1.71358
LJ          -1.54872       -0.132947        -2.30281
LJ          -1.07158        -1.18415       -0.806669
LJ          0.221741       -0.339366         2.19269
LJ           1.36265          1.0886         2.20845
LJ           1.45018        0.457789        -1.40694
LJ          -2.52394         2.51882       -0.709062
LJ          -2.52715       -0.699711         1.14073
LJ           1.95807       0.0490107       -0.606074
LJ           2.06901         1.29189        -2.11047
LJ        -0.0617376        0.926153        0.729329
LJ          -1.83551        0.934459       -0.256691
LJ         -0.731166         1.52807         1.76866
LJ         -0.469745        0.174305       -0.304005
LJ          -1.60997        -1.92235         1.85034
LJ           1.10369         1.15315         1.20321
LJ          -1.51185         2.28324        -1.15478
LJ           2.51644        -2.38815        0.280337
LJ         -0.731734       -0.876963        0.187454
LJ           1.97496         2.22738         2.41993
LJ           1.03123       -0.790959        -1.51538
LJ          0.508314        -1.24493         1.47303
LJ           -1.6743         1.03015         2.47686
LJ          -1.54001         1.22593         -1.6695
LJ         -0.411817        -2.06509         1.89372
LJ          0.423407        -1.87107         2.33985
LJ           1.22962        -1.83975        -2.02727
LJ           1.40788         -1.6101         1.84727
LJ          -1.75179        -1.90433       -0.684559
LJ          -1.02884         1.12329        0.622273
LJ          -1.98525        -1.03814        -1.35558
LJ           2.48186         1.31526         1.87071
LJ          -1.54435       -0.735782         1.24957
LJ           1.42778         2.11466        0.276681
LJ          0.211263        -0.97048        -2.08108
