108
#Comment!
LJ           2.54351        -2.23925         2.31072
LJ          -1.68961        -1.58784          2.4218
LJ          -2.20387         -1.5722        -1.70468
LJ          -1.66207        -2.43415        -1.77127
LJ         -0.789062         2.38989         2.48662
LJ        -0.0575334        -1.81946        -2.47983
LJ          -1.17157        -1.50479         -1.8409
LJ         0.0818054         2.37203        -1.83834
LJ          0.934651        -2.52379         2.50845
LJ           1.76889        -1.63739         2.45404
LJ          0.873029        -1.89122         -1.7326
LJ           1.97657         2.43688        -1.84352
LJ          -2.51126       -0.858199          2.3808
LJ          -1.81825       0.0240947         2.51396
LJ           2.53986        0.064344        -1.78543
LJ          -1.79379       -0.558886        -1.63611
LJ          -1.13842       -0.798345        -2.48398
LJ        -0.0338925       -0.157011        -2.39607
LJ         -0.968335       0.0020532        -1.72728
LJ         0.0245434         -1.0606        -1.73401
LJ          0.967199       -0.979204        -2.53964
LJ           1.67635       0.0213738        -2.49321
LJ           1.00885        0.156517        -1.73653
LJ           1.56421       -0.632167        -1.70531
LJ          -2.43602         1.04644        -2.53049
LJ          -1.69478         1.93386         2.35268
LJ          -2.56057         1.54032        -1.57966
LJ          -1.67038        0.748163        -1.81969
LJ         -0.530245        0.835678         2.44164
LJ          0.240948         1.68268         2.39882
LJ          -1.19139         1.67138        -1.84772
LJ         0.0417626         1.17773        -1.84669
LJ          0.950384         0.93882         2.53707
LJ           1.82432         1.72146         2.50923
LJ          0.970416         1.74905        -1.88783
LJ           1.69204        0.977315        -1.68891
LJ          -2.55884         2.32155       -0.790386
LJ          -1.43602        -1.73978       -0.791839
LJ          -2.24324        -1.69949      -0.0996669
LJ          -1.68521         2.52573        0.139863
LJ         -0.581325        -2.50198        -1.00371
LJ         0.0695806        -1.60685       -0.810691
LJ          -0.76506         -2.0107       -0.097533
LJ         -0.138543         2.33195       0.0551126
LJ          0.828128        -2.53258       -0.841495
LJ           2.06351        -1.77174       -0.947607
LJ          0.789274        -1.71429        0.340407
LJ           1.70555         2.56158      -0.0450071
LJ          -2.28822       -0.966801       -0.798431
LJ          -1.94543       0.0107161       -0.767227
LJ          -2.44396       0.0284381         0.14473
LJ          -1.63396       -0.757816       0.0391302
LJ         -0.705267       -0.802415       -0.813217
LJ         -0.120045       0.0610473        -1.10709
LJ         -0.745757      -0.0367988      -0.0680988
LJ         0.0963697       -0.708997        0.027135
LJ           1.04771        -1.19146       -0.920729
LJ           1.91123       -0.102242       -0.593497
LJ          0.926735       0.0629452         0.11461
LJ           2.06021       -0.982709      -0.0826623
LJ           2.46967          0.9858       -0.796185
LJ          -1.59207         1.74898       -0.820996
LJ           2.30817           1.645     -0.00887547
LJ          -1.81669         1.02615        0.318805
LJ          -1.09054        0.703311       -0.851289
LJ         0.0616153         1.66965       -0.935011
LJ          -0.84522         1.55715       -0.272028
LJ        -0.0621832        0.754217       -0.198406
LJ           1.11383        0.768327       -0.878627
LJ           1.62144         1.69758       -0.710213
LJ          0.805996         1.79389        -0.21112
LJ           1.70801        0.852585      -0.0731583
LJ           2.48122         2.37368        0.781459
LJ          -1.32367        -1.84349        0.714667
LJ           2.56378        -1.51833         1.51686
LJ          -1.89459        -2.34535         1.52828
LJ         -0.742322         2.46657        0.952844
LJ        -0.0358364        -1.53445         0.90613
LJ         -0.855375        -1.73799         1.90247
LJ         0.0609739         -2.3269         1.72749
LJ          0.798601         2.49629         1.01611
LJ           1.72493        -1.59021        0.905584
LJ          0.949932        -1.68204         1.67848
LJ           1.80275        -2.50385         1.60496
LJ          -2.47093       -0.833471        0.748394
LJ          -1.49925      -0.0878266         0.82528
LJ           2.48296      -0.0393178         1.75154
LJ          -1.79256       -0.685372          1.5745
LJ         -0.873249       -0.906149         1.03711
LJ          0.212588       -0.149276        0.993531
LJ         -0.963104       0.0986914         1.80204
LJ           0.18614       -0.845217         1.74347
LJ          0.896567       -0.834934         0.77104
LJ           1.72424       -0.200602        0.665958
LJ          0.676265       0.0162207         1.96215
LJ           1.52242       -0.858502         1.60858
LJ           2.16526        0.816846        0.941341
LJ          -1.71834         1.94069         1.03119
LJ           2.44295         1.74533         1.61899
LJ           -1.8468        0.730137         1.44089
LJ          -0.81235        0.841232         0.65858
LJ          0.391643         1.49731         0.83618
LJ         -0.916932         1.43574         1.60114
LJ         0.0852651        0.850419         1.57491
LJ           1.14047        0.701096         1.10127
LJ           1.44494         1.71994        0.635224
LJ           1.12582         1.61391         1.67324
LJ           1.78398        0.930065         1.86509
