108
#Comment!
LJ          -2.56293         2.52676        -2.52301
LJ          -1.66973        -1.78279         2.49313
LJ           2.54541        -1.83459        -1.76688
LJ          -1.79846         2.55368         -1.7138
LJ         -0.934112         2.42763         2.51603
LJ        -0.0880318        -1.74962        -2.50073
LJ         -0.791881        -1.63182         -1.6212
LJ         -0.055486        -2.49064         -1.5705
LJ          0.897804         2.54743         2.44272
LJ           1.69674        -1.78922         -2.4617
LJ          0.909763        -1.59279        -1.59063
LJ           1.76671        -2.54022         -1.7056
LJ            2.3986       -0.818172         2.45847
LJ          -1.57728      -0.0039753         2.44667
LJ           2.49352      -0.0227683          -1.721
LJ          -1.64937       -0.914468        -1.66911
LJ         -0.918315        -0.85384        -2.56476
LJ          0.106647      -0.0821345          2.5545
LJ         -0.884605       0.0884788        -1.64055
LJ        -0.0259654       -0.958558        -1.69775
LJ          0.777248       -0.979926         -2.5565
LJ           1.77005       0.0850741         2.54738
LJ           0.76279       0.0722831        -1.72122
LJ           1.65434        -0.82757         -1.6365
LJ          -2.54977         0.86187         2.50946
LJ          -1.73731         1.72347        -2.55387
LJ          -2.46787         1.59735        -1.77012
LJ          -1.80266        0.839476        -1.72002
LJ         -0.791393        0.898785         2.37021
LJ         0.0848697         1.62784         2.42357
LJ         -0.841131         1.75392        -1.72289
LJ        0.00814343        0.853606        -1.78888
LJ          0.836141        0.959543        -2.42893
LJ           1.75233         1.76258         2.55566
LJ           1.04662         1.75017        -1.72554
LJ           1.64913        0.791239        -1.59778
LJ          -2.52826        -2.54706       -0.873249
LJ          -1.59091        -1.74468       -0.808482
LJ           2.56238        -1.78329      -0.0656202
LJ          -1.64211          2.5352       0.0422371
LJ         -0.813823         2.52591       -0.875047
LJ        -0.0631022        -1.65259        -0.87258
LJ         -0.875292        -1.67231      -0.0962535
LJ         -0.102277         2.42811      -0.0877337
LJ          0.894054         2.47717       -0.811157
LJ           1.65614        -1.77035       -0.762531
LJ          0.755289        -1.85416       0.0967199
LJ           1.67312        -2.54021      -0.0359978
LJ          -2.53223        -0.86105       -0.799707
LJ          -1.83607        0.128047       -0.963809
LJ           2.53443      -0.0224687      -0.0260894
LJ          -1.79145       -0.907435      -0.0507374
LJ         -0.809542       -0.746694       -0.785458
LJ        0.00964865       -0.190171       -0.871344
LJ         -0.944586       -0.161761      0.00563211
LJ         0.0357376       -0.727993        0.110171
LJ          0.952721       -0.802175       -0.860925
LJ           1.66423      -0.0307749       -0.914731
LJ          0.907751       0.0107858      -0.0789972
LJ           1.68118       -0.919819        -0.15072
LJ           2.56121        0.933156       -0.881671
LJ          -1.76518         1.71198        -0.89603
LJ           2.52543         1.71839       0.0464492
LJ          -1.68648        0.895769        0.111298
LJ         -0.834862        0.786348       -0.660529
LJ         -0.112577         1.74607       -0.972271
LJ         -0.902743         1.68676      -0.0643726
LJ        -0.0611918        0.916396        0.132124
LJ          0.769593        0.963781       -0.816828
LJ           1.77488         1.79474       -0.806871
LJ          0.717149         1.72434       -0.125007
LJ            1.6683        0.757573       0.0506517
LJ          -2.54492        -2.53504         0.88075
LJ          -1.60903        -1.76292        0.978959
LJ           2.47134        -1.64595         1.72514
LJ          -1.75847         2.54636         1.69146
LJ         -0.904203         2.48637        0.778672
LJ         0.0751687        -1.74712        0.890116
LJ         -0.870127        -1.75368         1.82871
LJ         0.0818714        -2.51492         1.74257
LJ          0.991228         2.40266        0.889753
LJ            1.7223        -1.84392         0.81589
LJ           0.95197        -1.75152          1.5674
LJ           1.76996         2.54958          1.7307
LJ           2.47224       -0.768759        0.892587
LJ          -1.70704       0.0067333        0.856608
LJ          -2.50702      -0.0448759          1.8799
LJ           -1.7455       -0.927166         1.83713
LJ         -0.831532        -0.85162        0.777581
LJ          0.146846       0.0373891        0.822798
LJ         -0.740385        0.112157         1.72162
LJ         0.0329949       -0.904034          1.6372
LJ          0.784071       -0.843293        0.864264
LJ           1.63965       -0.138024         0.86497
LJ          0.822136      -0.0130514         1.71998
LJ           1.78545       -0.782338          1.6452
LJ            2.5083        0.829172        0.788242
LJ          -1.70005         1.64821        0.817653
LJ           2.56094         1.65026         1.77766
LJ           -1.6068        0.823362         1.76438
LJ          -0.82984        0.767872        0.830647
LJ        -0.0130444         1.58237        0.876348
LJ         -0.819409          1.7695         1.63437
LJ        0.00542234         0.74344         1.60163
LJ          0.874861        0.735922        0.705878
LJ           1.65041         1.63851        0.790423
LJ          0.848699         1.55018         1.66848
LJ           1.70928        0.971841         1.63319
