108
#Comment!
LJ          -2.47371        -2.28959         2.54798
LJ          -1.69335        -1.49538        -2.55216
LJ          -2.43726        -1.55434        -1.76453
LJ          -1.72682        -2.41885        -1.79913
LJ         -0.793655          2.3266        -2.42507
LJ         -0.146112        -1.45529          2.4383
LJ         -0.861519        -1.46529        -1.93916
LJ          0.132626        -2.43626        -1.87641
LJ           1.03688        -2.49243        -2.49545
LJ           1.64288        -1.49789         2.43748
LJ           1.09452          -1.778        -1.73257
LJ           1.94899        -2.54393        -1.61878
LJ           2.50663       -0.798737        -2.43099
LJ          -1.85964      0.00144981         2.27127
LJ          -2.56296       0.0747664        -1.62093
LJ          -1.59916       -0.599015        -1.57558
LJ         -0.772122       -0.655232         2.51943
LJ          0.076362       -0.056526        -2.35102
LJ         -0.757706       0.0729145         -1.7126
LJ         0.0824528       -0.941146        -1.55646
LJ          0.706951       -0.975706        -2.52498
LJ           1.70716         0.08982        -2.44129
LJ           0.87192        0.221926        -1.64618
LJ           1.48979       -0.713759        -1.54452
LJ           2.55017        0.892333        -2.37395
LJ          -1.78571         1.92652         2.49789
LJ          -2.45224         1.69242        -1.54575
LJ          -1.54709        0.690721        -2.09471
LJ         -0.480008        0.850224         2.51391
LJ         0.0408096         1.83784         2.43906
LJ          -1.22428         1.61962        -1.72423
LJ          -0.15669         1.00836        -1.62228
LJ          0.992866        0.984818        -2.50269
LJ           1.78916         1.93746        -2.55295
LJ          0.981252         1.84658        -1.83523
LJ           1.69458         1.12721        -1.80993
LJ          -2.55806        -2.47323       -0.690951
LJ          -1.39204        -1.59679       -0.797939
LJ          -2.25352        -1.60042       0.0603941
LJ          -1.67017         2.49206        0.284066
LJ         -0.702907        -2.47606        -1.02133
LJ         0.0229931        -1.89905       -0.738144
LJ         -0.707581        -1.85897       0.0663577
LJ         0.0265816         2.43199        0.146032
LJ           1.02144        -2.45923       -0.954461
LJ           1.84901        -1.56394       -0.918081
LJ          0.741078        -1.91747        0.196294
LJ           1.67744        -2.50088      -0.0252039
LJ          -2.33585       -0.803248       -0.755601
LJ          -1.83321        0.259896       -0.964607
LJ          -2.42444      -0.0503111     -0.00645598
LJ           -1.5955       -0.610635       -0.136412
LJ         -0.727823        -0.77612       -0.829432
LJ         0.0485546      -0.0709607       -0.877897
LJ         -0.642043      -0.0376909       -0.015688
LJ         0.0274974        -1.10067       0.0921567
LJ          0.945058        -1.14582       -0.579135
LJ           1.95339       -0.284138       -0.571598
LJ          0.814092         0.07479       0.0396804
LJ           1.91527       -0.971887        0.157144
LJ           2.31326        0.801316       -0.738785
LJ          -1.78446         1.65273        -0.65658
LJ           2.40493         1.58992      0.00940238
LJ          -1.75922        0.977624        0.108759
LJ         -0.905228        0.850432       -0.946893
LJ        -0.0349647         1.77175       -0.898595
LJ         -0.795112         1.70312       -0.101158
LJ          0.160268        0.955159       -0.154724
LJ          0.856023          1.0227       -0.970332
LJ           1.69868         1.71441       -0.824498
LJ          0.846872         1.83126       -0.166193
LJ            1.7129        0.748558       0.0536907
LJ            2.4792         2.38489        0.756333
LJ          -1.44232        -1.77571        0.869396
LJ           2.41881        -1.47596         1.63665
LJ          -1.92473        -2.39154         1.64423
LJ         -0.768268         2.39002        0.959427
LJ         -0.118731        -1.55763         1.07869
LJ         -0.874187        -1.61602         1.79219
LJ         0.0181352        -2.30838         1.81442
LJ          0.799639          2.4579        0.893141
LJ           1.60543        -1.63251        0.923575
LJ          0.745831          -1.527         1.70729
LJ           1.63546         2.56204         1.49886
LJ           -2.3562       -0.765742        0.886318
LJ           -1.8289        0.213189        0.785119
LJ           2.40566       0.0304065         1.70998
LJ          -1.61793       -0.806489         1.64258
LJ         -0.941639       -0.905261        0.895016
LJ          0.100466      -0.0815912        0.923422
LJ          -1.00765      -0.0512958         1.58867
LJ         0.0560416       -0.682425         1.82984
LJ          0.958144       -0.877184        0.468715
LJ           1.67873       -0.201573        0.866583
LJ          0.928862       -0.050222         1.76449
LJ           1.54971       -0.827044         1.75802
LJ            2.3021        0.924231         1.08155
LJ          -1.86949         1.59099        0.984592
LJ           2.43949         1.94575         1.61604
LJ          -1.70832        0.833207         1.63356
LJ         -0.953443        0.878773        0.860948
LJ          0.301914         1.47604        0.739607
LJ         -0.751643         1.49364           1.697
LJ          0.151373        0.687498         1.64144
LJ           1.17637        0.701136          1.0958
LJ           1.58737         1.71735         0.77733
LJ          0.882515         1.81847         1.67316
LJ           1.75064        0.954061           1.919
