108
#Comment!
LJ           1.99044         1.64352       -0.360987
LJ          0.111519        0.723023        0.559013
LJ          -2.39396       -0.483681         1.85361
LJ          0.277806        -1.98804        -2.55388
LJ          0.282064        -2.12955        0.251492
LJ            2.5215        -1.83659        -1.53912
LJ           1.32366        -1.65454        0.750696
LJ          -1.58247         0.19241         1.41487
LJ           1.15254        -1.71102        -1.88661
LJ           2.53724        -1.46923       -0.214223
LJ          -2.24669        -2.48386       -0.865476
LJ          0.704244        -2.12803         1.49966
LJ          -1.68746        0.539564         2.45088
LJ          0.786402        -1.85634       -0.840245
LJ          -1.15145       -0.275953       -0.764982
LJ          -0.30725         2.10318        -1.77814
LJ          0.873306       -0.475841         1.24995
LJ         0.0144627         1.13205       -0.448049
LJ           1.76373       -0.103478         2.01189
LJ         -0.723489        0.695473          1.7317
LJ          -2.08384         1.51489         1.79393
LJ            1.7504         1.08076         2.15369
LJ           1.68714      -0.0807305        -0.95879
LJ           1.80204         2.35937        -1.60219
LJ           1.32403        0.400519        -2.15699
LJ         -0.207377         -2.2748        -1.12749
LJ         -0.517622         2.07461       -0.457739
LJ          0.864818       0.0363834        0.222124
LJ           1.64217         0.50137      -0.0818843
LJ          0.342122        0.600387         1.48322
LJ          -1.55567        0.059932        -1.60385
LJ           1.35824         2.49256        -2.53696
LJ          -1.13279        -1.76016        0.874981
LJ          -2.28772        0.466866        0.506612
LJ           2.26621         1.20672        0.829972
LJ         -0.255533        0.114147       -0.238074
LJ           -1.7643         1.31496        0.811356
LJ          -1.47876        -1.71421       -0.862825
LJ           2.40512         1.97443        -2.52398
LJ           2.28566        -1.80556        0.765555
LJ            2.5525        0.562728         1.85347
LJ         -0.684945        -1.88187       -0.078625
LJ          0.953392         1.19493        0.928643
LJ           1.77334       -0.688738        0.222225
LJ         -0.721068           1.327        0.511396
LJ           1.39212         2.47042       -0.441174
LJ           1.71498        -1.43769       -0.940083
LJ          0.482687        -1.09348        0.388028
LJ          0.633735       -0.826668        -1.47299
LJ          0.974659       -0.792656       -0.425678
LJ          -2.20879       -0.734499        0.699247
LJ          -1.28274       -0.933167         1.36913
LJ         -0.666014        0.156046        -2.47994
LJ          -2.34344       -0.328031       -0.253923
LJ          -0.17991        -1.66134         1.00384
LJ         -0.895811        0.309632        0.594576
LJ           2.55469         2.24468        0.257095
LJ          0.386663         1.27532        -1.32479
LJ           2.25689        0.796983        -2.08112
LJ           1.21201        -1.27296         2.00091
LJ          0.311504        0.185647        -1.77899
LJ          -0.80199        -1.91144        -2.03449
LJ        -0.0102924       -0.906386        -2.32681
LJ         -0.582636         2.54847         1.46948
LJ         -0.700652         0.77326        -1.58737
LJ           -1.4446       -0.536303         2.28897
LJ          -1.75136        -1.22208        -2.06762
LJ          -1.22675         2.20488        -1.20847
LJ          0.478058         2.14042       -0.747939
LJ         0.0266008         1.67944         1.25116
LJ          -1.53596         2.41126         1.12108
LJ            1.2962         2.14588        0.670265
LJ           1.30015          1.6271        -2.13595
LJ          -1.02952        -1.67667         2.07211
LJ           1.59186       -0.893836        -2.26777
LJ         -0.995771        0.710769       -0.463649
LJ          -0.84522        -1.12759        -1.48453
LJ           1.94238         2.31357         1.55403
LJ          0.965676         1.37091      -0.0711329
LJ          0.337583       0.0158111         2.22455
LJ           2.49086       -0.545526        -1.34533
LJ           1.64401         1.08131        -1.24865
LJ          -1.71468          1.6728       -0.297961
LJ           2.50442        0.608669       -0.801015
LJ          -1.81927          1.8207        -1.91863
LJ          -1.06682          1.6718         1.58424
LJ           1.80463         0.18253         1.02006
LJ          0.602563         1.06881         2.42481
LJ         -0.508031       -0.732125        0.377142
LJ       -0.00726443        -1.21567       -0.515941
LJ           2.47475          1.6197        -1.31002
LJ           1.00845         1.75759         1.69939
LJ          0.148463         1.93331        0.287286
LJ          -2.05269        -1.53019         1.43746
LJ         0.0253721         2.11923         2.25453
LJ           1.99044       -0.878754         1.35824
LJ          -2.43325       -0.313332        -2.29173
LJ          -1.74431           1.035        -1.19396
LJ           -1.6722        -2.21432       0.0315505
LJ         -0.745168         1.40689         -2.5002
LJ          -2.03324        -2.42633        -2.16946
LJ          -1.18101         2.41248         2.45422
LJ          0.719988          2.3535        -1.66613
LJ          -2.24153        -2.46576         1.90653
LJ          0.810275         0.34165       -0.789448
LJ          -1.46103        -1.02032      -0.0162875
LJ         -0.149868       -0.512745          1.4066
LJ           2.30453        -1.81905         2.51556
