108
#Comment!
LJ          -2.53646        -2.32749         2.50992
LJ          -1.66487        -1.51177         2.49243
LJ          -2.34622        -1.49704        -1.81368
LJ          -1.63423         -2.4844        -1.69395
LJ         -0.780452         2.36694        -2.41345
LJ         -0.134221        -1.45224         2.50173
LJ         -0.933511        -1.43919        -1.96596
LJ         0.0712685        -2.48136        -1.97881
LJ          0.999242        -2.36267        -2.41695
LJ           1.71286        -1.54909         2.39089
LJ           1.20372        -1.67538        -1.71573
LJ           1.88414        -2.54009        -1.64906
LJ           2.48126       -0.734035        -2.45438
LJ          -1.83503      -0.0759007         2.35099
LJ           2.53043       0.0135702        -1.67299
LJ          -1.60306       -0.541772        -1.66319
LJ         -0.763701       -0.633322        -2.54404
LJ          0.143049      -0.0768819        -2.30847
LJ         -0.804799       0.0782793        -1.74375
LJ          0.176921       -0.944816        -1.57773
LJ          0.790591       -0.992605        -2.50215
LJ           1.68021       0.0205912        -2.39158
LJ          0.913278        0.189973        -1.59793
LJ             1.575        -0.62707        -1.55386
LJ          -2.48078        0.845795        -2.41065
LJ          -1.78761         2.03631         2.44346
LJ          -2.50442         1.74267        -1.57325
LJ           -1.5689        0.647348        -2.09979
LJ         -0.566812         0.81901          2.5583
LJ         0.0691897         1.75171          2.4106
LJ          -1.27653         1.72289        -1.63138
LJ        -0.0388777         1.07763         -1.6305
LJ          0.943073        0.915111        -2.53549
LJ           1.74159         1.88965          2.4621
LJ          0.891198         1.87243        -1.77912
LJ           1.70043        0.972284        -1.81943
LJ           2.53835        -2.54104       -0.763338
LJ          -1.35871        -1.69417       -0.914772
LJ          -2.27898        -1.56528       -0.103781
LJ          -1.65353         2.39259        0.199069
LJ         -0.741199        -2.55025        -1.04345
LJ         0.0466743        -1.85298       -0.695173
LJ          -0.74124        -1.82616    -0.000194022
LJ        -0.0302184           2.334        0.209334
LJ          0.867665        -2.50231        -1.04299
LJ           1.85232        -1.59167       -0.859673
LJ          0.811721        -1.94214        0.217874
LJ           1.75209         2.55505        0.125586
LJ          -2.37411       -0.767714       -0.782846
LJ          -1.89012        0.237125       -0.936227
LJ          -2.36736     -0.00776965    -0.000244148
LJ          -1.52116       -0.700092       -0.117725
LJ         -0.684365       -0.749431       -0.755904
LJ        -0.0255995      -0.0681525       -0.939228
LJ         -0.672173       -0.115005     -0.00920061
LJ         0.0130179        -1.03746        0.158892
LJ            0.9761         -1.0637       -0.753646
LJ           1.92641       -0.271696       -0.634073
LJ          0.745389       0.0997926       0.0636675
LJ           1.91774        -1.06426       0.0519995
LJ           2.36814         0.79548       -0.774841
LJ          -1.83901         1.72859       -0.660665
LJ           2.45147         1.73666        -0.03153
LJ          -1.77046        0.973767        0.155667
LJ          -1.00084         0.78775        -1.00312
LJ        -0.0237979         1.74725       -0.780918
LJ         -0.713016         1.67379       -0.100625
LJ         0.0547209        0.844652       -0.120936
LJ          0.843432         1.04054       -0.976028
LJ           1.69088          1.7028       -0.817815
LJ          0.882208          1.7921      -0.0953028
LJ           1.69606        0.816878        0.118594
LJ           2.48587         2.47401        0.692129
LJ          -1.45262        -1.79306        0.822628
LJ           2.48285         -1.5608         1.60681
LJ           -1.8336        -2.39293         1.66165
LJ         -0.913823         2.46217        0.985985
LJ        -0.0951884        -1.52131         1.02007
LJ         -0.900819        -1.63778          1.7675
LJ        -0.0180038        -2.27892         1.76526
LJ          0.774934         2.40488        0.870743
LJ           1.68206         -1.6609         0.98084
LJ          0.815253        -1.60557         1.64796
LJ           1.70857        -2.48876         1.60556
LJ          -2.41605       -0.841631        0.784299
LJ          -1.72428        0.164703         0.78413
LJ           2.38494       0.0226094         1.66827
LJ          -1.69372       -0.804738         1.56998
LJ         -0.816853       -0.874677        0.956685
LJ          0.163705      -0.0581665        0.834309
LJ         -0.915296       0.0019211         1.76674
LJ         0.0626163       -0.745571         1.76141
LJ           1.05327       -0.905188        0.530331
LJ           1.78261       -0.239092        0.837725
LJ          0.886212      0.00556111         1.69803
LJ           1.53966       -0.696593         1.70762
LJ           2.31853        0.923085         1.07272
LJ          -1.85865         1.65424        0.880203
LJ           2.43056         1.87916         1.56609
LJ          -1.73945        0.839897         1.70544
LJ         -0.931296        0.944831        0.861751
LJ          0.375078         1.39299        0.790731
LJ         -0.642995         1.54412         1.68636
LJ         0.0954606        0.727851         1.63557
LJ           1.05455          0.7176         1.00882
LJ            1.6335         1.76508        0.722004
LJ          0.901308         1.82179          1.6456
LJ           1.84096        0.996366         1.94073
