108
#Comment!
LJ           2.15106         1.69805         1.83713
LJ          -1.96961        -1.67353        0.362108
LJ         -0.311798        -1.96388        0.984864
LJ          -1.61839         1.85854        0.345663
LJ           -1.3267        0.474056         2.10794
LJ           2.02683       -0.627124         1.57284
LJ            1.5467         -1.4173         2.17124
LJ           1.08421        0.880149         1.11433
LJ           -2.0258         2.10407         1.86548
LJ        -0.0711611        0.331849         2.45038
LJ           2.29301         1.57289         -1.8526
LJ           1.35111         1.84701         2.36019
LJ          0.184131         1.75054         2.19887
LJ          0.606321         1.09794       -0.147914
LJ            1.0726        0.800337         2.17675
LJ         -0.397279        -1.76975       -0.933694
LJ         -0.272929        -1.42703         2.02522
LJ         -0.314255        0.175245         1.39331
LJ          0.320822        -1.85132        0.094237
LJ           1.91524       -0.360103        -1.04864
LJ          -1.11806         0.17742        0.763276
LJ          -1.36447         2.13304       -0.558585
LJ           1.25976        -2.36864       -0.153609
LJ          -1.87431        0.126955      -0.0405147
LJ           1.37616        -2.25944         1.81901
LJ          -1.22985        -2.20404        -1.50956
LJ           1.76581        -1.08651      -0.0803736
LJ           1.52825        -2.27624        -2.25945
LJ          -2.39257         2.02374        0.898643
LJ         -0.251981       -0.904326         1.13348
LJ          -1.86748        -2.19047        -2.34679
LJ          0.698014        -0.87924        0.656553
LJ          -2.47528       -0.719357        0.420946
LJ           1.38503       -0.233251         2.26642
LJ          0.819401        -1.11866       -0.466131
LJ          -1.08934        -1.22486        -2.06257
LJ         -0.600517          2.0638        0.481652
LJ       -0.00614945        -1.28313        -1.90307
LJ          0.666257        -1.59198         1.46011
LJ          -1.19892        0.736844       -0.722671
LJ          -2.03948         2.23923          -1.455
LJ           1.85084        0.708662       -0.853333
LJ           2.44049         2.32457        -2.50738
LJ          -1.19363       -0.510164         1.55301
LJ          -2.26296       -0.907232       -0.577636
LJ          0.624358        -1.85806        -1.36621
LJ          0.662986       -0.313445         1.51417
LJ         -0.877639      -0.0860479       -0.346563
LJ           1.61653        -1.52006         1.05839
LJ          -1.43928        -2.26212         1.14975
LJ          -1.87164         1.47834        -2.34616
LJ          -1.85749         1.17003         1.53931
LJ          -1.33949        -1.65552         2.06405
LJ            2.1903       -0.615049        -2.24284
LJ           2.22318        0.320112        0.144471
LJ          -1.68469        0.270918        -2.00962
LJ        -0.0241962         2.33058        -1.81079
LJ           2.35378        -2.24671       0.0815788
LJ          0.823929        0.156191        -2.05537
LJ          -1.12115         2.16835        -2.16087
LJ          0.712427           1.782        0.758264
LJ         0.0352423         2.45163       -0.319926
LJ            2.0741         2.47455        -1.23127
LJ          -1.25813        -1.14179        -0.93445
LJ          0.868409        0.650385        -1.06194
LJ           2.09022        0.412168        -1.89271
LJ          -0.78948         2.23576         1.96467
LJ           0.12949         1.09463         1.18532
LJ           1.31762       0.0772346       -0.253406
LJ          -2.29969        0.124257        -1.23672
LJ           1.12253       -0.874271        -1.63062
LJ           1.37866         1.13423        -1.74004
LJ          -2.55258        -2.06597         1.11462
LJ          -2.01939       -0.978472        -1.74371
LJ          -2.05158         1.18302        -1.32966
LJ          0.580982        -2.10999        -2.32536
LJ         -0.574168        -2.11291        -2.51105
LJ         -0.244127       -0.321552        -1.37579
LJ          -2.29651        0.142479        0.975271
LJ           1.92679        0.542012         1.52142
LJ          0.315948       -0.598888         2.54996
LJ         -0.195723        0.612749        -1.17119
LJ         -0.958461        -1.98981      -0.0999443
LJ         -0.817244         1.23564         2.39128
LJ          -2.41268         1.03783        0.694131
LJ         -0.147787        0.317768        0.430482
LJ          -2.49978        0.849467         2.43735
LJ          -2.27938        -0.18519         2.21397
LJ           1.18097         1.63892       -0.709747
LJ          -1.85042        -1.97914         -0.7183
LJ         -0.349919        -1.06486      -0.0854795
LJ         -0.870412          1.3068          1.2405
LJ          0.142455        -2.46097         1.94258
LJ           1.74864         2.31115         0.70833
LJ           0.38226      -0.0982531       -0.527715
LJ           2.55817         1.75862       -0.487911
LJ         -0.838074         1.46236        -1.40671
LJ           1.03291         2.30248        -1.53396
LJ          -2.00291        -1.13086           1.311
LJ         -0.836716       -0.184534        -2.38237
LJ          0.067703         1.19001        -2.03307
LJ           1.81287         1.39452        0.133914
LJ           2.29821        -1.58986        -1.18939
LJ          0.253159         1.71952       -0.998506
LJ            2.4971        -1.54781         2.26302
LJ           1.46698       -0.139837        0.845007
LJ          -1.12951        -1.10306        0.617397
LJ         -0.605262         1.33403       -0.198111
