108
#Comment!
LJ          -2.55509        -2.45875         2.51572
LJ          -1.67585        -1.69463         2.39075
LJ           -2.4992         -1.6756        -1.63422
LJ             -1.69        -2.39628        -1.77476
LJ         -0.858353         2.42756         2.48342
LJ         0.0359305         -2.0436        -2.46972
LJ          -1.03135        -1.50177        -1.56537
LJ         0.0655668         2.22749         -1.6567
LJ          0.999303         2.37476         -2.4849
LJ           1.85253        -1.71558         2.55895
LJ           1.07236         -1.8089        -1.66301
LJ           1.92851         2.55415        -1.54649
LJ           2.40087       -0.853399         2.53582
LJ          -1.76258       0.0219869         2.54408
LJ          -2.55007        0.151576        -1.87691
LJ          -1.67568       -0.468672        -1.46947
LJ          -1.16125        -0.86478         -2.4617
LJ        -0.0207981       -0.211394        -2.37019
LJ         -0.763844       0.0415037        -1.69913
LJ         -0.120942        -1.00905        -1.82263
LJ          0.950091        -1.10923        -2.45213
LJ           1.70118       0.0510678        -2.54759
LJ          0.731522     0.000705415        -1.69324
LJ           1.67491       -0.804319        -1.76093
LJ          -2.39409         1.10602         2.42139
LJ          -1.76248         1.83849         2.49984
LJ          -2.49157         1.71035        -1.64578
LJ          -1.51789        0.851846        -1.65198
LJ         -0.661202         1.10403        -2.51794
LJ          0.121538          1.8154        -2.56422
LJ         -0.855617         1.70146        -1.71956
LJ         0.0247967        0.993243        -1.71193
LJ           1.02797        0.838331        -2.42515
LJ            1.8414         1.88506         2.53669
LJ          0.971386         1.71557        -1.64902
LJ           1.82372        0.858694        -1.78091
LJ           2.52821         2.35021       -0.642979
LJ          -1.54642        -1.89739       -0.730819
LJ          -2.40268        -1.78237        -0.13111
LJ          -1.72546         2.42095       -0.108969
LJ         -0.691134        -2.47558       -0.956532
LJ          0.108378         -1.7521       -0.900864
LJ         -0.480096        -1.69719      -0.0370755
LJ         -0.270739         2.35906        0.197833
LJ          0.738377        -2.51896       -0.973771
LJ           1.77464        -1.63247       -0.936697
LJ          0.606056        -2.00986       0.0965137
LJ           1.69142        -2.29167      -0.0521604
LJ          -2.38236       -0.894901       -0.711786
LJ          -1.80902       0.0308011       -0.588759
LJ           2.45839        0.050745       0.0424194
LJ          -1.62244       -0.859546       0.0531415
LJ         -0.574592       -0.829733       -0.781158
LJ       0.000654773        0.238228       -0.871997
LJ         -0.939301      -0.0821645      -0.0262828
LJ         0.0853089       -0.817148          0.2295
LJ          0.873905       -0.998503       -0.763139
LJ           1.89947       -0.141715       -0.810773
LJ          0.806623       0.0562992      -0.0101633
LJ           1.65677       -0.910416       -0.142312
LJ          -2.39489        0.901112       -0.960898
LJ           -1.6149         1.75954       -0.874364
LJ           2.51166         1.65315        0.166325
LJ          -1.95328        0.971364      -0.0455814
LJ          -0.96838        0.744548       -0.791905
LJ        -0.0329688         1.63654       -0.810042
LJ         -0.825276         1.49372      -0.0837178
LJ        -0.0500542        0.842282       0.0712206
LJ          0.834239        0.937387       -0.614282
LJ           1.69012         1.64773       -0.914029
LJ           0.81585         2.02579      -0.0151951
LJ           1.72622        0.794854       -0.175552
LJ           2.40566         2.53207        0.860307
LJ          -1.47184        -1.69394        0.681723
LJ           2.48526        -1.51434         1.70994
LJ           -1.9769           2.508         1.60151
LJ         -0.757641        -2.49388         1.18069
LJ          0.141328        -1.56841        0.906501
LJ         -0.887202        -1.65008         1.72297
LJ          0.117928        -2.33544         1.71281
LJ          0.975378         2.44273         0.85086
LJ           1.98632        -1.54152        0.707266
LJ          0.965646        -1.75431         1.65671
LJ           1.68061        -2.53327         1.63166
LJ           2.53843       -0.640198        0.991457
LJ          -1.66509      -0.0926213        0.920739
LJ           2.50769       0.0496627         1.91354
LJ          -1.71195       -0.987575         1.58667
LJ         -0.703474       -0.926311        0.965978
LJ         0.0635601     -0.00295592         1.08191
LJ         -0.871415        0.159612         2.07913
LJ         0.0717088       -0.920343         1.82568
LJ           1.04481       -0.988982        0.736737
LJ           1.64903       -0.129594        0.723447
LJ          0.761776      -0.0425911         1.83206
LJ           1.60596       -0.851039         1.70742
LJ           2.46652        0.753165        0.951232
LJ          -1.47447         1.83743        0.779087
LJ           2.44873          1.6555         1.56771
LJ          -1.63508        0.985619         1.57213
LJ         -0.989542        0.615014        0.814475
LJ          0.261028         1.51844        0.821823
LJ         -0.816868         1.60958         1.61226
LJ        -0.0817926        0.845116         1.56458
LJ          0.886529        0.672981        0.860043
LJ           1.70234          1.7689        0.718543
LJ          0.864638         1.55731         1.80007
LJ           1.82065        0.836469          1.7789
