108
#Comment!
LJ         -0.174954        -1.80452        -1.96634
LJ           2.16828       -0.540514        0.412685
LJ         -0.368776        0.547316       -0.329279
LJ          -2.07351         2.21536         2.18163
LJ           2.15502        -2.16191       -0.927586
LJ          0.316809         2.46935         1.90034
LJ           -1.0887      -0.0669729       -0.516486
LJ          -1.44732       -0.211003         1.83051
LJ          -1.10032        -1.85168        -1.52544
LJ          0.503215         2.38561        -2.10207
LJ          -1.99204       -0.982743        0.109521
LJ         -0.355666        0.554067         2.19029
LJ         -0.736834         1.63992       -0.691574
LJ           2.37409        0.732379        -1.98486
LJ           1.86593        -1.35869        -1.39411
LJ           1.19714        0.116099        0.462364
LJ           1.02741         2.16204        -0.78981
LJ           0.93632       -0.130764        -1.67885
LJ          -2.26338         1.67149        -1.87627
LJ          0.442912        0.780148        -2.19506
LJ          0.480323        -1.26523        -1.35117
LJ          -1.66755        0.918135         2.21172
LJ          -2.28086        0.564303        -0.95272
LJ          0.724773        0.662657         1.86543
LJ           1.34649        0.675643        -1.98951
LJ           2.17581         1.94869        0.700985
LJ           1.49152         2.50656         1.58167
LJ          -1.60386       -0.832656       -0.956773
LJ          0.924435         1.76522         2.29501
LJ          0.791139       -0.825704        0.385605
LJ         -0.150821        0.801309         1.17889
LJ          -0.37441         1.34913        0.349318
LJ         -0.891764         2.53209       -0.262848
LJ          -2.02964       0.0582568      -0.0509955
LJ          -2.52504        -2.00694         1.92056
LJ          -2.35203        0.083011         2.31743
LJ          -1.89787        -1.92436       -0.221912
LJ           1.98687       -0.860082         1.91115
LJ          -1.52473        -2.03055        -2.46731
LJ         -0.182069        -1.23916         1.08548
LJ          -1.37065        -1.17419         1.57484
LJ           -1.3524        -0.36878        0.709294
LJ            -1.981         1.93875       0.0659334
LJ           1.19507         2.43532        0.404343
LJ           1.02532         -1.8968        -0.51414
LJ         -0.237824        -1.83815       -0.587931
LJ         -0.651546        -1.03181        -1.35827
LJ           0.91762         1.70134         1.29338
LJ           1.26587        -0.95424       -0.678555
LJ           2.26062         0.97191         1.13878
LJ          -0.42572         -0.2863         1.46671
LJ           2.55942        -2.03811        0.590717
LJ         -0.621933         1.62876         1.52709
LJ         -0.995951         2.19624        -1.71227
LJ          -1.39421        -1.85827        0.568808
LJ           2.53655        -2.34031        -2.10741
LJ          -2.01391         -2.5505           -1.23
LJ         0.0927435       -0.324123        -1.29262
LJ          -2.31805        -1.06947         1.17676
LJ          -1.26306        0.792977         0.92629
LJ          0.784713        -1.80807        0.616479
LJ           1.80127        -1.77549         2.47234
LJ           1.73795        0.158725         1.42791
LJ           1.91792        0.120505       -0.272491
LJ          -1.90611         1.52659         1.36609
LJ          0.807325        -1.18164         1.53944
LJ          -1.06389        -1.12499         -2.3884
LJ         -0.181246         1.63814         2.54004
LJ           2.19019         1.95021        -0.43845
LJ          0.842407        0.333669       -0.492387
LJ           1.99267         2.03258        -1.56204
LJ           2.02748        -1.45303       -0.190205
LJ          -2.34078       0.0340874         1.09744
LJ          0.309266          1.8481       -0.168474
LJ          -1.63452          1.4833        -1.07399
LJ           1.39455         1.39552       0.0816838
LJ          0.307175       -0.169395         2.42852
LJ         -0.959324        -1.20318       -0.272703
LJ          -2.19326        -1.01431         2.33399
LJ           2.19642       -0.820209        -2.20949
LJ          -2.51163       -0.667159       -0.818196
LJ          -1.02493      -0.0498697        -2.29951
LJ         -0.889024          2.1307        0.676283
LJ          0.618223       -0.184201         1.44229
LJ          0.206717         1.31219        -1.22438
LJ         -0.727461         2.46017         2.38689
LJ           -2.4405         1.04099      -0.0483814
LJ           1.75155        -1.36617        0.846604
LJ           1.50673        -2.25009        -1.76743
LJ         -0.210411       -0.201221        0.316703
LJ         -0.462326        -2.15347         1.15989
LJ           1.98177         1.94803         2.38191
LJ          0.775781        -1.81867         2.44643
LJ          0.158256         2.22717        0.766399
LJ             1.231       -0.996122        -2.14265
LJ          -1.34935        0.902823         -0.1836
LJ         -0.728505         1.15144        -1.72814
LJ          0.608524         1.08695        0.636579
LJ         0.0594737       -0.912222       -0.480667
LJ           1.78722       -0.190816        -1.23357
LJ          -1.41096        -2.29305         1.58417
LJ           1.83028        0.987639        -1.05736
LJ          -0.49374        -1.64276         2.15116
LJ           1.62515       -0.101933         2.40023
LJ          -2.11362       -0.109463        -1.78487
LJ            1.7881        0.993558         2.21616
LJ        0.00294049         2.47891        -1.08344
LJ          -2.08457        -1.39705         -1.8334
