108
#Comment!
LJ          0.549418        -1.64442        -1.78169
LJ           2.38274       -0.724861        0.669116
LJ         -0.499667         1.09776        0.385139
LJ          -2.24427        -2.07741         2.14224
LJ            2.4633       -0.908088         1.69478
LJ          0.458175        -1.32418         1.66631
LJ          -1.00292        0.265389       0.0244806
LJ          0.128764       -0.968122        -2.40627
LJ         -0.459457       0.0475429        -1.15849
LJ          0.791396        -2.43983         2.20227
LJ         -0.239004        -1.89634      -0.0400795
LJ         -0.499803       -0.580325         2.04811
LJ         -0.571021         2.28193       -0.405416
LJ          -1.94992         1.39672         2.03092
LJ            1.7245       -0.301203         2.03125
LJ           1.62064        -1.10744        -1.47783
LJ           1.07446         0.92351       -0.121123
LJ          0.575657        0.536339       -0.875158
LJ          -1.33298         -2.4676         1.77033
LJ          0.880185         1.77246        -2.49488
LJ           1.29476        -1.05835         2.42048
LJ          0.191001         2.00132        -1.75249
LJ         -0.229723         0.15463        -2.11169
LJ           1.00527        0.137393         1.10734
LJ           1.68983         2.05425       -0.699387
LJ            1.9183         2.26652         1.20583
LJ           1.78643        -2.01286         2.23805
LJ          -1.16496        0.680481        -1.81865
LJ         0.0611381         1.99494         2.09481
LJ           1.86109        -1.35343       -0.290256
LJ           -1.1498        0.659931         1.06062
LJ         -0.820957         2.22438        0.709459
LJ           1.18567        -1.84852        -0.81011
LJ          -1.78645        0.769022       -0.261837
LJ          -1.84722         -1.0094       -0.196205
LJ           2.37065         1.37681         1.45202
LJ         -0.283892        -2.09781         1.44711
LJ          -2.39024        0.318076         2.15477
LJ          0.274366        -2.41614        -1.00384
LJ         -0.213456        0.554261         1.48099
LJ         -0.635539        -0.90592       -0.282148
LJ         -0.865229       -0.346217        0.971602
LJ         -0.996496        -2.16428         -1.3038
LJ          -2.11509         2.12738         1.21459
LJ           1.76663        -2.11813        0.419363
LJ           2.45474         -2.2466       -0.902885
LJ          -1.11346         -1.5483        -2.26798
LJ           1.15521        -2.12903         1.29039
LJ          -1.52326        -2.28606        -0.34049
LJ          -1.00217        0.412294         2.23026
LJ           2.45666        0.178178         1.17087
LJ          -2.32853        -1.96499        0.149717
LJ          0.126167        0.851819         2.40503
LJ         -0.899681         1.46739        -2.43047
LJ          0.307784         2.16227        0.960083
LJ          -1.23738       -0.311458         -2.0932
LJ           -1.9503         1.47117        -2.06241
LJ           -1.0449         1.88058        -1.19778
LJ          -1.10619        -1.33541         1.82013
LJ          -1.90611        -0.23125        0.498741
LJ            2.1707        -1.80501         1.32665
LJ           -1.8805        -1.13221        0.956329
LJ          0.988574         1.80609         1.59278
LJ           1.40285       -0.224148       -0.741471
LJ          -2.25409        0.945201        0.672575
LJ         -0.412223        -1.31781        -1.49236
LJ         -0.379042        -1.19138        0.704572
LJ           1.01301        0.648973        -1.96987
LJ          -1.16788        -1.75795        0.415665
LJ           1.63483        0.812532        -1.09325
LJ           2.09725         1.04637        -2.56404
LJ           1.42266       -0.930797         1.21373
LJ           1.89616        0.200217        0.121774
LJ          0.968003         2.19147        0.259422
LJ         -0.265607         1.07561         -1.4835
LJ           2.30714         2.14226        0.129855
LJ          0.496202       -0.420904        -1.57212
LJ           1.03188       -0.399068        0.316564
LJ          -2.31441       -0.346031        -1.98277
LJ          -1.62198       -0.293718         1.60372
LJ           2.37683       -0.485502       -0.597817
LJ          0.228457       -0.467995         1.10202
LJ           2.49488         1.30487       -0.455243
LJ           1.70232        -0.12331        -1.82895
LJ         -0.884232         1.04192       -0.722239
LJ         -0.370416        -2.40976        -2.15665
LJ          -2.29378        -1.32513        -1.51059
LJ          0.629088       -0.125704         2.40645
LJ          -1.48116         2.52636        -2.14454
LJ          -1.68661     -0.00316522        -1.05661
LJ          0.729177        -1.53564        0.538192
LJ          -2.06109         2.09365        -1.23639
LJ           2.20116        -2.31353        -1.98102
LJ           1.61965        0.938924         0.80408
LJ           2.31058        -1.27924        -2.44366
LJ          0.433958         1.13281        0.835835
LJ           0.90249         1.49618        -1.26379
LJ          0.131232        0.373656       0.0842243
LJ          0.529333        -1.04546       -0.383669
LJ          -2.51142        0.601582        -1.10544
LJ         -0.782214         1.50009         1.57432
LJ          -1.49181          1.5667         0.25252
LJ           0.23542         1.45575       -0.247019
LJ            1.0872        0.730099         2.03023
LJ          -1.81004       -0.831676         2.35962
LJ           2.27982         2.05252          2.1893
LJ           1.62868         2.05391        -1.91347
LJ          -1.39062        -1.08449        -1.25348
