108
#Comment!
LJ          -2.53869        -2.32466         2.52105
LJ          -1.68588        -1.49766         2.49352
LJ          -2.35442        -1.53549        -1.81909
LJ          -1.63364        -2.45176        -1.71572
LJ         -0.788047         2.39634        -2.42048
LJ         -0.130245        -1.46227         2.49151
LJ         -0.910312        -1.44098        -1.98364
LJ         0.0744379        -2.49183        -1.98268
LJ          0.985192        -2.36126        -2.42109
LJ           1.71659        -1.56099          2.3992
LJ           1.19663        -1.66767        -1.71903
LJ           1.88538        -2.55376        -1.66165
LJ           2.47482         -0.7381        -2.46307
LJ          -1.86828      -0.0681874         2.35033
LJ           2.52312      0.00679303        -1.68056
LJ          -1.61536       -0.507367        -1.66017
LJ         -0.745289       -0.658309        -2.54499
LJ          0.144583      -0.0537486        -2.30986
LJ          -0.79728       0.0680931        -1.73621
LJ          0.164989       -0.937236        -1.59334
LJ          0.780625        -1.00238        -2.49371
LJ           1.68191       0.0162104        -2.40298
LJ          0.898135        0.194225        -1.62132
LJ           1.57264       -0.635419        -1.55071
LJ          -2.46547        0.869592        -2.41121
LJ          -1.77534         2.02972         2.45739
LJ          -2.48761         1.74089        -1.56136
LJ          -1.57536        0.668467        -2.10357
LJ         -0.549107        0.825005         2.55728
LJ         0.0788021         1.76807         2.41793
LJ          -1.27489         1.72467        -1.59654
LJ        -0.0334688         1.09229         -1.6234
LJ          0.933178        0.908667         2.55734
LJ           1.73087         1.89318         2.48921
LJ          0.896902         1.85269        -1.77884
LJ            1.7013        0.977584        -1.81643
LJ           2.53269        -2.54169       -0.760356
LJ          -1.36711        -1.68397       -0.904401
LJ          -2.28694        -1.59044       -0.114115
LJ          -1.66526         2.42587        0.214445
LJ         -0.729877        -2.54183        -1.06679
LJ         0.0419251        -1.85753       -0.689458
LJ         -0.752014        -1.83453     -0.00753786
LJ       -0.00925415         2.32351        0.200732
LJ          0.879536        -2.50284        -1.05193
LJ           1.85081        -1.58417       -0.864931
LJ          0.813806        -1.95139        0.221828
LJ           1.75993        -2.55944        0.141872
LJ          -2.36577       -0.748764       -0.800396
LJ          -1.88032         0.24352       -0.947019
LJ           -2.3952      -0.0135903      0.00797129
LJ          -1.54265       -0.692039       -0.128973
LJ         -0.696379       -0.756106       -0.761998
LJ        -0.0203705      -0.0444587       -0.952467
LJ         -0.665451       -0.122421      -0.0294054
LJ          0.011991        -1.02849        0.168903
LJ          0.987662        -1.09266       -0.726443
LJ           1.92665       -0.254278       -0.636169
LJ          0.731346        0.116276       0.0590753
LJ           1.91883         -1.0396       0.0467591
LJ           2.39136        0.816769       -0.780668
LJ          -1.81711          1.7188       -0.674252
LJ           2.43837         1.73791      -0.0221903
LJ          -1.77932        0.968128        0.143522
LJ           -1.0177        0.773541        -1.00233
LJ        -0.0185786          1.7455        -0.80156
LJ         -0.743278         1.67993       -0.121377
LJ         0.0433422        0.881055       -0.126523
LJ          0.855993         1.05871       -0.980789
LJ           1.67957         1.69813       -0.803938
LJ          0.843197         1.77167      -0.0839902
LJ           1.69122        0.815869        0.115821
LJ           2.49608         2.46985         0.70669
LJ          -1.42919        -1.79383        0.817309
LJ           2.48506         -1.5609         1.63077
LJ          -1.84285         -2.3986         1.64801
LJ         -0.900942          2.4639        0.986165
LJ          -0.07958        -1.51688         1.02436
LJ         -0.912134        -1.61708          1.7692
LJ        -0.0200438        -2.26075         1.74605
LJ          0.769696         2.42842        0.873095
LJ           1.67603        -1.65848         1.00688
LJ          0.808118        -1.61309         1.67053
LJ           1.70319        -2.49826         1.61474
LJ          -2.42739       -0.850765        0.779053
LJ          -1.73997        0.163424         0.80901
LJ           2.38817    -0.000296851         1.68631
LJ          -1.69252       -0.844108         1.57864
LJ         -0.832622       -0.871137        0.961682
LJ          0.148558      -0.0530488        0.830696
LJ         -0.927067      0.00106644         1.78666
LJ         0.0687297       -0.736442         1.78298
LJ           1.04848        -0.90226        0.531935
LJ           1.80697       -0.226797         0.83545
LJ          0.888638      0.00302094         1.69815
LJ           1.53064       -0.704902         1.70368
LJ           2.33442        0.906644         1.07936
LJ          -1.87892          1.6396        0.864769
LJ           2.40948         1.86249         1.56256
LJ          -1.75342        0.857907         1.70106
LJ         -0.921273        0.921296        0.864329
LJ          0.352047          1.4025        0.797527
LJ         -0.656351         1.54455         1.69075
LJ          0.108468        0.738066         1.64138
LJ            1.0492        0.718847         1.00229
LJ           1.64066         1.77145        0.714107
LJ          0.878447         1.80256         1.62221
LJ           1.84246         0.98665         1.94598
