108
#Comment!
LJ          -2.52112        -2.50808         2.42914
LJ          -1.74701        -1.66804         2.54904
LJ          -2.38543        -1.56349        -1.84286
LJ          -1.74118         2.52019        -1.60904
LJ         -0.853083         2.51134        -2.46601
LJ        -0.0427783        -1.97439        -2.45176
LJ          -1.09719        -1.52619        -1.77949
LJ        -0.0418746          2.2214        -1.84475
LJ          0.780014        -2.55357         2.39913
LJ           1.79037        -1.72287        -2.53874
LJ          0.666438        -1.86259        -1.77473
LJ           2.02765          2.4249        -1.74094
LJ            2.4596       -0.836725         2.50884
LJ          -1.75372       0.0385779        -2.52749
LJ           2.44746       0.0852511        -1.87501
LJ          -1.71241       -0.572124         -1.5922
LJ          -1.05344       -0.743967        -2.44256
LJ         -0.103648        -0.18883        -2.50861
LJ         -0.848327       0.0454404        -1.84638
LJ         -0.123209        -1.11177        -1.90743
LJ          0.863425        -1.09316         -2.5126
LJ           1.66064      -0.0217656         2.47009
LJ          0.900934       0.0687434         -1.8326
LJ            1.6523       -0.690956        -1.75801
LJ           2.51797        0.878812         2.52112
LJ          -1.72037         1.89096         2.44776
LJ          -2.38977         1.63321        -1.63891
LJ          -1.60398        0.753699        -1.84752
LJ         -0.607995        0.947872         2.53871
LJ          0.136907         1.75444          2.3205
LJ          -1.04166         1.70136        -1.70794
LJ         0.0983451         1.12029        -1.82092
LJ          0.807439        0.927034         2.48949
LJ           1.79027         1.82615         2.42297
LJ          0.949849         1.97933        -1.88389
LJ           1.61057         1.04902         -1.6838
LJ            2.4486         2.44024       -0.722093
LJ          -1.41837        -1.74029       -0.827967
LJ          -2.31391        -1.90199       -0.159207
LJ          -1.73151         2.43509      -0.0275496
LJ         -0.813432         2.55868        -1.00888
LJ          0.173347        -1.65156       -0.829467
LJ         -0.689695        -1.97242       -0.144006
LJ         -0.182684         2.26557      -0.0195966
LJ          0.814547        -2.51293       -0.946028
LJ           1.92344        -1.79851        -1.09237
LJ          0.703824        -1.91331        0.236436
LJ           1.69293         -2.4693      -0.0782242
LJ          -2.46622       -0.880669       -0.762101
LJ          -1.93181       0.0775949       -0.812956
LJ          -2.52079        0.139526       -0.010008
LJ           -1.7696       -0.848242        0.148928
LJ         -0.606078       -0.833245       -0.683308
LJ        -0.0950014        0.281156        -1.01394
LJ         -0.671258       0.0674753      -0.0256142
LJ        -0.0737324         -0.7055         0.18891
LJ          0.907118       -0.951221       -0.659154
LJ            1.8577      -0.0644273       -0.626797
LJ          0.682382       0.0590012       0.0782049
LJ            1.7834        -1.25529      -0.0977975
LJ          -2.53288         0.99091       -0.793695
LJ          -1.58856         1.76981       -0.814252
LJ           2.44729         1.70001      -0.0535717
LJ          -1.83021         1.13204        0.316782
LJ          -1.07235        0.733123       -0.856857
LJ          0.132117         1.66772       -0.972999
LJ         -0.831279          1.5383      -0.0788571
LJ         0.0568543        0.938987       -0.225305
LJ           0.94846        0.928082       -0.792365
LJ           1.65763          1.7696       -0.854538
LJ          0.776674          1.9528     -0.00400773
LJ           1.61646        0.809291      -0.0778835
LJ           2.43792         2.34954        0.724204
LJ          -1.36569        -1.76891        0.740012
LJ           2.55104        -1.59402         1.78149
LJ          -2.08971        -2.40336         1.40502
LJ         -0.785006         2.47287         1.04161
LJ         0.0898201        -1.46881        0.963554
LJ         -0.938324        -1.85377         1.81449
LJ         0.0602184        -2.34461         1.68974
LJ          0.788986         2.29172         1.00073
LJ           1.95264        -1.58589        0.869869
LJ           1.02547        -1.80837         1.75635
LJ           1.75175         -2.4508         1.62988
LJ           2.51673       -0.665732        0.858141
LJ          -1.67367       0.0981878        0.812647
LJ           2.43207         0.05825         1.73683
LJ          -1.69694       -0.749177         1.76587
LJ         -0.760812        -1.06942        0.993532
LJ          0.100857      -0.0899488         1.06755
LJ         -0.928868        0.155203         1.98065
LJ          0.157677       -0.928765         1.86041
LJ           1.05515        -1.03948        0.784248
LJ           1.57397      -0.0974754        0.626893
LJ          0.732635      -0.0101666         2.02289
LJ           1.54411        -0.78292         1.79794
LJ           2.28083        0.832771        0.742579
LJ          -1.68534         1.86103         0.89428
LJ           2.46277         1.54677         1.47284
LJ          -1.81605        0.999929         1.57302
LJ         -0.855511        0.706291        0.831119
LJ          0.224508          1.4587        0.789109
LJ         -0.887529         1.49483         1.55774
LJ          0.204862        0.881896         1.62422
LJ           1.11856         0.69519        0.995517
LJ           1.52488         1.64849        0.628664
LJ          0.898377         1.53639         1.66856
LJ           1.63192        0.886041         1.82697
