108
#Comment!
LJ            2.5139        -2.48224         2.49008
LJ          -1.70919        -1.81759         2.46741
LJ          -2.50375        -1.68214        -1.54576
LJ          -1.86104        -2.46962        -1.81487
LJ          -1.03714         2.44733         2.44559
LJ         -0.170721        -1.91313         2.55455
LJ         -0.933354        -1.52195        -1.70072
LJ         0.0595109         2.37602        -1.71366
LJ          0.898616         2.47107        -2.41731
LJ           1.80456        -1.69521         2.49176
LJ          0.841112        -1.61131        -1.58384
LJ           2.01148        -2.51512        -1.59987
LJ           2.47971       -0.769856        -2.51516
LJ          -1.87399        0.117351         2.50411
LJ          -2.50672       0.0877316        -1.76571
LJ          -1.65888       -0.640046        -1.35999
LJ          -1.21019        -0.89502         2.53072
LJ         -0.087426       -0.181299         2.53035
LJ         -0.817138        0.169583        -1.80243
LJ         0.0975779       -0.961943        -1.77536
LJ          0.998583       -0.985769        -2.50355
LJ           1.69656       0.0545834         2.52588
LJ          0.792813      -0.0130046        -1.54797
LJ           1.78037       -0.824105        -1.71468
LJ          -2.54511         1.06605         2.45471
LJ          -1.79714         1.83749         2.50283
LJ           2.56313         1.65125        -1.76487
LJ          -1.63165        0.956549        -1.88517
LJ         -0.774117         1.10809          2.4791
LJ         0.0554497         1.71764         2.41406
LJ         -0.735997         1.57027        -1.80535
LJ        -0.0422106        0.809818        -1.79686
LJ          0.832283        0.865565        -2.37388
LJ           1.82118         1.85635         2.44873
LJ           1.01102         1.75525        -1.54403
LJ           1.75472        0.827075        -1.76296
LJ          -2.40634         2.52708       -0.716492
LJ          -1.57182        -1.86347       -0.581726
LJ           2.54395        -1.76713       -0.112162
LJ           -1.6328         2.46264       0.0453514
LJ         -0.806749         2.43959        -1.01725
LJ         0.0635868        -1.72985       -0.929219
LJ          -0.78979        -1.78529        0.109724
LJ         -0.244712         2.31087      -0.0285646
LJ          0.902105        -2.49768       -0.962351
LJ           1.70401        -1.61271       -0.878454
LJ          0.728469        -2.01212       0.0691655
LJ           1.62049        -2.39439       -0.173557
LJ            2.5088        -0.87912       -0.710487
LJ          -1.86906        0.125812       -0.731857
LJ           2.52218      -0.0377154       0.0101003
LJ          -1.71018       -0.787867      0.00718195
LJ         -0.757194       -0.762599        -0.79834
LJ        -0.0172528        0.227183        -0.92906
LJ         -0.797148      -0.0512502      -0.0684789
LJ        0.00200314       -0.777224        0.066128
LJ           0.81049       -0.891753       -0.709616
LJ           1.71488      -0.0848696        -0.84404
LJ          0.891728       0.0302208       -0.119522
LJ           1.62323       -0.961164       -0.128807
LJ          -2.51249         1.02725       -0.891762
LJ           -1.6252          1.7514        -1.12791
LJ          -2.52622         1.73664        0.073699
LJ          -1.80292        0.825853       0.0687168
LJ          -1.03706        0.801553       -0.840489
LJ        -0.0338285          1.5147       -0.952487
LJ         -0.883465         1.46147      -0.0744961
LJ         0.0596987         0.93677        0.116003
LJ          0.893292         1.04206       -0.771595
LJ           1.82666         1.67243        -1.01264
LJ          0.849677         1.94021      -0.0196703
LJ           1.76946        0.859598       -0.122017
LJ           2.38559        -2.55687        0.927129
LJ          -1.47129        -1.65664        0.869237
LJ            -2.563        -1.49114          1.8081
LJ          -2.02876         2.48597         1.69423
LJ         -0.669871        -2.52433        0.957531
LJ          0.223517        -1.83046        0.968167
LJ         -0.923904        -1.61422         1.74596
LJ         0.0733101        -2.43905         1.76892
LJ           1.17624        -2.54153        0.892491
LJ           1.77775        -1.49812        0.911228
LJ          0.900495        -1.73465         1.69681
LJ           1.55229        -2.44098         1.85029
LJ           2.50711       -0.585802        0.993668
LJ          -1.86826        0.104378        0.863437
LJ            2.5409       0.0409198         1.84444
LJ          -1.66447       -0.851223          1.5977
LJ         -0.693214       -0.861533         0.92599
LJ          0.098319        -0.10307        0.937322
LJ         -0.883163        0.133901           2.048
LJ          0.164842       -0.912843         1.63832
LJ          0.966066       -0.835129        0.863989
LJ           1.62916       -0.115575        0.538189
LJ          0.739817       -0.148879         1.85086
LJ           1.75499       -0.814298         1.72116
LJ           2.40493        0.792212        0.683994
LJ          -1.52896         1.86703        0.824932
LJ          -2.53481         1.59481         1.55173
LJ          -1.53731        0.875726         1.68121
LJ         -0.977394         0.70335        0.759548
LJ         0.0980899         1.68079        0.905552
LJ         -0.754928         1.70341         1.43855
LJ        -0.0451934        0.882534         1.64449
LJ          0.820692        0.674989        0.968559
LJ           1.84835         1.67227        0.786859
LJ          0.992376         1.63478         1.77749
LJ           1.75269        0.789027         1.55152
