108
#Comment!
LJ         -0.643071         2.39104        0.816724
LJ          -2.46207        -1.58457       -0.852824
LJ        -0.0570157        -1.08146         1.56665
LJ          0.532834        -2.13062       -0.763649
LJ         -0.719114        -1.92872         1.52156
LJ           2.20634       -0.281106        0.545222
LJ            0.9041        0.888668       -0.266384
LJ           1.03228        -0.99204        -2.18475
LJ           1.62485         2.53043         1.21904
LJ          0.965372        -1.21766       -0.348222
LJ          -1.29108        0.178286         1.85436
LJ          -1.23789         1.10262        -2.50391
LJ          0.402306        0.246111         1.90688
LJ           2.49994         1.56792        0.833465
LJ          -2.29437         2.24868       -0.546795
LJ          -1.44574         1.39123        -0.74912
LJ          -1.58295        -1.73985         2.22553
LJ           1.26637        0.824466        -1.31845
LJ           1.03938       -0.634101         1.50796
LJ         -0.382638         1.90406        -1.25013
LJ          0.955724        -1.60737        0.948151
LJ         -0.746748           1.017        -1.59348
LJ         0.0655571         2.50259        -1.97961
LJ          -1.40912        -1.08804        -1.37497
LJ          0.215282        -2.21164         1.13916
LJ         -0.850251        -1.05321          2.1807
LJ           1.86113        -1.94467        -2.03185
LJ          -1.02967        0.014889        -1.01408
LJ          -2.03508        0.618713       -0.439532
LJ        -0.0186979        -1.23955       -0.475946
LJ         -0.732417         0.19632          -2.361
LJ          -2.00462       -0.269542         1.08581
LJ          -1.78515        -0.54767          2.4131
LJ           1.84873         1.37751         1.63643
LJ           1.90083        -1.18203         1.30873
LJ          -1.56062          1.7752        0.283398
LJ          0.822065         2.43746        0.384536
LJ          0.953482        -1.72975         1.98268
LJ          -1.92878        -2.31848        -1.73571
LJ          0.432658         0.21846        0.887455
LJ          -0.89013        0.677732      -0.0638882
LJ           1.51891        -2.48662       -0.598745
LJ         -0.914183        -1.87403        -2.04462
LJ          0.808237         2.17485         2.02544
LJ           1.76839       -0.946904         2.30759
LJ          0.936402         1.10335         2.52268
LJ            1.3568        0.466557        0.634919
LJ          -1.64677        -2.31208        0.314626
LJ          -2.11057       -0.526487       -0.604735
LJ        -0.0100135        -1.89146         2.48912
LJ          -1.23269        -1.43381       -0.371047
LJ          -2.22429        -1.09207        0.216982
LJ        -0.0500067       -0.110628       -0.179268
LJ           2.11395        -2.04304         2.06793
LJ        -0.0700976         1.60609        -2.54894
LJ          0.580521         1.19999          1.3212
LJ           1.78986         -1.3791        0.237028
LJ          -1.29487       -0.923254         1.02812
LJ           2.12134        0.246493        -0.81701
LJ          0.660405         1.59025        -1.72013
LJ           1.85323         1.94588        -2.49751
LJ            1.9401       -0.807907       -0.691964
LJ          -1.40019        -2.49319       -0.680378
LJ        -0.0663583         1.92702         1.63794
LJ           1.47762        -1.62568        -1.09512
LJ          -1.32506         2.00821        -1.84719
LJ           1.64832         1.68075        -0.31351
LJ          -1.39225         1.55733         1.39401
LJ           2.16543        0.869918       0.0919093
LJ         -0.671809        -0.79346        0.336251
LJ          -1.49377       -0.165853        0.119792
LJ          -1.90525         2.19235         2.48565
LJ         -0.934246          2.0833         2.18514
LJ         -0.451723        0.921937        0.915063
LJ          0.398908       -0.800185        0.361645
LJ           2.34024       -0.311822         1.81863
LJ          -2.17138         2.33087         1.36254
LJ            1.3594      -0.0368619        -2.01808
LJ          -2.31471        -1.26437        -1.98944
LJ          0.170691         1.61394        0.341048
LJ           1.47572        0.328059          1.6216
LJ          -1.72772        0.749937        -1.54386
LJ         -0.388547       -0.669611        -1.37585
LJ         0.0249859         1.04803       -0.698414
LJ         -0.530984         2.29481       -0.156947
LJ          -2.33175         1.36824        -2.09347
LJ          -2.00762        0.468964         2.45564
LJ           2.35049        0.371546        -1.93649
LJ         -0.470103        -1.81212        0.331823
LJ          -1.95953       -0.265158        -1.71422
LJ           1.46069         1.64364        0.670195
LJ         -0.459527        0.912862         1.97266
LJ          -2.21901         -1.6798         1.15955
LJ          -2.44511        0.523584         1.33506
LJ          0.602669         1.94054       -0.726627
LJ         -0.542053        -2.03234        -1.10589
LJ          0.241983        0.501386        -1.77879
LJ          0.366225        -1.49258        -1.69734
LJ           1.30693       0.0247227       -0.404864
LJ           -2.3724         1.42612         2.01704
LJ            2.4509         1.34584        -1.02267
LJ           2.22138        -2.37896        0.179369
LJ         0.0861329       -0.574879         2.43447
LJ           1.01344         2.55217        -1.69212
LJ         -0.574408       -0.201464         1.13506
LJ          -1.51902         0.73718        0.926355
LJ           0.66145       -0.352382        -1.29563
LJ           2.02408       -0.706091        -1.79651
