108
#Comment!
LJ          -2.53115        -2.25629         2.32826
LJ          -1.70462        -1.59574         2.35487
LJ          -2.22362        -1.54523        -1.69498
LJ          -1.64502        -2.40192        -1.74657
LJ         -0.770599         2.42967         2.44045
LJ         -0.137652        -1.79493        -2.49349
LJ          -1.15753         -1.5442         -1.8074
LJ          0.133589         2.40168        -1.94389
LJ          0.946652        -2.55552          2.5252
LJ           1.76956        -1.59539         2.42947
LJ          0.936312        -1.93275        -1.69199
LJ           2.00459         2.44546        -1.86086
LJ          -2.47982       -0.846082         2.40332
LJ          -1.80216       0.0108139          2.4659
LJ          -2.55457       0.0518346        -1.80226
LJ           -1.7625        -0.55829        -1.58485
LJ          -1.08834       -0.838712        -2.49484
LJ        -0.0445876       -0.163001        -2.38006
LJ         -0.999834       0.0176693        -1.77841
LJ         0.0452485        -1.06837        -1.68578
LJ          0.952091       -0.958828         2.52571
LJ           1.64891      -0.0420575        -2.48441
LJ          0.924907        0.229987        -1.76483
LJ           1.65511       -0.637899        -1.72417
LJ          -2.46901         1.03731        -2.48639
LJ          -1.71417         1.95785         2.36126
LJ           2.53376         1.55857        -1.57177
LJ           -1.7174         0.80341        -1.88633
LJ         -0.465449        0.830505         2.39923
LJ          0.180726         1.65426         2.36087
LJ          -1.22868         1.65279        -1.83898
LJ         0.0506862         1.13208        -1.87076
LJ          0.977468        0.907427         2.51264
LJ           1.85185         1.77125         2.54733
LJ          0.971367         1.78605        -1.86649
LJ           1.68399        0.977838        -1.68431
LJ           2.55536         2.32087       -0.800153
LJ           -1.4115        -1.77344       -0.801931
LJ          -2.25777        -1.71105      -0.0819017
LJ          -1.61901         2.53827        0.132246
LJ         -0.557205        -2.51827        -1.03159
LJ         0.0516432        -1.64998       -0.797727
LJ         -0.726963        -2.08284      -0.0706224
LJ        -0.0735833         2.33029        0.071136
LJ          0.851648        -2.54454       -0.839209
LJ           2.01711        -1.73923       -0.942691
LJ          0.811113         -1.7215        0.340888
LJ           1.74783         2.56382      -0.0487037
LJ          -2.28788       -0.947659       -0.801736
LJ          -1.91216       0.0488085        -0.80855
LJ          -2.48145       0.0173037        0.198168
LJ          -1.61893       -0.695735      -0.0220822
LJ          -0.72513       -0.805526       -0.846136
LJ         -0.164135      -0.0434294        -1.14101
LJ         -0.773637       0.0250563      -0.0208643
LJ         0.0653483       -0.692542       0.0683229
LJ          0.973492         -1.2151       -0.878588
LJ           1.95152       -0.138861       -0.621347
LJ          0.953231       0.0595749        0.110851
LJ           1.96561       -0.968171      -0.0592109
LJ           2.45382        0.917201       -0.813982
LJ          -1.61635          1.7567       -0.762903
LJ           2.32958         1.58915       0.0429732
LJ          -1.81898         1.02114        0.314781
LJ          -1.00079        0.771447       -0.937091
LJ         0.0466082          1.7144        -0.87618
LJ         -0.858766         1.57846       -0.233748
LJ        -0.0946412        0.817087       -0.185282
LJ           1.06789         0.79579       -0.827924
LJ           1.69479         1.64088       -0.757138
LJ          0.871364         1.72228       -0.168533
LJ           1.65077        0.856106      -0.0605013
LJ            2.4998         2.44646        0.678214
LJ          -1.27602        -1.83543        0.833731
LJ          -2.51835        -1.53663         1.52076
LJ          -1.87191        -2.29206         1.53194
LJ          -0.71234          2.4449        0.944144
LJ        -0.0334669        -1.53835        0.875093
LJ         -0.867498        -1.77851          1.9311
LJ         0.0186747        -2.30346         1.66029
LJ          0.810243         2.49525         1.10292
LJ           1.71689        -1.59231        0.887529
LJ           0.89349        -1.67036         1.67743
LJ           1.79084        -2.42331         1.58894
LJ          -2.49572       -0.856865        0.712272
LJ          -1.55203       0.0071409        0.823322
LJ           2.50174      -0.0296768         1.74467
LJ          -1.78225       -0.664089         1.60348
LJ         -0.842908       -0.848647         1.08771
LJ          0.221957       -0.046413          1.0028
LJ         -0.904939        0.078746         1.82817
LJ           0.22081       -0.784072         1.77059
LJ          0.904769       -0.838857        0.780545
LJ           1.75208       -0.220255        0.782405
LJ          0.689388       0.0386202         1.90027
LJ           1.55817       -0.872012         1.60758
LJ           2.19061        0.808822        0.935031
LJ          -1.67008         1.90966         1.01035
LJ            2.4079         1.69716         1.62659
LJ           -1.8983        0.820207         1.43011
LJ         -0.841729        0.847499        0.632895
LJ          0.401831         1.49694        0.803951
LJ         -0.938877         1.45965         1.58699
LJ         0.0944371        0.872855         1.54263
LJ           1.15392        0.665681         1.12702
LJ           1.44591         1.69433         0.62608
LJ           1.14646         1.69322         1.69628
LJ           1.80391        0.963385         1.89264
