108
#Comment!
LJ          -2.53969        -2.27549         2.36573
LJ          -1.71044        -1.64793         2.47035
LJ          -2.25342        -1.53839        -1.69849
LJ          -1.74671        -2.51713        -1.64407
LJ         -0.690266         2.39243         2.50596
LJ       -0.00118453        -1.82632        -2.51695
LJ          -1.15497        -1.54709        -1.74977
LJ         -0.080361         2.27704        -1.82784
LJ          0.867035        -2.52121         2.55004
LJ             1.743        -1.63981         2.50947
LJ          0.897277        -1.87847         -1.6909
LJ           1.96624         2.40553        -1.85455
LJ           2.55093       -0.903565         2.30801
LJ          -1.80784       0.0984574        -2.56493
LJ           2.41856        0.085835        -1.80455
LJ           -1.8292       -0.550511         -1.6685
LJ          -1.09307       -0.808205        -2.42194
LJ       -0.00940539       -0.290324        -2.45376
LJ          -1.01936        0.027754        -1.71988
LJ        -0.0577037        -1.06371        -1.68304
LJ          0.859043       -0.980738        -2.50924
LJ           1.62777       -0.039908        -2.55933
LJ          0.928976        0.160594        -1.74708
LJ           1.63476       -0.705142        -1.64975
LJ          -2.46153         0.91258        -2.54407
LJ          -1.65328         1.94591         2.44132
LJ          -2.53218         1.64411        -1.62373
LJ          -1.71508        0.884869        -1.81427
LJ         -0.523432        0.899343        -2.53023
LJ          0.153332         1.57255          2.3947
LJ          -1.13217         1.60066        -1.81408
LJ          0.158578         1.14756        -1.80331
LJ          0.900936        0.886363         2.54725
LJ           1.80135         1.71997         2.49943
LJ            0.9876         1.85013        -1.90031
LJ           1.73619         1.08824        -1.66842
LJ            2.4968         2.35556       -0.694308
LJ          -1.45285        -1.79602       -0.763741
LJ          -2.34461        -1.74772      -0.0909524
LJ          -1.72632         2.38785       0.0974894
LJ         -0.670323        -2.48462        -1.04878
LJ         0.0548666         -1.5514       -0.783558
LJ         -0.814287        -2.04792       -0.126734
LJ          -0.15135         2.26944       0.0658185
LJ          0.897554        -2.51061       -0.814366
LJ           2.00713        -1.70418        -1.02182
LJ          0.794574        -1.81873        0.382196
LJ           1.74921         2.54697       -0.110328
LJ          -2.34657       -0.895611       -0.768813
LJ          -1.85251       0.0155036       -0.768419
LJ          -2.46247        0.137747        0.118383
LJ          -1.57115       -0.660729        0.086091
LJ         -0.709389       -0.865817       -0.762259
LJ         -0.115532       0.0515946        -1.04555
LJ         -0.746997      -0.0327962      -0.0820655
LJ         0.0313825       -0.651163       0.0218359
LJ            1.0502        -1.27009       -0.830295
LJ            1.9327        -0.16178       -0.571674
LJ          0.889526       0.0357032        0.151726
LJ           1.99415        -1.08674      -0.0363371
LJ           2.50278        0.951654       -0.805991
LJ          -1.65496          1.7651        -0.87505
LJ            2.3752          1.6602      -0.0726728
LJ           -1.8635         0.95657         0.19874
LJ          -1.04794        0.711321       -0.844273
LJ           0.05828         1.69076       -0.943588
LJ         -0.869964         1.56506       -0.292277
LJ        -0.0704842        0.872519       -0.213304
LJ           1.05976        0.846322       -0.817752
LJ           1.66667         1.70201        -0.72904
LJ          0.749469         1.89877       -0.211497
LJ           1.76996        0.782061      -0.0409727
LJ           2.41268         2.41341         0.72878
LJ          -1.26102        -1.80995        0.763491
LJ           2.51293        -1.40412         1.49487
LJ          -1.89369        -2.35483         1.48826
LJ         -0.787552         2.48434        0.921961
LJ         0.0395481        -1.47485        0.962789
LJ          -0.87872        -1.81748         1.89889
LJ         0.0456075        -2.40568         1.78148
LJ          0.691404         2.37521         1.05068
LJ           1.69242        -1.68597        0.912694
LJ          0.955322        -1.73471          1.6747
LJ           1.78009        -2.49866         1.64171
LJ          -2.46911       -0.708841        0.695147
LJ          -1.52961      -0.0181173        0.827457
LJ           2.45748       -0.033546         1.70412
LJ          -1.79013        -0.73324         1.71718
LJ         -0.870082       -0.984557         1.03721
LJ          0.201874       -0.266073        0.975113
LJ         -0.968988        0.166381         1.88785
LJ          0.252607       -0.949554         1.76541
LJ          0.937766       -0.868821        0.753135
LJ           1.75551       -0.138456        0.716099
LJ          0.590915       0.0598535         2.02375
LJ           1.49481       -0.800188         1.74038
LJ           2.26071        0.883383        0.841981
LJ          -1.60345         1.86888         1.01208
LJ           2.41908          1.7202         1.57291
LJ          -1.87367        0.862154          1.4535
LJ         -0.739485        0.766356        0.601632
LJ           0.34226         1.51285        0.817324
LJ         -0.921779         1.41045         1.58776
LJ         0.0208947        0.864426          1.5615
LJ           1.16388        0.689551         1.00932
LJ            1.5018         1.68973        0.616768
LJ           0.98304         1.55494         1.67469
LJ           1.73004        0.908739         1.91814
