108
#Comment!
LJ          -2.54909        -2.36154          2.3831
LJ          -1.77959        -1.58835         2.46237
LJ          -2.37778        -1.53553        -1.69591
LJ          -1.71445        -2.54716        -1.60293
LJ         -0.811661         2.38192        -2.56108
LJ       -0.00269111        -1.86324        -2.44831
LJ          -1.10984        -1.54811         -1.8019
LJ        -0.0853174         2.19527        -1.86258
LJ          0.777384         2.53104         2.54622
LJ           1.78685        -1.67138         2.49447
LJ          0.797359         -1.9294        -1.71577
LJ           1.99579         2.34162        -1.83517
LJ           2.51876       -0.820301          2.4915
LJ          -1.70475       0.0886986        -2.53254
LJ            2.5108        0.128957        -1.80627
LJ           -1.8479       -0.512642        -1.66287
LJ          -1.00765       -0.770589         -2.3582
LJ        -0.0549906       -0.183531        -2.48028
LJ         -0.983305       0.0568596        -1.78298
LJ         -0.114377        -1.14462        -1.80144
LJ          0.778042        -1.08531         2.56258
LJ           1.72477       0.0247049         2.47759
LJ          0.916283        0.034185        -1.85976
LJ           1.69569        -0.66326        -1.71857
LJ          -2.54103        0.939275        -2.50224
LJ          -1.66995         1.82862         2.37809
LJ          -2.40723         1.59524        -1.63088
LJ          -1.72221        0.898651        -1.76383
LJ         -0.466978        0.895508        -2.54962
LJ          0.128945         1.69933         2.37201
LJ          -1.16953         1.73802        -1.80083
LJ           0.14518         1.07389        -1.78299
LJ          0.890807        0.952655         2.53422
LJ           1.68142         1.75848         2.38864
LJ          0.886141         1.94282        -1.84891
LJ           1.66567         1.09691        -1.64567
LJ           2.51888         2.38118       -0.752944
LJ          -1.54823        -1.64656       -0.783184
LJ          -2.37262        -1.78591       -0.127229
LJ          -1.80034         2.37623      -0.0127222
LJ         -0.695222         2.53784        -1.04111
LJ          0.154578        -1.68732       -0.772841
LJ         -0.705532        -1.93304       -0.217634
LJ         -0.255221         2.30695       0.0895766
LJ          0.855041        -2.55649       -0.931869
LJ           1.79345        -1.76338        -1.04938
LJ          0.785059        -1.91496        0.280799
LJ           1.67761        -2.49279       -0.121228
LJ          -2.46308       -0.941884       -0.740978
LJ          -1.91743      -0.0659159       -0.715536
LJ          -2.51951        0.210997       0.0455006
LJ          -1.71148       -0.681506        0.155924
LJ         -0.711092       -0.853074       -0.705498
LJ         -0.108044        0.187155        -1.01063
LJ         -0.658842         0.10457      -0.0582763
LJ      -0.000165527       -0.672349        0.101223
LJ          0.982105        -1.10195       -0.864631
LJ           1.88047       -0.229275       -0.574391
LJ          0.743836      0.00554995       0.0910806
LJ           1.93119        -1.10031       -0.087195
LJ           2.55113        0.902081       -0.804996
LJ          -1.66039         1.87478       -0.864743
LJ             2.417         1.71027      -0.0566065
LJ          -1.96061         1.09105        0.388649
LJ          -1.09299        0.725057       -0.909651
LJ          0.105285         1.65752       -0.930814
LJ         -0.815372         1.49571       -0.203692
LJ         0.0105912        0.874183       -0.163412
LJ           1.00332        0.914908       -0.705237
LJ           1.65478         1.76615       -0.675726
LJ          0.777541         1.95098      -0.0707348
LJ           1.72552        0.818723      -0.0890098
LJ           2.45276         2.40411        0.656311
LJ           -1.3674        -1.78857        0.656914
LJ           2.50111        -1.35996         1.64582
LJ          -1.97942         -2.3515         1.46578
LJ         -0.747239        -2.54104        0.981377
LJ          0.149848         -1.4932        0.976024
LJ          -0.89662        -1.79388         1.87756
LJ         0.0295542        -2.35515         1.70208
LJ          0.702587         2.35084        0.998944
LJ           1.80889        -1.64332        0.914385
LJ          0.939346        -1.85032         1.76141
LJ           1.83347        -2.42082         1.69547
LJ           2.51949       -0.623302        0.798663
LJ          -1.57465       0.0933862        0.830043
LJ           2.53627       0.0459078         1.74455
LJ          -1.78206       -0.742186         1.74714
LJ         -0.829983        -1.04912         1.07954
LJ          0.184321       -0.186655         1.08848
LJ         -0.949776        0.201643         1.93251
LJ          0.141359       -0.892071         1.85323
LJ           1.05002       -0.933569        0.838791
LJ           1.65114        -0.14678        0.601753
LJ           0.56881       0.0229576         1.93643
LJ           1.55011        -0.88205         1.79077
LJ           2.23541        0.793492        0.858717
LJ          -1.57314         1.93518         1.03627
LJ           2.41174          1.6565          1.5121
LJ          -1.84747        0.858863         1.53958
LJ         -0.813686         0.75421        0.773405
LJ          0.274862         1.38707        0.851944
LJ         -0.808808         1.39543         1.60446
LJ          0.124095        0.858744         1.67293
LJ           1.21041        0.739456        0.979121
LJ           1.48811         1.75876        0.646713
LJ           0.97091         1.54751         1.55747
LJ           1.68397        0.763464         1.85958
