108
#Comment!
LJ           2.51966        -2.42515          2.5546
LJ           -1.7563        -1.67563         2.42452
LJ           2.50731        -1.72745        -1.70591
LJ          -1.81866        -2.43151        -1.67067
LJ         -0.814889         2.52187         2.49077
LJ        0.00229522        -2.04929        -2.48065
LJ          -1.08023        -1.49347        -1.59796
LJ          0.021318         2.28531        -1.76161
LJ          0.937574         2.46974         2.51125
LJ           1.74712        -1.80099         2.53806
LJ          0.911226        -1.78422        -1.74993
LJ           1.89736        -2.56184        -1.69338
LJ           2.45902       -0.851733         2.55941
LJ          -1.88826      -0.0325311         2.55833
LJ           2.49359        0.137154         -1.9906
LJ          -1.74083       -0.522848        -1.49123
LJ          -1.19593       -0.805404         -2.4554
LJ        0.00956535       -0.177158         -2.4834
LJ         -0.716899       0.0525917        -1.80762
LJ         -0.114871        -1.13928        -1.90799
LJ          0.846085        -1.15098        -2.54761
LJ            1.6293     -0.00582936        -2.52087
LJ          0.812422        0.109866        -1.78474
LJ           1.68321       -0.741227        -1.70924
LJ          -2.44649        0.999623         2.47215
LJ          -1.70358         1.91491         2.56172
LJ          -2.50917         1.70685        -1.66266
LJ           -1.5527        0.828205         -1.8327
LJ         -0.633804         1.06032         2.50644
LJ          0.164502         1.80631         2.50269
LJ         -0.913205         1.63181        -1.74286
LJ          0.057875         1.03593         -1.8324
LJ          0.946838        0.949348        -2.54649
LJ           1.89938         1.84373         2.47103
LJ          0.915888         1.84134        -1.63276
LJ           1.67918        0.907298        -1.67655
LJ           2.33656         2.36144       -0.740818
LJ          -1.53363        -1.78263       -0.760739
LJ          -2.43903        -1.83882      -0.0752797
LJ          -1.61671         2.52689      -0.0174079
LJ         -0.852011        -2.55622        -1.09035
LJ          0.136308        -1.74868        -0.89023
LJ         -0.538274        -1.79788      -0.0239202
LJ         -0.225527         2.41254       0.0537724
LJ          0.887046         -2.5227       -0.880005
LJ            1.7563        -1.73185       -0.964596
LJ           0.65648        -1.97691        0.124403
LJ           1.67151        -2.37388      -0.0241934
LJ          -2.53169       -0.933595        -0.69095
LJ          -1.90772         0.13894       -0.756779
LJ          -2.54785       0.0908127       0.0545748
LJ          -1.69215       -0.950896      -0.0287343
LJ         -0.590738       -0.889145       -0.645119
LJ          -0.09523        0.269445        -1.00245
LJ         -0.763742      -0.0506005      -0.0998787
LJ          0.148887       -0.725621        0.249456
LJ          0.802791       -0.955899       -0.634949
LJ           2.04801       -0.109375       -0.871558
LJ           0.68277        0.102375      -0.0312938
LJ           1.74235        -1.00672       -0.127317
LJ          -2.47107         1.04942       -0.867704
LJ          -1.54316         1.81184       -0.829384
LJ           2.38142         1.77955       0.0335673
LJ          -1.96156        0.972947        0.111883
LJ          -1.06349        0.662601       -0.952436
LJ         0.0471446          1.8446       -0.885064
LJ         -0.781604         1.56124      -0.0718141
LJ        -0.0244944        0.866498     -0.00260082
LJ          0.756563        0.959118       -0.687869
LJ           1.61678         1.61917       -0.896881
LJ          0.794391         2.00686       -0.119125
LJ            1.6947        0.833894       -0.200718
LJ           2.46101         2.37228        0.859177
LJ          -1.42376        -1.86601        0.733297
LJ           2.55549        -1.62684         1.80525
LJ          -2.00091         -2.4895         1.64125
LJ         -0.687529         2.53324         1.12104
LJ          0.124273        -1.60666        0.931377
LJ         -0.891066        -1.79197         1.72891
LJ         0.0971909        -2.36368         1.73311
LJ          0.890167          2.2985        0.949189
LJ           1.99769        -1.56695        0.716695
LJ          0.978528        -1.78897         1.73453
LJ           1.68277        -2.50781         1.67456
LJ            2.4947       -0.601948        0.932885
LJ          -1.73239       0.0548635         0.80863
LJ           2.51133      -0.0440564         1.75078
LJ          -1.88691       -0.812955         1.73429
LJ         -0.727668       -0.882875            1.01
LJ        -0.0251062      -0.0768931        0.976514
LJ         -0.839318         0.19359         1.93903
LJ          0.246961       -0.949232         1.84505
LJ           1.03336        -1.04715        0.683236
LJ           1.60181       -0.195691        0.732052
LJ          0.842942       0.0374906         1.94003
LJ            1.5501       -0.888442         1.77612
LJ            2.3494         0.70401        0.808105
LJ           -1.4328         1.99298        0.808251
LJ           2.46037         1.66612         1.58278
LJ          -1.78125         0.94183         1.60756
LJ         -0.852574        0.651259        0.864385
LJ           0.24909         1.48581        0.715247
LJ         -0.857518         1.62491         1.59618
LJ        -0.0245333        0.812004         1.55928
LJ          0.999687        0.773377         0.84074
LJ           1.58265         1.68971        0.573208
LJ          0.860462         1.61339         1.72063
LJ           1.86689        0.820026         1.80401
