108
#Comment!
LJ           2.49224        -2.48302         2.55545
LJ          -1.74506        -1.70588         2.42255
LJ           2.51796        -1.74238         -1.7825
LJ          -1.76192         -2.5618        -1.57334
LJ         -0.874896         2.47638        -2.52358
LJ         0.0161572        -2.04366        -2.46943
LJ          -1.18273        -1.47853        -1.74037
LJ        -0.0191752         2.20318        -1.81366
LJ          0.862701         2.52482         2.47682
LJ           1.79033        -1.71161        -2.54216
LJ           0.87647        -1.86312         -1.7831
LJ           1.91961         2.53259        -1.71219
LJ           2.50951       -0.902244        -2.55706
LJ          -1.83183       0.0425145         2.52566
LJ           2.48466        0.122963         -1.9839
LJ          -1.79363       -0.563267        -1.67799
LJ          -1.21654        -0.78657        -2.42498
LJ         0.0022173       -0.232517         -2.4885
LJ         -0.711871     -0.00392647        -1.79889
LJ         -0.162219        -1.13715        -1.85862
LJ          0.911707        -1.15917        -2.51504
LJ           1.74106        0.047458         2.49452
LJ           0.93463       0.0704331        -1.81267
LJ           1.68693       -0.629781        -1.73178
LJ          -2.51439        0.943914         2.46818
LJ          -1.72258         1.96244         2.46836
LJ           -2.4693         1.63354        -1.63713
LJ          -1.58781        0.773002         -1.7949
LJ         -0.597571         1.05759         2.48791
LJ          0.176554         1.73617         2.42981
LJ         -0.977547         1.65059        -1.78663
LJ         0.0810354         1.04302        -1.79471
LJ          0.886967        0.869748         2.46067
LJ           1.86842         1.85783         2.51458
LJ          0.890401         1.82828        -1.64385
LJ            1.5714        0.976576        -1.65859
LJ           2.48374         2.33565       -0.736022
LJ          -1.45697         -1.6903       -0.746458
LJ           -2.4407        -1.90122      -0.0589751
LJ          -1.64807         2.53656     -0.00292308
LJ         -0.813517        -2.55615        -1.02333
LJ          0.219156        -1.70343       -0.916182
LJ         -0.621525        -1.84959        0.025191
LJ         -0.178536         2.35764       0.0872835
LJ          0.842303        -2.43487       -0.920896
LJ           1.86029        -1.73974       -0.909615
LJ          0.782707        -2.00514        0.240997
LJ           1.70335        -2.44868     -0.00374576
LJ           2.56332       -0.947753       -0.686614
LJ           -1.8564        0.176345       -0.825897
LJ          -2.50956       0.0581663       0.0647222
LJ          -1.76052       -0.965983       0.0375257
LJ         -0.568797       -0.898794       -0.682418
LJ         -0.111143        0.348448       -0.949644
LJ         -0.708769      -0.0182511     -0.00839923
LJ         0.0694696       -0.802756        0.254979
LJ           0.79945       -0.994737       -0.565138
LJ           1.97596       -0.160687       -0.774091
LJ           0.72133      -0.0433661     -0.00937419
LJ           1.71431        -1.07904       -0.137886
LJ           2.55187        0.960945       -0.886523
LJ          -1.58106         1.83211       -0.819024
LJ           2.40091          1.6927      0.00544382
LJ          -1.91581         1.09235        0.167762
LJ          -1.02026        0.744579       -0.951949
LJ          0.176544         1.86734       -0.884892
LJ         -0.749179         1.58666      -0.0907476
LJ         0.0884828        0.880149      -0.0982997
LJ          0.756021        0.987155       -0.794059
LJ           1.61096         1.71732       -0.854536
LJ          0.744732         2.05228      -0.0201938
LJ           1.74924        0.850097       -0.130957
LJ           2.36804         2.28413        0.819071
LJ            -1.394        -1.84688        0.666094
LJ           2.55915        -1.54838         1.70327
LJ          -2.00837        -2.40454         1.48822
LJ         -0.596834         2.51197         1.12422
LJ         0.0884794        -1.60364        0.941249
LJ         -0.941892         -1.8847         1.74451
LJ         0.0825988        -2.30123         1.70544
LJ          0.801131         2.35839        0.942813
LJ           2.02701        -1.63459        0.697602
LJ          0.973752        -1.78498         1.74428
LJ           1.65002        -2.56417         1.67859
LJ           2.47347        -0.66513         0.95438
LJ          -1.75512       0.0918845        0.867947
LJ           2.49594     -0.00296578         1.75085
LJ          -1.89783       -0.756877         1.75864
LJ         -0.736463       -0.893393          1.0424
LJ         0.0364922       -0.139492         1.02551
LJ         -0.928363        0.237149         1.91987
LJ          0.227659       -0.973532         1.82073
LJ           1.09684        -1.00698        0.694529
LJ           1.57786       -0.132891        0.770747
LJ          0.825756      -0.0378622         1.92379
LJ           1.59019       -0.847019         1.84785
LJ           2.34868        0.864768         0.86285
LJ          -1.41054         1.94304        0.852933
LJ           2.42895         1.62189         1.56472
LJ          -1.82504        0.993839         1.60465
LJ         -0.904951        0.693925        0.876313
LJ          0.184914         1.48829        0.668962
LJ         -0.806657         1.62102         1.62533
LJ         0.0401622        0.808852         1.56264
LJ            1.0616         0.79527        0.922827
LJ           1.55633         1.68606        0.576483
LJ          0.795201         1.54256         1.66657
LJ            1.7597        0.790301          1.8006
