108
#Comment!
LJ          -2.38639        -2.40255          2.5139
LJ          -1.75263        -1.60179         2.51402
LJ          -2.36473        -1.57118        -1.75107
LJ          -1.53071        -2.46718        -1.81065
LJ         -0.805427         2.44373         2.56176
LJ         -0.177316        -1.61173         2.44314
LJ         -0.982308        -1.60039         -1.8159
LJ         0.0194135         2.46021        -1.92434
LJ          0.854703        -2.43106        -2.56117
LJ           1.74115        -1.64031         2.42949
LJ           1.13235          -1.829        -1.70809
LJ           1.89491         2.41638         -1.5933
LJ           2.49169       -0.682433         2.51517
LJ          -1.83187      -0.0547687           2.384
LJ          -2.50228      -0.0925651        -1.85986
LJ          -1.61787       -0.620443        -1.65975
LJ          -1.07055       -0.690658        -2.52888
LJ        -0.0262535       -0.244224        -2.40738
LJ         -0.840036     -0.00423054        -1.77518
LJ          0.123723        -1.01444        -1.73077
LJ          0.824199       -0.957533         2.55219
LJ           1.74485       -0.105188        -2.38747
LJ          0.784541         0.18958        -1.64809
LJ            1.5301        -0.79033        -1.61934
LJ          -2.49941        0.987095        -2.47548
LJ          -1.81799         1.92806         2.31436
LJ          -2.51431         1.68839        -1.52227
LJ          -1.70821        0.743322        -1.98346
LJ         -0.477731        0.712361         2.53597
LJ          0.111358         1.65181         2.35246
LJ          -1.17733         1.59324        -1.67036
LJ        -0.0299017         1.07698        -1.68829
LJ           1.13317        0.935077         2.56018
LJ           1.78028         1.78557        -2.54392
LJ           1.03911         1.84334        -1.95869
LJ           1.63874        0.830256         -1.7199
LJ           -2.5603         2.45756       -0.791997
LJ          -1.43426        -1.71539       -0.832031
LJ          -2.35781        -1.71788      -0.0702262
LJ          -1.56045         2.53036         0.15991
LJ         -0.643233        -2.49467        -1.11411
LJ         0.0622802        -1.75487       -0.729485
LJ         -0.769521        -1.76232      -0.0683349
LJ        -0.0771769         2.31229          0.1438
LJ          0.642477        -2.53376       -0.892162
LJ           1.94944        -1.62498       -0.961377
LJ          0.755347        -1.91369        0.214731
LJ           1.64039         -2.4582      0.00461647
LJ          -2.48194       -0.869576       -0.882622
LJ          -1.95098        0.139824       -0.903764
LJ          -2.43023        0.108047     -0.00618429
LJ          -1.71552       -0.714441      0.00475926
LJ         -0.817337       -0.829355       -0.818024
LJ         -0.196651    -0.000817032       -0.951476
LJ         -0.693528        -0.05124       0.0421394
LJ         0.0376852       -0.793108       0.0925974
LJ             0.948        -1.22578       -0.801197
LJ           1.81019       -0.184542       -0.660132
LJ          0.851739         0.11126         0.12963
LJ           1.93239        -1.07501      -0.0181738
LJ           2.53689         0.91696       -0.752698
LJ          -1.75655         1.70151       -0.806378
LJ           2.43683         1.51609       0.0754163
LJ          -1.81392         1.08074        0.218762
LJ          -1.06409        0.693759        -1.01108
LJ          0.149909          1.7218       -0.859537
LJ         -0.830742         1.70196       -0.153236
LJ          0.108552        0.859692        -0.12787
LJ          0.920797         0.94008       -0.881299
LJ           1.77839         1.68188       -0.775139
LJ           1.00012         1.61949       -0.135021
LJ           1.60017        0.786732        0.073541
LJ          -2.49409         2.41816        0.594283
LJ           -1.4453        -1.83677        0.888751
LJ          -2.49232         -1.5126         1.59226
LJ          -1.99677        -2.32445          1.5519
LJ         -0.853351         2.36807        0.957163
LJ        -0.0329066        -1.48811        0.988308
LJ         -0.992897        -1.67585         1.85426
LJ          0.176207        -2.30727         1.73438
LJ          0.801836         2.42451        0.927643
LJ           1.67434        -1.44983        0.981933
LJ          0.910683        -1.61672         1.76353
LJ           1.83927        -2.45782         1.61847
LJ          -2.48455       -0.896867        0.752592
LJ          -1.60098       -0.029658        0.777211
LJ           2.42907      -0.0222265         1.66129
LJ          -1.62813       -0.824586         1.59087
LJ         -0.901365       -0.886017         1.03559
LJ          0.147532       -0.121351         0.85867
LJ         -0.997753      -0.0620304         1.78334
LJ           0.21058       -0.778986         1.73405
LJ          0.896426       -0.926121        0.646301
LJ            1.8283       -0.325413        0.823857
LJ          0.838557        0.046478         1.76359
LJ           1.57036        -0.80488         1.85471
LJ           2.31995        0.950873        0.990779
LJ          -1.80282         1.86195         1.10611
LJ           2.55811         1.94106         1.58685
LJ          -1.85357        0.830014          1.5808
LJ         -0.946544        0.884351        0.593922
LJ          0.387274         1.50168        0.813931
LJ         -0.836948         1.43021         1.65166
LJ         0.0620398        0.931715         1.52575
LJ            1.1739        0.744896        0.993689
LJ           1.53346         1.72581        0.792745
LJ           1.06071         1.67158         1.71065
LJ           1.89298         1.05375         1.87077
