108
#Comment!
LJ          -2.52153         -2.3772         2.40174
LJ          -1.72147        -1.69674         2.50704
LJ          -2.39025        -1.51454        -1.70252
LJ          -1.73337         2.53336         -1.7123
LJ         -0.801511         2.48251        -2.42885
LJ        -0.0999672        -1.92069        -2.50819
LJ          -1.05802        -1.54432        -1.82123
LJ        -0.0322499         2.22571        -1.81287
LJ          0.784677         2.51202         2.46622
LJ           1.76942        -1.69996         2.56179
LJ          0.722281        -1.87745        -1.74692
LJ           2.03388          2.4373        -1.75688
LJ           2.47235       -0.778411         2.52565
LJ          -1.75177       0.0895739         2.56461
LJ           2.51911       0.0855772        -1.82704
LJ           -1.7651       -0.526259        -1.67011
LJ          -1.09322       -0.792612        -2.45916
LJ         -0.136023       -0.170247         -2.4545
LJ         -0.924614       0.0530053         -1.8058
LJ          -0.11631        -1.07409        -1.85699
LJ          0.843682          -1.136        -2.54295
LJ           1.71051      0.00570622         2.48895
LJ          0.917801       0.0711513        -1.84868
LJ           1.69156       -0.648029        -1.77539
LJ           2.54668        0.944031        -2.56404
LJ          -1.67526         1.90833         2.44463
LJ          -2.40497         1.58028         -1.6199
LJ           -1.6416        0.738425        -1.78421
LJ         -0.583142        0.914702        -2.54517
LJ         0.0960357         1.70099         2.28782
LJ          -1.06963         1.74895        -1.71795
LJ         0.0719398         1.13892        -1.84771
LJ          0.820849        0.883857         2.53802
LJ           1.73972         1.76688         2.40991
LJ          0.933426         1.89066        -1.83262
LJ           1.64473         1.05464        -1.67497
LJ            2.5039         2.45142       -0.700572
LJ          -1.47115        -1.72085       -0.847252
LJ          -2.34394        -1.79888       -0.173803
LJ          -1.76665         2.48244      -0.0243964
LJ         -0.731686         2.54975        -1.00177
LJ          0.186108        -1.68045       -0.795889
LJ         -0.735701        -1.97614       -0.152113
LJ          -0.19761         2.28371       0.0464992
LJ          0.846404        -2.56452       -0.959816
LJ            1.8431        -1.80904        -1.03055
LJ          0.779458        -1.88698        0.292419
LJ           1.70481        -2.49179       -0.101969
LJ          -2.44438        -0.95405       -0.707696
LJ          -1.97675        0.010584       -0.734434
LJ          -2.54487        0.264255      0.00886278
LJ          -1.82476       -0.729605        0.112941
LJ          -0.62769       -0.872084       -0.710236
LJ         -0.137594        0.319144        -1.01562
LJ         -0.662497        0.112383      -0.0984987
LJ        -0.0812669        -0.67281        0.136883
LJ          0.923333        -1.02704       -0.751752
LJ           1.85501      -0.0535764       -0.582005
LJ          0.723542       0.0707529        0.116297
LJ           1.85221        -1.10889      -0.0782357
LJ          -2.52562        0.980056       -0.776606
LJ          -1.64226         1.82563       -0.848994
LJ           2.48192          1.6439      -0.0456728
LJ          -1.91513         1.12165        0.382443
LJ          -1.11473        0.752557       -0.860019
LJ           0.10346         1.66225       -0.990065
LJ         -0.827381          1.4414      -0.0952614
LJ        -0.0333341        0.928069       -0.226503
LJ           1.00166        0.949067        -0.78318
LJ           1.60982         1.78233       -0.717414
LJ          0.794243         1.99355      -0.0452812
LJ           1.69465        0.853001      -0.0905398
LJ           2.41533         2.33492        0.756034
LJ          -1.32746        -1.76309        0.724685
LJ           2.53049        -1.51525         1.74909
LJ          -2.03481        -2.37001         1.41086
LJ         -0.811898         2.50745        0.980543
LJ          0.110652        -1.45989        0.971612
LJ         -0.978251        -1.84606         1.88308
LJ         0.0205322        -2.35024         1.70593
LJ          0.801255         2.37696         1.00253
LJ           1.86511        -1.69017        0.828585
LJ           1.00446        -1.78724         1.80146
LJ           1.73651        -2.44252         1.67031
LJ           2.48773       -0.660465         0.84702
LJ          -1.58764       0.0706169        0.810529
LJ           2.43803       0.0315264         1.78053
LJ          -1.76823       -0.791915         1.73004
LJ         -0.762319         -1.0434         1.01561
LJ          0.164581       -0.122182         1.12202
LJ         -0.982531        0.118509         1.99673
LJ          0.143553         -0.9325         1.88375
LJ           1.04531        -1.02961        0.807251
LJ           1.63204       -0.176662        0.606908
LJ          0.667773     -0.00224047         1.99962
LJ           1.56515       -0.746557         1.76648
LJ           2.28051        0.826371        0.823102
LJ          -1.59912         1.89534         1.03527
LJ           2.45691         1.63987         1.49821
LJ           -1.8222        0.888844         1.53056
LJ         -0.763423        0.709369        0.806842
LJ          0.256045         1.39292        0.783691
LJ         -0.870327         1.44141         1.54548
LJ          0.157749        0.857154         1.66187
LJ           1.15476        0.737642         1.00967
LJ           1.50588         1.71431        0.624576
LJ          0.948745         1.50777         1.65868
LJ           1.62784        0.787589         1.86361
