108
#Comment!
LJ            1.0218        0.543042        0.992965
LJ          -1.22823         1.40046       -0.333904
LJ          -1.08856       0.0638225         1.39553
LJ          0.313513        -2.22308       -0.512834
LJ         -0.632951         1.92764         1.12509
LJ          -2.46183         2.24009        -2.22432
LJ         -0.632197        -2.23275         1.13799
LJ         -0.319143        0.183473         2.16062
LJ          0.279854         2.22631         0.46187
LJ          0.323173        -1.21379         1.40448
LJ           2.11202          1.9816        -1.15511
LJ          -1.82846         -2.2751         1.40597
LJ          -1.12902       -0.473433         2.37959
LJ           1.57798       -0.620955       -0.427361
LJ          -1.97524        -1.37094       -0.723536
LJ         -0.456053         2.45887         2.19131
LJ         -0.104743       -0.863473         2.21989
LJ           1.27549        0.831347        -1.05771
LJ           1.88116       -0.767108         2.04514
LJ          -1.97023        0.876154         1.19688
LJ          -1.18299         0.74877         2.24799
LJ          -1.91892         0.14161        -1.35221
LJ           2.04135        0.288363       -0.336145
LJ           2.05787        -2.15309        -1.72396
LJ          0.773349        0.505717        -1.91137
LJ         -0.167328         -2.2828        -1.32751
LJ          0.105494        0.852236       -0.972304
LJ         0.0958519       -0.528088          0.3514
LJ           1.68192         1.23405       -0.199286
LJ          0.823706       -0.712624        -2.10927
LJ         -0.919576        -1.40878        -2.03191
LJ         -0.765371         1.76765        -2.22272
LJ           1.01336        -1.33119      0.00121065
LJ          -2.23614       -0.482391       -0.200025
LJ         -0.345922         1.29722         1.99598
LJ         -0.725964        -2.14203      -0.0208787
LJ           2.41195        0.201577         1.62819
LJ         -0.636179         1.50176        -1.24187
LJ           1.46863         1.59467        -1.88648
LJ         -0.517933         -0.9867         0.95916
LJ          -2.56037      -0.0172581        -2.43705
LJ         -0.317035         2.14897       -0.537084
LJ          0.116491         1.16276         1.15179
LJ          0.115841        -1.73435        0.489644
LJ         0.0561668       0.0134549         1.21209
LJ          -2.40985        -2.31271       -0.884034
LJ           2.12249         -1.0819        -1.17802
LJ          -1.37469       0.0701993       -0.278176
LJ           -1.0681        -1.83744        -1.12285
LJ           0.63747       -0.955554        -1.05408
LJ          0.898664       -0.374628         1.97131
LJ            1.1299       -0.371228        0.624968
LJ          -1.79841      -0.0610066        0.698109
LJ          0.785094       0.0485115       -0.398767
LJ          -1.87351         1.66456        -1.22286
LJ          -2.52559         2.02746       -0.232616
LJ           1.37173        -2.48407        -2.43167
LJ         -0.135053       -0.206543       -0.659111
LJ           1.65935        0.413495         2.26293
LJ           1.50244        -0.15557        -1.58775
LJ         -0.274973        -1.37607       -0.614418
LJ          -2.09097         1.81804         1.31501
LJ            1.3174        -1.41354        -1.71377
LJ          -1.33712         2.40242        0.569897
LJ         -0.153637       -0.202838        -1.69532
LJ          -2.08171       -0.603905         1.99744
LJ          -1.85951        -2.07458         2.49099
LJ          -1.58992         2.51952        -1.61985
LJ           1.33578         -2.2392        0.502294
LJ           2.34607        -2.42985        0.672764
LJ           2.22481        -1.50809         2.56267
LJ          0.497443         -2.2797         1.46017
LJ          0.489316         1.61768         2.56062
LJ          -0.98993        -1.68946         1.99949
LJ           1.55179        -1.89067       -0.827326
LJ         -0.952506        0.488674        -1.00091
LJ          -1.49551         2.37495       -0.550259
LJ           1.02692        -1.33396         2.24541
LJ           1.71444        -2.38029         1.66921
LJ          0.689876        0.767753         2.03719
LJ            2.1983       -0.657998        0.747674
LJ           2.42156        0.923803        -1.23826
LJ          -1.14498        0.147097        -1.96774
LJ          -2.07615        0.841319        -0.46532
LJ           2.33502         2.04603         2.01007
LJ           1.38131         1.77855        0.662027
LJ           1.80668         1.28568         1.51874
LJ          -1.57361         2.01306         2.36402
LJ           2.22595        0.753654        0.683186
LJ          -1.10158       -0.985053      -0.0973639
LJ          0.491421         1.27233        0.008687
LJ          0.861966         1.90001         1.66928
LJ           -1.6695        -1.65022         0.35741
LJ           1.42925        -1.24421          1.2502
LJ          0.327001         1.76545        -1.54128
LJ          -1.10724        0.957478        0.684048
LJ          -1.10376       -0.756585        -1.14908
LJ          -1.78684         1.02351         -2.1026
LJ          -2.55146        -1.43336         1.30323
LJ         -0.277077        0.894562        -2.12654
LJ          -1.50009        -1.05762         1.24835
LJ          -2.29722         1.11179         2.20735
LJ            1.0844         1.94299       -0.618437
LJ         0.0360724        -1.85279        -2.30292
LJ         -0.429573        0.386691        0.283385
LJ           -2.1608        -1.63515        -1.86191
LJ           2.09498        -1.37898      -0.0124044
LJ          0.884453        -2.46534        -1.41135
