108
#Comment!
LJ           2.56354        -2.40678         2.48735
LJ          -1.71596        -1.62591         2.44597
LJ           2.53814        -1.72189        -1.69267
LJ           -1.7924        -2.44862          -1.714
LJ         -0.821261         2.53127         2.47528
LJ         0.0466614        -2.01544        -2.45419
LJ           -1.0169        -1.44989         -1.6316
LJ       -0.00190479          2.3499        -1.73896
LJ           1.01564          2.4198         2.55666
LJ            1.7272        -1.83316         2.51203
LJ          0.996163        -1.83218        -1.76152
LJ           1.90725         2.55815        -1.66061
LJ           2.46436       -0.798205         2.53666
LJ          -1.89876     -0.00303851         2.54253
LJ           2.45384        0.129658        -1.97149
LJ          -1.71916       -0.498103        -1.50997
LJ          -1.10268       -0.785808        -2.44182
LJ        -0.0248475       -0.183506        -2.46974
LJ         -0.734501     -0.00385395        -1.75049
LJ         -0.118566        -1.13982        -1.90827
LJ          0.878206        -1.10832        -2.51784
LJ           1.63776      -0.0102262        -2.46336
LJ          0.800858       0.0952643        -1.74742
LJ           1.66847       -0.665406        -1.72289
LJ          -2.40367        0.999816         2.46882
LJ          -1.71235             1.9        -2.56409
LJ          -2.50982         1.70601        -1.63191
LJ          -1.50639        0.791405        -1.84705
LJ         -0.651874         1.05846          2.4781
LJ            0.1259         1.82123         2.44203
LJ         -0.830212         1.61494        -1.73844
LJ         0.0289964         1.05047        -1.84862
LJ          0.944095        0.918734        -2.54634
LJ            1.9336         1.81354         2.47538
LJ          0.950448         1.85368        -1.64201
LJ           1.69216         0.89417        -1.68694
LJ           2.40575         2.39967       -0.768283
LJ          -1.48753        -1.78588       -0.776923
LJ          -2.48075        -1.84955      -0.0811147
LJ          -1.63592         2.51533      -0.0534222
LJ         -0.837858        -2.55064        -1.11468
LJ           0.15934        -1.73133        -0.93011
LJ         -0.521485         -1.7886     -0.00388686
LJ         -0.250157         2.40819       0.0570192
LJ          0.885283        -2.53955       -0.894086
LJ           1.73884        -1.72584       -0.980544
LJ          0.675968        -2.00119         0.12374
LJ           1.66974        -2.38685      -0.0494803
LJ          -2.47596         -0.8844       -0.681755
LJ          -1.90656       0.0474962        -0.71886
LJ           2.53395       0.0996523       0.0321208
LJ          -1.67529       -0.947301       0.0166992
LJ         -0.564237        -0.87435       -0.738932
LJ        -0.0529552        0.205791        -1.02695
LJ         -0.819206      -0.0821512        -0.13145
LJ         0.0772575       -0.748506        0.283667
LJ           0.87218       -0.964688       -0.650704
LJ           2.03783     -0.00924843       -0.840593
LJ          0.724814     0.000176936      -0.0462741
LJ           1.68087       -0.964953       -0.105147
LJ          -2.43936        0.971401       -0.887014
LJ          -1.53853         1.78692       -0.803867
LJ           2.37731         1.77316       0.0359743
LJ          -1.94283        0.989378       0.0731172
LJ          -1.03928        0.681388       -0.970972
LJ         0.0727913         1.83706       -0.815464
LJ         -0.792563         1.45886      -0.0707071
LJ        -0.0152794        0.853102       0.0394089
LJ          0.757753        0.973276       -0.693264
LJ           1.61194         1.63937       -0.893674
LJ          0.831512         1.95882      -0.0731815
LJ           1.66839        0.859066       -0.181161
LJ           2.47678         2.40469        0.881249
LJ          -1.39275         -1.7719          0.6789
LJ            2.5066         -1.5025         1.81761
LJ           -2.0748        -2.48856         1.69166
LJ         -0.668846         2.54412         1.10189
LJ          0.154073        -1.62607        0.948908
LJ         -0.902371        -1.76524         1.69572
LJ         0.0672369         -2.3606         1.75425
LJ          0.931973         2.33379        0.927818
LJ           1.91635         -1.5139        0.724093
LJ          0.985932        -1.76429         1.74005
LJ           1.71835         -2.5606         1.69834
LJ           2.51812       -0.606094        0.930992
LJ          -1.70338      0.00848051        0.802507
LJ           2.52882      0.00123966         1.78725
LJ          -1.82713       -0.819039         1.66436
LJ          -0.71922       -0.904631         1.08563
LJ      -0.000125871       0.0169058        0.940772
LJ         -0.846432        0.164978         2.02444
LJ          0.202563       -0.948653         1.88237
LJ           1.00135        -1.05538        0.729264
LJ           1.63356       -0.161375        0.755687
LJ          0.897162       0.0825028         1.86755
LJ           1.56743       -0.876751         1.75169
LJ            2.3573        0.797279        0.897198
LJ          -1.51439         1.95827        0.784086
LJ           2.40424         1.62033         1.59052
LJ          -1.79473         0.92609         1.51903
LJ         -0.895774        0.631879        0.859907
LJ          0.286818         1.48828         0.76489
LJ          -0.82608         1.66417         1.57993
LJ        -0.0329398        0.844779          1.6446
LJ          0.994895        0.752771        0.832888
LJ           1.57369          1.6894        0.575773
LJ          0.841517         1.56573          1.7271
LJ           1.96207        0.831383         1.76345
