108
#Comment!
LJ           2.43334         2.55756         2.51342
LJ          -1.67301        -1.90349        -2.55609
LJ          -2.52783        -1.69793        -1.80688
LJ          -1.78635         2.50337         -1.6927
LJ         -0.948494         2.37282         2.48969
LJ         -0.144251        -1.84052        -2.43862
LJ         -0.809044        -1.60925        -1.56383
LJ        -0.0110114         2.55232        -1.64141
LJ          0.872771          2.5428        -2.49763
LJ           1.61467        -1.83342         -2.5227
LJ          0.827575        -1.49746        -1.61029
LJ           1.87872        -2.40524         -1.7228
LJ           2.45057       -0.894361         2.49087
LJ           -1.6081       0.0632842         2.52676
LJ          -2.53498        0.146326        -1.82392
LJ          -1.81464       -0.968043        -1.74263
LJ          -1.12346       -0.826327         2.47921
LJ        0.00721621       -0.104722         2.49448
LJ         -0.793222       0.0561828        -1.70463
LJ          0.031124        -0.81873        -1.65169
LJ          0.860096       -0.918734        -2.56199
LJ           1.82029        0.124662        -2.53095
LJ          0.738384        0.184518        -1.63118
LJ           1.68975       -0.784893        -1.70923
LJ          -2.54257        0.847199         2.54244
LJ           -1.7715         1.76904         2.52253
LJ           2.56475         1.62913        -1.80082
LJ          -1.78204        0.918142        -1.68842
LJ         -0.670979         1.01321         2.31024
LJ          0.171445         1.75735         2.38898
LJ         -0.865783         1.66278        -1.61285
LJ         -0.100928        0.934831        -1.83484
LJ          0.765895        0.930388        -2.34455
LJ           1.79962         1.71775        -2.50993
LJ          0.900614         1.77561        -1.60022
LJ            1.7388        0.861948        -1.72139
LJ          -2.48157        -2.42556       -0.808124
LJ          -1.46839        -1.72612       -0.758438
LJ           2.49078        -1.83361     -0.00700549
LJ           -1.5583         2.51222     -0.00560042
LJ         -0.783311        -2.55168       -0.778314
LJ        -0.0319059        -1.75168       -0.994745
LJ         -0.866833        -1.77178        0.148594
LJ         -0.133596          2.4141      -0.0257866
LJ          0.827558         2.52084       -0.828859
LJ           1.56384        -1.81439       -0.815844
LJ          0.723276         -1.7968        0.153205
LJ            1.6563        -2.47757      -0.0793607
LJ          -2.46619       -0.918952       -0.800135
LJ           -1.9571        0.198246       -0.820968
LJ           2.50644       0.0480334      -0.0544564
LJ          -1.64629       -0.872005      -0.0649509
LJ         -0.889051        -0.68856       -0.819921
LJ        -0.0489453     0.000333807       -0.762205
LJ         -0.861516      0.00576977      -0.0981307
LJ        -0.0288963       -0.666965      -0.0487375
LJ          0.975791       -0.840268       -0.749358
LJ           1.74071       -0.171263       -0.852617
LJ          0.879164      -0.0255729      -0.0741195
LJ           1.69504         -1.0137       -0.136461
LJ          -2.54192          1.0536         -0.8652
LJ          -1.72342         1.73102       -0.980317
LJ           2.52868          1.7789        0.152561
LJ          -1.78374        0.929592       0.0554762
LJ         -0.793266        0.742043       -0.812256
LJ         -0.118663         1.68057       -0.936857
LJ         -0.879039         1.69764       -0.189449
LJ         -0.119383         0.97677      -0.0623468
LJ           0.67007         0.95562       -0.837649
LJ           1.77364          1.9085       -0.877089
LJ          0.646546         1.80738      -0.0758403
LJ           1.60496        0.768341       0.0662645
LJ           2.50885         2.51818        0.878769
LJ          -1.58996        -1.71194        0.919375
LJ           2.39108        -1.72789         1.71554
LJ          -1.84012         2.51719         1.64228
LJ         -0.817875         2.48367        0.787699
LJ         0.0033195        -1.71846        0.814786
LJ         -0.868905        -1.76104         1.72102
LJ          0.149659        -2.50555         1.86579
LJ           1.07047         2.50492        0.984088
LJ           1.73038        -1.80447        0.858633
LJ          0.929595        -1.59722         1.65678
LJ            1.6897        -2.50796         1.81388
LJ            2.4881       -0.593556        0.883903
LJ          -1.79975       0.0230481        0.879797
LJ          -2.43317      -0.0221666         1.96118
LJ          -1.79219       -0.826888         1.64441
LJ         -0.658569       -0.886088         0.78472
LJ         0.0513722       -0.019833        0.812439
LJ          -0.64423        0.106731         1.77258
LJ         0.0494931       -0.872053         1.59417
LJ          0.784589       -0.916286        0.846443
LJ           1.58271    -0.000425708        0.736946
LJ          0.789094       -0.165985         1.81155
LJ            1.6604       -0.897542         1.70336
LJ           2.38556        0.915891        0.851777
LJ          -1.80802         1.73301        0.793864
LJ           -2.5464         1.71847          1.8068
LJ          -1.80014        0.792403         1.66292
LJ         -0.846158        0.712364        0.862785
LJ        -0.0672072         1.66209        0.889462
LJ         -0.881617         1.74508         1.63646
LJ         0.0219294        0.805521         1.55546
LJ          0.864265        0.773551        0.817658
LJ           1.76471         1.80915        0.830857
LJ          0.876848         1.59156         1.68557
LJ           1.68923         1.03852         1.66955
