108
#Comment!
LJ          -1.64846         1.63723       -0.454834
LJ           1.13343         1.55294         0.43773
LJ         -0.713162       -0.130606         1.81491
LJ           2.19316       -0.718839         1.37985
LJ           1.50732        -2.45383       0.0845625
LJ           2.45471       -0.902055       -0.600638
LJ           2.40951        -1.88977         1.57706
LJ          -1.15676         1.36463        0.547754
LJ           1.88408        -2.40436        -1.97107
LJ           1.77399        -2.52966       -0.920375
LJ           2.37736         1.62799        -1.16291
LJ           1.17991       -0.822054         1.38875
LJ          -2.41113        0.600391        -1.84461
LJ          0.240018         1.93415        -1.70614
LJ         -0.149738       -0.775179       -0.652967
LJ          -1.09193          2.1346        -1.53049
LJ           1.90861       -0.642887        0.289554
LJ          0.446176         1.06845        -1.16567
LJ           2.07381         1.10261         2.36247
LJ          -0.65803        0.509878        0.843911
LJ          -2.08202         1.35598        -2.53165
LJ           1.16166        0.368785         -2.4247
LJ           1.80605       -0.149291       -0.589603
LJ          0.942251        -2.51157        -2.44039
LJ           1.48435       -0.501017         2.38422
LJ         -0.966375         2.47956       -0.469425
LJ         -0.594307         1.28005         1.56887
LJ           1.08097        0.183253        0.824021
LJ          -1.95808        0.511109        0.262464
LJ           1.84355         1.13211         1.05704
LJ         -0.353382        0.285547        -0.67967
LJ           1.21625        -1.67252        -1.68764
LJ          -1.16922         -1.0646         1.21526
LJ          -2.27788         1.48844        0.359963
LJ           2.47226         1.89937         1.17812
LJ          0.383455      -0.0713617        -1.93014
LJ           2.53302         2.55756      -0.0235782
LJ           2.34995        -1.36572        -1.64637
LJ           -2.0445        -1.86847        -2.35216
LJ          -1.93863        -1.83372        0.638461
LJ          -2.08977        0.909755           1.581
LJ         -0.906645        -1.91977        0.593333
LJ           2.35019        0.711234       -0.563389
LJ          -2.11523       -0.800104        0.335611
LJ         -0.487097         2.09711        0.671754
LJ          0.732051        -1.87703       -0.822921
LJ           1.38641        -1.11861       -0.436034
LJ          0.170611         -1.1374        -1.76733
LJ           1.35965        -0.56567        -1.49638
LJ         0.0324809        -1.73299      0.00573597
LJ          -1.20577       -0.306368       0.0684689
LJ           0.21331       0.0349186        0.148213
LJ          -1.08043        0.626182        -2.37833
LJ          -1.75471        -1.01602         -1.8115
LJ          0.825906        -1.66157        0.711362
LJ          0.876219       -0.655091        0.190344
LJ           2.22177        -1.56484        0.343873
LJ          0.545388          1.6318          2.3889
LJ           2.55123         2.35074         2.45461
LJ          -2.39633       0.0822684         2.11069
LJ         -0.588692       -0.405166        -1.55562
LJ         -0.313736        -2.36358        -1.58858
LJ          0.254893       -0.430449         1.00767
LJ           1.48437         2.25753           1.066
LJ         -0.125888         1.04213        0.155255
LJ         -0.440921       -0.915032        -2.53002
LJ         -0.966943        -1.66643        -1.78201
LJ          -1.68222         1.31351         -1.4405
LJ          0.773809         1.96858       -0.789692
LJ          0.451464        0.922921         1.12741
LJ         -0.562558         2.52012         1.64688
LJ            1.9013         1.77994       -0.226511
LJ           1.41652         1.64342        -1.46264
LJ         0.0606064        -1.42311         1.68998
LJ           2.41732       -0.380673        -1.91049
LJ          -1.58147       -0.839867       -0.848648
LJ         -0.452933        -1.67989       -0.854981
LJ          -1.71055        -2.23987         1.55402
LJ           1.34641        0.942772       -0.504441
LJ          0.327226       -0.226528          2.1592
LJ          -1.49339       -0.376171         2.40107
LJ           1.42238        0.412739        -1.40519
LJ          -0.21779         1.79234       -0.713945
LJ          -1.13498        0.818974        -0.43698
LJ          -2.11381         2.18108        -1.83711
LJ          -1.51806         1.87721         1.49601
LJ            2.3125        0.221228         0.77931
LJ          0.605019        -2.42181          1.7446
LJ         -0.509008       -0.903912         0.43818
LJ          0.681794        -1.25523         2.48577
LJ          -2.12739        0.065578       -0.822967
LJ            1.5154         1.92264         2.03989
LJ          0.376766         2.39701        0.234785
LJ          -1.32818        -1.44553         2.22968
LJ         -0.260647        -2.05892        -2.50152
LJ          -1.80309        -0.11016         1.22119
LJ          -1.26819        0.321148        -1.34136
LJ         -0.677255         1.09148        -1.34004
LJ          -1.66635         2.28493        0.423868
LJ         -0.551003          1.5771         2.54813
LJ          -2.02459        -1.89388        -1.24349
LJ          -1.34827        -2.51357        -2.54532
LJ          0.113876        0.872766        -2.37242
LJ           1.67365        -1.52225         2.39613
LJ             0.704       -0.104396       -0.882594
LJ          -1.46751        -1.75761        -0.37455
LJ           1.72149        0.246724         1.79838
LJ          -2.53251       -0.969385         2.35421
