108
#Comment!
LJ         -0.256838        -1.88482        -2.08706
LJ           1.95144       -0.238029        0.673809
LJ         0.0158667         1.31611       -0.276954
LJ          -2.23438        -2.44928          1.7374
LJ          -2.22012        -1.74447        -2.07926
LJ           1.26391        -2.45522         1.40633
LJ          -1.38828        0.350499      -0.0561644
LJ         -0.629766       0.0139736         2.08582
LJ          -1.03073        -1.41044       -0.962881
LJ          0.800923        -2.52503        -2.25904
LJ           -1.2878        -2.19399        -0.45245
LJ         -0.470887         1.02441        -2.36393
LJ         -0.844913         1.92165       -0.875023
LJ          -1.55048        0.886184         2.44125
LJ           2.17362       -0.696479        -2.07644
LJ           1.09888       -0.704578      -0.0403797
LJ          0.981535         1.64723        -1.34664
LJ          0.167971        0.101133        -1.81152
LJ          -1.78914         1.82796         1.98754
LJ          0.957656        0.733853        -1.80377
LJ          0.491124       -0.980992        -2.20892
LJ          -1.05684         2.04142        -2.48432
LJ         -0.928368        0.096683        -1.95423
LJ          0.168182        0.699279        0.990942
LJ           1.81785        0.864829        -1.20224
LJ          -2.49506         2.08734        0.308112
LJ           1.95062        -2.21274         2.37383
LJ           -1.1782       -0.736184        0.034303
LJ          0.479345         1.88637         1.61116
LJ          0.598226        -1.48072        0.463224
LJ          -1.44048        0.442545         1.50061
LJ          -1.04523         2.00652         0.29697
LJ         -0.164494         -2.1224       -0.841673
LJ          -2.14705       -0.214523        0.101541
LJ          -1.76588         -1.6104         1.58714
LJ           -2.5023        0.994095           1.621
LJ           -1.6896        -2.50664        0.869861
LJ           2.00921     0.000349334         1.87574
LJ          -1.16255         -2.3553        -1.46108
LJ        -0.0731755       -0.497923        0.910324
LJ         -0.625915        -1.42284        0.638564
LJ          -1.61779       -0.332759         0.95343
LJ          -1.94218         2.19778       -0.972428
LJ           1.78765         2.41457       -0.409088
LJ           1.53857         -2.0701        0.296577
LJ          0.647223        -1.53807       -0.651923
LJ         -0.739638        -1.00947        -1.98546
LJ           2.19454         1.89751         1.23298
LJ           1.73441        -1.55832       -0.938219
LJ          -1.93236        0.623661        -1.08801
LJ          0.970843       -0.125014         1.38761
LJ           -1.6653        -1.44354         0.46987
LJ          -0.74874         1.14494         1.72678
LJ          -1.95724         2.38026        -2.05014
LJ         -0.326427        -2.36341         0.29379
LJ          -1.27867        -2.07918           2.337
LJ          -2.51818          1.4849        -1.53113
LJ         -0.717683          0.3888       -0.950932
LJ          -1.40356       -0.847454          2.0665
LJ          -2.15107        0.698481        0.554484
LJ           2.47347        -1.94876        0.863823
LJ          -2.45351        -1.12388         2.11108
LJ           1.04348         1.03072         1.55711
LJ           1.70936        0.208258        -0.31663
LJ          -1.93073         1.53466        0.938676
LJ          0.512644        -1.69571         2.16348
LJ         -0.530306        -1.41636         2.08092
LJ           0.47597         1.64402        -2.36131
LJ          -2.24652         -2.2264      -0.0997198
LJ          0.673579        0.598412       -0.874876
LJ           2.42302        0.653001        -2.12959
LJ           1.52315        -1.20452         1.06715
LJ           1.77549        0.929165        0.666507
LJ          0.680946         2.45281       0.0697437
LJ           -1.2125         1.42467         -1.6296
LJ           1.21412         1.29313       -0.324679
LJ          0.203611        0.683973         2.20937
LJ        0.00160044       -0.877474       -0.210724
LJ          -1.73272        -0.71016        -2.00989
LJ          -2.07558       0.0319466         2.31567
LJ           2.37687        -1.19755        0.227395
LJ           0.18821       -0.596088         2.03149
LJ          -1.68817          1.3433       -0.208483
LJ            1.0707       0.0643126         2.50557
LJ        -0.0546841         1.25885        -1.38997
LJ        -0.0643061         2.53882         2.28679
LJ          -1.61779        -0.29557       -0.953905
LJ           1.23704       -0.902739         2.13913
LJ           2.10552         2.42614        -1.67971
LJ         -0.199827        0.308364      -0.0196587
LJ          0.229855         -2.3127         1.30089
LJ            1.6507         1.67387        -2.23043
LJ           1.32406        -1.66738        -1.86433
LJ           1.19509         1.75577        0.730066
LJ           1.37948       -0.241718        -1.55194
LJ         -0.845142        0.898867        0.768528
LJ         -0.230279         2.27314        -1.79183
LJ          0.894982        0.262027        0.313933
LJ        -0.0436508       -0.731975        -1.21707
LJ            2.4828        -0.19197       -0.854004
LJ         -0.815022         2.34721         1.52265
LJ           2.36401         1.22192       -0.159909
LJ        -0.0713773          1.7695        0.715001
LJ            1.8517        0.944242          2.2879
LJ          -1.99505        -1.23647       -0.496104
LJ           2.44284         1.99158         2.37817
LJ          0.921017        -2.31157        -1.28786
LJ          -2.49506        -2.01786        -1.09092
