108
#Comment!
LJ           2.55999         -2.4405        -2.55134
LJ          -1.74018        -1.65722         2.48691
LJ           2.52801        -1.67269        -1.70891
LJ          -1.73208         -2.3674        -1.75527
LJ         -0.839296         2.50824         2.52138
LJ         0.0432683        -2.03595        -2.51034
LJ          -1.09983        -1.42925        -1.60346
LJ          0.037157         2.24417        -1.66869
LJ          0.961915         2.33349        -2.50002
LJ           1.80886        -1.78069         2.56426
LJ           1.03242        -1.81184        -1.66347
LJ           1.93867         2.49785        -1.56265
LJ           2.45898       -0.799587         2.51915
LJ          -1.76342        0.114729         2.51452
LJ            2.5501        0.167942        -1.84989
LJ          -1.63923       -0.527873        -1.54207
LJ          -1.12268       -0.854537        -2.41849
LJ         0.0146657       -0.212535        -2.42986
LJ         -0.844636      -0.0432349        -1.67984
LJ         -0.112553         -1.0218        -1.89337
LJ          0.970377        -1.06634        -2.45685
LJ           1.71025     0.000168318        -2.47966
LJ          0.771526       0.0246905        -1.71518
LJ            1.6206       -0.730592        -1.69017
LJ          -2.42874         1.10081         2.49418
LJ          -1.75232         1.86222         2.55747
LJ          -2.51574         1.64556        -1.61974
LJ          -1.54139        0.894074        -1.76423
LJ         -0.661219         1.04748        -2.55298
LJ          0.113556         1.78711         2.52911
LJ         -0.799496         1.73424        -1.68403
LJ         0.0644449         1.06903        -1.72624
LJ          0.986664        0.847113        -2.55947
LJ           1.83797         1.84779         2.51836
LJ          0.887133         1.75751        -1.64825
LJ           1.78328        0.904495        -1.81686
LJ           2.52871         2.34996       -0.645436
LJ          -1.51119        -1.94029       -0.754514
LJ           -2.4231        -1.78237      -0.0877187
LJ          -1.76245          2.4149    -0.000901578
LJ         -0.694983        -2.49091           -1.04
LJ          0.122166        -1.71806       -0.912469
LJ         -0.451289        -1.74117     -0.00167481
LJ         -0.321847         2.36897        0.178699
LJ          0.799641        -2.53629       -0.956581
LJ           1.76608        -1.68677       -0.983223
LJ          0.621682        -2.10048       0.0178118
LJ           1.70233         -2.3171      -0.0115287
LJ          -2.40441       -0.908349       -0.684249
LJ          -1.84496       0.0389474       -0.632096
LJ           2.46834       0.0769211       0.0167966
LJ          -1.54941       -0.933854       0.0234636
LJ         -0.609562       -0.871506       -0.789025
LJ        -0.0746229        0.283529       -0.991833
LJ           -0.9211      -0.0719321      -0.0968368
LJ       -0.00347338       -0.758893         0.23861
LJ          0.858301        -1.04702       -0.732123
LJ            1.8964       -0.143218        -0.85775
LJ          0.763961      0.00167696      -0.0495307
LJ           1.66468       -0.910346       -0.157948
LJ          -2.40726        0.916845       -0.959566
LJ          -1.60891         1.71779       -0.840369
LJ            2.4522         1.67206        0.113769
LJ          -1.97298        0.977442      0.00266779
LJ          -1.06226        0.661815       -0.829622
LJ         0.0352059          1.6816       -0.796653
LJ         -0.829913         1.55997       -0.161578
LJ        -0.0263764        0.861666       0.0564704
LJ          0.782965        0.914692       -0.663266
LJ           1.60074         1.63232       -0.984579
LJ          0.883833         2.04674      -0.0247358
LJ           1.75172        0.793984       -0.237278
LJ           2.45479          2.4895        0.846547
LJ          -1.39719        -1.72488        0.620918
LJ           2.50789        -1.54488         1.79912
LJ          -2.01474         2.51961         1.67945
LJ         -0.691675        -2.45097         1.08558
LJ          0.135184        -1.65414        0.870478
LJ         -0.894488        -1.70244         1.69275
LJ         0.0623446        -2.35702         1.77001
LJ          0.898422         2.47685        0.904769
LJ            1.9718        -1.51629        0.694805
LJ          0.974697        -1.87963         1.64059
LJ           1.69958         2.53288          1.7183
LJ           2.51388       -0.634191         1.00739
LJ          -1.71393      -0.0654255        0.891078
LJ           2.51363      -0.0130525         1.86051
LJ          -1.69677       -0.916122         1.59905
LJ         -0.712647       -0.865759        0.970483
LJ         0.0595713       0.0361511         1.02427
LJ         -0.888817        0.209519         1.99909
LJ          0.136158       -0.860154         1.87836
LJ           1.01632        -1.01887        0.672447
LJ           1.67524       -0.186722        0.725383
LJ          0.765522      -0.0071753         1.92107
LJ           1.67015       -0.866422         1.70195
LJ           2.51288        0.831247        0.947503
LJ          -1.41998         1.88961        0.766173
LJ             2.391         1.70971         1.57991
LJ          -1.70703          0.9745         1.55273
LJ         -0.888946        0.672782        0.871224
LJ          0.243774         1.43651        0.881647
LJ         -0.887317         1.56374         1.56339
LJ         0.0204326        0.851594         1.61538
LJ          0.980207        0.683543        0.833725
LJ           1.62141         1.73882        0.694818
LJ          0.911098         1.53699         1.85806
LJ           1.74569        0.844212         1.81158
