108
#Comment!
LJ           0.74584        -1.44988         1.34649
LJ          -1.84376        -1.75275        -0.85407
LJ        -0.0102988       -0.881934        -2.55287
LJ          -2.47157         1.31666        -1.56114
LJ          0.745527        0.628567         2.28241
LJ          -2.54304         1.26529        0.296995
LJ           1.12895        0.434432        -1.63711
LJ           2.34819        -2.53093        -1.27862
LJ          -2.06469        -1.98588         2.15173
LJ          0.783307         1.80369       -0.453391
LJ           2.20341         1.44573         1.31782
LJ          -1.91986         2.02407         1.29867
LJ           1.53555       -0.161904       -0.345236
LJ          -1.13793         1.39848         1.59886
LJ          -1.16481         1.56454       -0.617788
LJ          -1.63189       -0.377993        -0.32935
LJ         0.0391557       -0.101322        -1.56693
LJ          -1.55351       0.0788397        -1.23363
LJ           1.81704         -1.4515         1.21745
LJ           1.72653         2.33769        -2.48028
LJ           1.72031        0.340152         2.18321
LJ        -0.0910953         1.90556         1.45707
LJ          -2.39645         1.24312         2.34766
LJ           2.00377       -0.689509        0.390152
LJ           2.27134         2.49087         1.56608
LJ          0.809951       -0.301482        -2.28637
LJ          -1.82992        -1.77413        -1.95644
LJ         -0.903442        -1.46056        -1.53881
LJ          -1.03065        0.476354       -0.209409
LJ          0.142205        -2.20634        -1.03486
LJ         -0.602465        0.676395        -1.51276
LJ         -0.249591        0.792769         1.75253
LJ          -1.96872        0.972508         1.32779
LJ          -1.82233        -2.24481       0.0624423
LJ         -0.876953        -1.30073       -0.324196
LJ          0.336921         1.58317        0.471714
LJ           2.16116        -1.80954        0.187373
LJ          -2.17254        -1.95122         1.14955
LJ         -0.616313         1.42425         2.51084
LJ          0.407835       -0.392431        0.284537
LJ          0.756925        0.774997         1.22261
LJ            -2.298         1.90307       -0.614169
LJ         -0.643469       -0.442892        0.447306
LJ           2.47085           2.286        0.422185
LJ          -2.05421       -0.715118        -1.89809
LJ           1.47431         1.08255        -2.27314
LJ           1.87253         1.18998       -0.447815
LJ          -1.47786        -1.35192         1.42204
LJ          -2.19879        0.286216        0.498098
LJ           1.62093        -0.78287        -1.80692
LJ        -0.0822167        -2.21061      -0.0329963
LJ         -0.431462        -0.38905       -0.762419
LJ           0.64607        -1.11326        -1.53447
LJ           2.27867        -0.81666         2.37613
LJ           1.07109         1.39221        -1.28568
LJ          0.337579        -2.51731         0.92887
LJ           1.36739        -0.22892         1.25417
LJ          -1.68563       -0.207938         1.25026
LJ          -2.48691         0.41189       -0.493166
LJ           2.38903        0.178297        -2.09361
LJ         -0.627421       -0.194311         1.54586
LJ          -2.39414         2.12425        -2.36716
LJ         -0.907461         -2.4162       -0.658847
LJ           1.31821          1.4866         1.84859
LJ           1.12545        -1.27358        0.258307
LJ         0.0694389        -2.44585         2.19589
LJ          -1.92827        -1.00782        0.584093
LJ            1.1498        -2.56156         1.87226
LJ        -0.0350812        0.391013        0.691867
LJ          0.982586        -2.03297       -0.364928
LJ          -1.72312         2.25375        -1.30221
LJ         -0.415149        -1.34722         1.42498
LJ         -0.833075         2.41622        -1.99543
LJ         -0.696499         2.13722        0.622742
LJ           1.80283         2.19873       -0.449328
LJ          -1.01174        0.629496        0.930578
LJ            2.3826       -0.563095         1.31103
LJ          0.267423         1.09016        -1.86622
LJ         -0.987345       -0.501831        -2.01755
LJ        -0.0612946        0.654966       -0.538376
LJ          0.492391         1.71932         2.49366
LJ          -2.39401        0.279934         1.93527
LJ           0.45174         2.31454        -1.93308
LJ          0.960219        0.588539       -0.140606
LJ           1.20757        -2.29501        -1.35322
LJ          -1.42965         1.98572         2.31915
LJ           1.39951         1.85734        0.744059
LJ          -2.47981       -0.716239       -0.843191
LJ         -0.947709        -2.30755          1.6634
LJ          -1.28988         1.34877        -1.63638
LJ           1.36174        -2.20828        0.633046
LJ         -0.174577        0.161831         2.52716
LJ          0.223702        -1.31742       -0.466382
LJ           1.83726        0.655653        0.723616
LJ      -0.000483503         1.81962       -0.994044
LJ         -0.147888        -1.77946        -2.00737
LJ           1.81161        -1.42478       -0.852173
LJ          0.869792         -2.0064         -2.3616
LJ          0.635626       -0.277597       -0.702929
LJ          -1.36131        0.313614        -2.49287
LJ         -0.930679        -1.56385        -2.50631
LJ         -0.998721        -1.72477        0.577371
LJ          0.382351       -0.253279         1.70523
LJ           1.93537        -1.77077        -1.89154
LJ         0.0881145        -1.38485        0.554588
LJ          -1.56086         1.31439        0.359691
LJ          -1.87812        -0.79174         2.21081
LJ           1.29543       -0.865043         2.05404
