108
#Comment!
LJ           2.50863        -2.48114         2.46293
LJ          -1.68609        -1.84578         2.51202
LJ           2.53932        -1.67033        -1.54311
LJ          -1.93093        -2.48165        -1.80759
LJ         -0.937428         2.52289         2.41246
LJ         -0.213431         -1.7949         2.55498
LJ         -0.936299        -1.48504         -1.7188
LJ         0.0685154         2.37623        -1.70241
LJ          0.863676         2.54032        -2.44476
LJ           1.79613        -1.72721         2.54128
LJ          0.802832        -1.57892        -1.55475
LJ           1.96349        -2.54181        -1.60141
LJ           2.46754       -0.863203        -2.54619
LJ          -1.75771        0.113962          2.4925
LJ          -2.52887        0.173215        -1.78017
LJ          -1.79157       -0.693034        -1.43471
LJ          -1.20727       -0.894494         2.53341
LJ         0.0722653       -0.127066         2.54354
LJ          -0.85637        0.127988        -1.78837
LJ         0.0617725       -0.896545        -1.73511
LJ          0.950854       -0.997016         2.54884
LJ           1.66521        0.104756         2.55047
LJ          0.793707       0.0481296        -1.50204
LJ           1.68162       -0.889338        -1.77018
LJ          -2.53194         1.02397          2.4178
LJ          -1.71697         1.88104          2.5019
LJ          -2.51397         1.63127        -1.80727
LJ          -1.63926        0.939529        -1.87479
LJ         -0.698819          1.0907         2.37816
LJ         0.0270133         1.68828          2.4094
LJ         -0.763312         1.57011        -1.76499
LJ        -0.0489457         0.81724        -1.81744
LJ          0.835223         0.89046         -2.4795
LJ           1.79549         1.91842         2.54506
LJ          0.979721         1.76818        -1.54917
LJ           1.79386        0.829181        -1.77309
LJ          -2.42163         2.51565        -0.80474
LJ          -1.53891        -1.83998       -0.629483
LJ           2.54186        -1.71944      -0.0503552
LJ          -1.66603         2.43721      -0.0292205
LJ         -0.815087         2.45311       -0.898961
LJ         0.0522797        -1.66804       -0.934041
LJ         -0.810031        -1.78679        0.100289
LJ         -0.230139         2.26867      0.00476672
LJ          0.892528        -2.50124       -0.980758
LJ           1.73711        -1.66683       -0.764613
LJ          0.698826        -1.89519       0.0258551
LJ            1.5685        -2.46239       -0.152371
LJ           2.52087       -0.935726       -0.771838
LJ          -1.80413         0.13854       -0.812622
LJ          -2.55408       0.0313735      0.00126012
LJ          -1.76931       -0.714853      -0.0687862
LJ         -0.782395       -0.752735       -0.891554
LJ        -0.0562734         0.17015       -0.843664
LJ         -0.866402      -0.0368811      -0.0379734
LJ        -0.0693616       -0.766229      -0.0326726
LJ          0.749045       -0.932698       -0.734993
LJ            1.7332       -0.111585       -0.803913
LJ          0.788074       0.0450788       -0.118608
LJ           1.70951       -0.956705      -0.0171481
LJ          -2.53632         1.00103       -0.841245
LJ           -1.5902         1.66408        -1.09764
LJ          -2.52746         1.74262       0.0446423
LJ          -1.93122        0.844088       0.0766276
LJ          -1.00287        0.746716       -0.862015
LJ        -0.0171007         1.68081       -0.921436
LJ         -0.832508         1.46554      -0.0425856
LJ         0.0626253         1.02682       0.0575412
LJ           0.74339         1.01352       -0.726093
LJ           1.84104         1.69746       -0.937312
LJ          0.744218         1.89466     0.000890158
LJ           1.76728        0.825576       -0.137576
LJ           2.42082        -2.50452         1.00124
LJ          -1.53397        -1.73873         1.00857
LJ          -2.49736        -1.56105         1.83646
LJ           -1.8695          2.5148         1.64491
LJ         -0.657031         -2.5432        0.914262
LJ          0.211383        -1.68295        0.934534
LJ         -0.931283        -1.64886         1.78053
LJ          0.102409        -2.48143         1.78827
LJ           1.18711        -2.49004        0.936743
LJ           1.82035         -1.5286        0.888174
LJ          0.889305        -1.66547         1.69972
LJ           1.59933        -2.43524         1.80683
LJ           2.51819       -0.643161        0.905073
LJ          -1.87505       0.0410318        0.800031
LJ          -2.56405      -0.0446543         1.90539
LJ           -1.6841       -0.906036         1.60282
LJ          -0.67187       -0.833822        0.886572
LJ         0.0673825      -0.0837453        0.852527
LJ          -0.79191        0.070828         1.95709
LJ          0.130656       -0.952108         1.63679
LJ          0.906714       -0.886122        0.937082
LJ           1.58579      -0.0658382        0.617865
LJ          0.809504      -0.0896402          1.9003
LJ           1.70639       -0.915293         1.71448
LJ           2.43185        0.780397        0.719775
LJ          -1.57416         1.88123        0.860403
LJ           2.50271          1.6369         1.57839
LJ          -1.57185        0.871818         1.63056
LJ         -0.982347        0.666814        0.816499
LJ         0.0784303         1.65221        0.813148
LJ         -0.767852         1.72594         1.44809
LJ       -0.00459923        0.864856         1.70413
LJ          0.790184        0.786684         1.01114
LJ           1.80096         1.73399        0.817172
LJ          0.989867         1.61641         1.83381
LJ           1.73044        0.871927         1.68644
