108
#Comment!
LJ          -2.49288        -2.30034        -2.52262
LJ          -1.64396        -1.55876         -2.5512
LJ          -2.44631        -1.53191        -1.71027
LJ          -1.74705        -2.40656        -1.81197
LJ         -0.832877          2.3345        -2.53073
LJ        -0.0519841        -1.51448         2.53252
LJ         -0.790596        -1.43139        -1.90873
LJ          0.151203          2.5604        -1.82596
LJ           1.04151        -2.51583        -2.54605
LJ            1.5806        -1.52766         2.40673
LJ           1.05313        -1.69626         -1.7359
LJ           1.91293        -2.55539        -1.65189
LJ           2.50713       -0.738255        -2.46885
LJ           -1.9297     -0.00475462         2.32605
LJ           2.53182       0.0455266        -1.59022
LJ           -1.6711       -0.593365        -1.63116
LJ         -0.755704       -0.677475         2.51026
LJ         0.0935824      -0.0335578        -2.31367
LJ          -0.77052       0.0409676         -1.7738
LJ          0.172699       -0.901564        -1.52455
LJ          0.723797       -0.999626        -2.47189
LJ           1.69847       0.0616584        -2.44783
LJ           0.88115        0.241392        -1.62975
LJ           1.42088        -0.73362        -1.55115
LJ          -2.55993        0.872629        -2.36465
LJ          -1.74004          1.8991         2.39173
LJ           -2.4442         1.76022        -1.48228
LJ          -1.57251        0.657639        -1.99933
LJ         -0.469057        0.852982         2.49943
LJ          0.111004          1.8526         2.40741
LJ          -1.19566         1.62693        -1.74756
LJ         -0.208852         1.05677        -1.63693
LJ           1.02516          1.0227        -2.46077
LJ             1.779         1.90922        -2.53588
LJ          0.930144         1.83497        -1.80504
LJ           1.74282         1.21823        -1.83069
LJ           2.48933        -2.36471       -0.644988
LJ          -1.38287        -1.58885       -0.941008
LJ          -2.29374        -1.63809        0.105217
LJ          -1.70458         2.41131        0.364741
LJ         -0.689384         2.51368       -0.997726
LJ         0.0865871         -1.7997       -0.720231
LJ          -0.82506        -1.86561       0.0512632
LJ        -0.0302115         2.43787       0.0558217
LJ           1.04102        -2.44713       -0.918895
LJ           1.93438        -1.50784       -0.847516
LJ          0.715574        -1.95001        0.215636
LJ           1.65602        -2.54602       0.0599637
LJ          -2.23665       -0.824098       -0.747898
LJ           -1.8365         0.30238       -0.920031
LJ          -2.45154      0.00290865      -0.0291214
LJ          -1.56561        -0.59637      -0.0858263
LJ         -0.728758       -0.829921       -0.854492
LJ       -0.00757222       0.0212748       -0.792018
LJ         -0.663621      -0.0514612       0.0764418
LJ        -0.0699826        -1.09137       0.0920244
LJ          0.892829        -1.08127       -0.648001
LJ            1.8933       -0.303945       -0.571271
LJ          0.888924       0.0847059      0.00295405
LJ           1.90187         -1.0457        0.199937
LJ           2.31199        0.829223       -0.721585
LJ           -1.7383         1.69489       -0.663118
LJ           2.36088         1.66332       0.0315757
LJ          -1.79519         1.03293        0.123619
LJ         -0.890412        0.841526       -0.874142
LJ         0.0570494         1.81925       -0.925619
LJ         -0.845095         1.68692      -0.0794052
LJ          0.161123        0.935048       -0.131225
LJ           0.87052        0.963486       -0.924116
LJ           1.71414         1.76209       -0.865515
LJ          0.848687         1.84895       -0.139305
LJ           1.69527        0.642372       0.0322293
LJ            2.4183         2.41896        0.723695
LJ          -1.54393        -1.76424        0.911274
LJ           2.43349        -1.44767         1.65746
LJ          -1.89177        -2.37981          1.6572
LJ         -0.694721         2.45645        0.968249
LJ         -0.136761        -1.59273         1.09512
LJ         -0.814386        -1.62807         1.82656
LJ          0.018537        -2.30945          1.7616
LJ           0.84951         2.49127        0.895047
LJ            1.5153        -1.65863         0.99069
LJ          0.789639        -1.54305         1.71296
LJ            1.5194        -2.53378         1.56439
LJ          -2.31024        -0.78142        0.928843
LJ          -1.82269        0.197711        0.779864
LJ           2.30612        0.120615         1.66657
LJ          -1.64074       -0.891816         1.61118
LJ         -0.879688       -0.893692        0.855581
LJ          0.143254         -0.0879        0.887252
LJ         -0.991025      -0.0518255         1.58625
LJ         0.0494229       -0.622144         1.82998
LJ          0.942872       -0.907345        0.480594
LJ           1.65914       -0.231506        0.875866
LJ          0.985258      -0.0321703         1.75036
LJ           1.57778       -0.814007         1.71591
LJ           2.39539        0.922424         1.03938
LJ          -1.92738         1.64075        0.926328
LJ            2.4285         1.94335         1.63631
LJ          -1.68976        0.827796         1.61877
LJ          -0.94503         0.88183        0.943403
LJ          0.280026         1.46036        0.701179
LJ         -0.729044         1.50927         1.67428
LJ          0.113086        0.721179         1.66144
LJ           1.11638          0.6883          1.0882
LJ           1.60595         1.76939        0.892715
LJ          0.780843         1.77395         1.61349
LJ           1.75798        0.892277          1.8993
