108
#Comment!
LJ          -2.47138        -2.26708         2.34644
LJ          -1.72351        -1.58924         2.42167
LJ          -2.22088        -1.56273        -1.66439
LJ          -1.51891        -2.41953        -1.78683
LJ          -0.76023         2.48948         2.49775
LJ         -0.132868         -1.6938          2.5491
LJ          -1.09959        -1.52925        -1.79068
LJ          0.118472         2.37919         -1.8713
LJ          0.993037        -2.49587         2.49101
LJ           1.71417        -1.59545         2.44371
LJ            1.0254        -1.83308        -1.70913
LJ           1.94723           2.352        -1.80007
LJ          -2.48666       -0.777379         2.50257
LJ          -1.79722      -0.0627868         2.40715
LJ          -2.47595     0.000653276        -1.77387
LJ          -1.67346       -0.642402        -1.63592
LJ          -1.08283        -0.84845        -2.49843
LJ        0.00266299       -0.124744        -2.34667
LJ          -0.98708       0.0355473        -1.80894
LJ         0.0121367        -1.12184         -1.7105
LJ          0.895733       -0.904798         2.53521
LJ           1.68715      -0.0227469        -2.38936
LJ          0.875253        0.162108        -1.81576
LJ           1.61776       -0.653667        -1.69109
LJ          -2.44472        0.937421        -2.46216
LJ          -1.68748         2.00419         2.36363
LJ          -2.51548          1.6228         -1.6127
LJ           -1.6959        0.729536        -1.88679
LJ         -0.467606        0.779774         2.44677
LJ           0.15858          1.6312         2.30033
LJ          -1.19869          1.6748        -1.73652
LJ      -0.000133604         1.13248        -1.81486
LJ           1.06671        0.987862         2.48385
LJ           1.84438         1.73313        -2.53364
LJ          0.937457         1.78945        -1.95411
LJ           1.57055        0.896983        -1.65735
LJ           2.53295         2.39508       -0.845065
LJ          -1.45237        -1.68374       -0.833789
LJ          -2.24332        -1.76333      -0.0271636
LJ          -1.65787         2.55143        0.108086
LJ         -0.566052        -2.45223        -1.09186
LJ         0.0158333        -1.70435       -0.792809
LJ         -0.760463        -1.93327     -0.00800234
LJ        0.00497645         2.24292       0.0636357
LJ          0.792113        -2.54775       -0.947356
LJ           2.01862        -1.75648       -0.893933
LJ           0.77702        -1.85148        0.341416
LJ            1.6591        -2.49164       0.0324283
LJ          -2.39121       -0.879031       -0.810823
LJ          -1.91754       0.0599003       -0.918585
LJ          -2.41756      -0.0104512       0.0642689
LJ           -1.6668       -0.711956       0.0663708
LJ         -0.729421       -0.890412       -0.806523
LJ         -0.193696      -0.0732303        -1.03373
LJ         -0.675841     -0.00377534      -0.0114994
LJ          0.044304       -0.831206         0.12049
LJ           1.00602         -1.2458       -0.816122
LJ           1.81622       -0.129965       -0.636488
LJ          0.939961        0.112094       0.0931214
LJ           1.93656          -0.993       0.0215359
LJ           2.46798        0.823521       -0.811087
LJ          -1.62031         1.66802       -0.804217
LJ           2.32475          1.5833       0.0376139
LJ          -1.80395         1.02325        0.312902
LJ          -1.15793        0.707957       -0.986321
LJ          0.152786         1.64611       -0.869165
LJ         -0.840825         1.62169       -0.254987
LJ        -0.0119975        0.810147       -0.241449
LJ          0.972582        0.824034       -0.857526
LJ           1.69293         1.67931       -0.732465
LJ          0.892094         1.68617       -0.148703
LJ           1.64722        0.751351      0.00475228
LJ           2.53145         2.38469        0.677842
LJ          -1.38537        -1.82251        0.820358
LJ          -2.53596        -1.47965         1.59043
LJ           -1.9349        -2.31309         1.51288
LJ         -0.786491         2.43071        0.892405
LJ        -0.0467603        -1.52641        0.944642
LJ         -0.838328        -1.69336          1.9007
LJ         0.0211643        -2.32889         1.73101
LJ          0.782362         2.44248        0.971731
LJ           1.71152        -1.55116        0.879259
LJ           0.86043        -1.62487         1.78294
LJ           1.82013        -2.47036         1.60768
LJ          -2.45127        -0.90875        0.777147
LJ          -1.52187       -0.047462         0.81074
LJ           2.46293      -0.0898055          1.6402
LJ          -1.69601        -0.76221         1.61357
LJ         -0.881382       -0.916043         1.14215
LJ          0.166648      -0.0969696        0.968067
LJ         -0.954392        0.064471          1.7853
LJ          0.184892       -0.833195         1.70754
LJ          0.839665       -0.856872         0.65606
LJ           1.73174        -0.26657        0.708238
LJ          0.735706     -0.00606263         1.82616
LJ           1.60651       -0.775797          1.6994
LJ           2.23386        0.961538        0.996664
LJ          -1.71405         1.75125          0.9491
LJ           2.46174         1.81117         1.72211
LJ          -1.89172        0.828305         1.42131
LJ         -0.880008         0.81839        0.622653
LJ          0.433723         1.53762         0.73931
LJ         -0.909211         1.39649         1.64511
LJ         0.0945335        0.935447         1.47009
LJ           1.15429        0.648876         1.00809
LJ            1.4691         1.64545        0.629627
LJ           1.16754         1.75077         1.73839
LJ           1.81771         1.08668         1.88053
