108
#Comment!
LJ          -2.51871        -2.42796         2.53653
LJ           -1.7108        -1.49768         2.50313
LJ          -2.26609        -1.52973        -1.74769
LJ          -1.62931         -2.4344        -1.78426
LJ         -0.773846         2.29794        -2.41262
LJ         -0.114633        -1.54601         2.48698
LJ         -0.948452        -1.52301        -1.94848
LJ         0.0480502        -2.55793        -1.87447
LJ           1.02974        -2.34078        -2.43288
LJ           1.72813        -1.53308         2.43377
LJ           1.19046        -1.67536        -1.69905
LJ            1.8537         2.49538        -1.63454
LJ           2.40888       -0.665294        -2.56211
LJ          -1.80017      -0.0510028         2.32298
LJ          -2.49454       -0.060778        -1.72524
LJ          -1.54326       -0.624054        -1.75584
LJ         -0.864113       -0.754791        -2.52782
LJ         0.0996707       -0.138019        -2.37059
LJ         -0.808123       0.0726003        -1.70875
LJ          0.143888       -0.966448        -1.70507
LJ          0.717016       -0.972521        -2.49314
LJ           1.64707       0.0238292         -2.4201
LJ          0.849637        0.156224        -1.74195
LJ            1.5713       -0.584715        -1.53535
LJ          -2.52524        0.848856        -2.40325
LJ          -1.82073         1.94392         2.36706
LJ          -2.49796         1.68257        -1.56928
LJ          -1.56411        0.726598         -2.0347
LJ         -0.556719        0.723609        -2.56353
LJ         0.0339705         1.72867         2.29044
LJ          -1.28665         1.71992        -1.75646
LJ         0.0547549         1.03007        -1.71336
LJ           1.04961         1.03909        -2.52153
LJ           1.73797         1.87462         2.48135
LJ          0.938369         1.93005         -1.8157
LJ           1.83894        0.930315         -1.8104
LJ          -2.52381         2.51132        -0.71376
LJ          -1.41683        -1.71334       -0.935684
LJ           -2.3315        -1.62938       -0.136106
LJ          -1.58223         2.39078        0.183073
LJ         -0.665521        -2.46554       -0.967725
LJ         0.0566781        -1.80611        -0.72854
LJ         -0.758015        -1.74952      -0.0142437
LJ        -0.0126226         2.31481        0.181828
LJ          0.784907         2.52021        -1.00024
LJ           1.90473        -1.62277       -0.910566
LJ          0.929237        -1.86915         0.24789
LJ           1.76137        -2.47831       0.0783052
LJ          -2.38665        -0.81284       -0.866433
LJ           -1.7879        0.179189       -0.912691
LJ          -2.36712       0.0699255      -0.0209466
LJ          -1.60249       -0.681913      -0.0696648
LJ         -0.736264       -0.788285       -0.685286
LJ          -0.03227        0.114069        -1.00999
LJ         -0.661949      -0.0633942        0.113142
LJ        -0.0492236       -0.905094        0.205101
LJ           1.01553        -1.06751       -0.725282
LJ           1.79727       -0.270749       -0.652098
LJ          0.830759        0.104202        0.145605
LJ           1.94233        -1.04152     -0.00270512
LJ           2.46606         0.78711       -0.737059
LJ          -1.84122         1.71082       -0.683587
LJ           2.51011         1.71042       -0.020537
LJ          -1.79398        0.899745        0.165041
LJ          -1.02933        0.766844       -0.947349
LJ         0.0562124         1.73113       -0.844127
LJ          -0.68781         1.64369      -0.0903272
LJ         0.0201114        0.820469       -0.139588
LJ          0.848803         1.03163       -0.960707
LJ            1.6418         1.72256       -0.835841
LJ          0.936742         1.65614       -0.139335
LJ           1.64222        0.806838       0.0861825
LJ            2.4818         2.42496        0.761222
LJ          -1.50089        -1.82847        0.802148
LJ            2.5128        -1.39715         1.60565
LJ          -1.91201        -2.31294         1.65806
LJ         -0.871637         2.42414         0.95649
LJ       -0.00969192        -1.44995         1.12303
LJ         -0.877855        -1.70902         1.78172
LJ       0.000465095        -2.30335         1.76186
LJ          0.792203         2.37191        0.906149
LJ           1.69031        -1.56062         1.02901
LJ          0.776736        -1.65331         1.75849
LJ           1.72497        -2.52834         1.51268
LJ          -2.34049        -0.75708        0.722833
LJ          -1.68193       0.0664313        0.820217
LJ           2.46633        0.035544         1.61354
LJ          -1.67736       -0.912341         1.57861
LJ         -0.858698       -0.840102          1.0449
LJ          0.140847       -0.201196        0.861428
LJ         -0.912227       0.0281337         1.83145
LJ          0.180753       -0.769504         1.77134
LJ           1.06466        -0.87903        0.575037
LJ           1.75056       -0.306243        0.845708
LJ          0.807039       0.0217208         1.73511
LJ           1.46515       -0.782497         1.70831
LJ           2.35063        0.917663         1.09527
LJ          -1.84695         1.64194        0.962664
LJ           2.46865         1.84547         1.60845
LJ          -1.77422        0.844988         1.71172
LJ         -0.880686        0.968376        0.822687
LJ          0.378467         1.37327        0.725284
LJ         -0.756622         1.45371         1.68663
LJ          0.136678        0.767493         1.69301
LJ            1.1875        0.581551         1.01722
LJ           1.57949         1.81599        0.728259
LJ          0.942528         1.70098         1.69107
LJ             1.836        0.999988         1.87986
