108
#Comment!
LJ           2.54223         2.49855        -2.52471
LJ          -1.71405        -1.80071        -2.56224
LJ           2.52643        -1.81516        -1.75254
LJ          -1.75654         2.51043        -1.66355
LJ         -0.945118         2.47322         2.45819
LJ        -0.0369411        -1.75229        -2.48043
LJ         -0.755111         -1.6784        -1.70638
LJ        -0.0237763        -2.51407        -1.58924
LJ          0.889125         2.55677         2.49279
LJ           1.70088        -1.83889         -2.4877
LJ          0.867545        -1.70667        -1.64146
LJ           1.75376        -2.54466        -1.67782
LJ           2.54415       -0.820942         2.54256
LJ          -1.62378       0.0282723          -2.557
LJ           2.54975       0.0219058        -1.71174
LJ          -1.61153        -0.91672        -1.72382
LJ         -0.908133       -0.803889        -2.55751
LJ         0.0883785      -0.0547764          2.5486
LJ         -0.842925        0.164052        -1.66605
LJ         -0.100294       -0.887368          -1.725
LJ          0.841588       -0.938714         -2.4594
LJ           1.74226        0.119813        -2.56213
LJ          0.724041       0.0750745        -1.71342
LJ           1.64094       -0.862395        -1.63289
LJ          -2.53636        0.776127         2.53628
LJ          -1.74723         1.68689         2.51486
LJ          -2.53104          1.5655        -1.74667
LJ          -1.70291        0.846374         -1.6845
LJ         -0.773365        0.898603         2.41764
LJ         0.0526853         1.64391         2.49501
LJ         -0.816395         1.65513        -1.72446
LJ         0.0558209        0.882897         -1.8373
LJ           0.88335        0.909373        -2.53065
LJ           1.69358         1.68043        -2.56117
LJ          0.986756         1.71846        -1.73301
LJ           1.66434        0.785113        -1.67801
LJ          -2.53924         2.52523        -0.85655
LJ          -1.60834        -1.67532       -0.858908
LJ          -2.50899        -1.80615      -0.0271395
LJ          -1.70701         2.51656      -0.0371227
LJ          -0.79889          2.5457       -0.786439
LJ        -0.0013958        -1.60817       -0.864706
LJ         -0.859668        -1.69298      0.00939562
LJ         -0.133032         2.48558      -0.0958256
LJ          0.931154         2.52969       -0.732372
LJ           1.60017        -1.77997       -0.848533
LJ           0.82036        -1.84424       0.0493348
LJ           1.68664        -2.48135       0.0296638
LJ           2.54905       -0.841204       -0.762045
LJ          -1.78588        0.100097         -0.9568
LJ           2.51871        0.018538      -0.0652801
LJ          -1.72009       -0.922821      0.00701497
LJ         -0.788237       -0.854247       -0.766771
LJ         0.0374979       -0.187133       -0.828423
LJ         -0.920202      -0.0341648       0.0593524
LJ          0.029036       -0.729107         0.14277
LJ           0.92435       -0.765207       -0.903591
LJ           1.73621       0.0138159       -0.906208
LJ          0.856079      0.00589324       -0.073347
LJ           1.64101       -0.910097       -0.132095
LJ           -2.5268        0.914056       -0.827936
LJ           -1.7318         1.72722       -0.901461
LJ           2.50082         1.65847         0.02465
LJ           -1.6834         0.96685        0.146091
LJ         -0.782894        0.838527        -0.73531
LJ          -0.11229         1.67095       -0.950297
LJ         -0.904176         1.74258      -0.0263209
LJ         -0.051525        0.799075        0.183016
LJ          0.864104        0.913681       -0.809328
LJ           1.82717         1.76026       -0.801858
LJ          0.747033         1.81241       -0.133454
LJ           1.66935        0.822291       0.0305209
LJ          -2.47048        -2.48974        0.860625
LJ            -1.654        -1.78612        0.876238
LJ           2.53735        -1.65582         1.67773
LJ          -1.80765        -2.55564         1.65413
LJ         -0.892132        -2.52837        0.799624
LJ         0.0148356        -1.72201        0.875162
LJ          -0.85255        -1.74484         1.78144
LJ          0.127907        -2.51593         1.73683
LJ          0.898638         2.35922         0.90944
LJ           1.72524        -1.85305        0.870648
LJ          0.980743        -1.81419         1.51389
LJ           1.77572        -2.54498         1.73974
LJ           2.53662       -0.795662        0.914711
LJ          -1.69048      -0.0452415        0.842791
LJ          -2.54027      -0.0692107         1.79416
LJ           -1.7279       -0.821862         1.82575
LJ         -0.883334       -0.794642        0.793315
LJ          0.111174      -0.0232372        0.922166
LJ         -0.802054      -0.0292504         1.63246
LJ       -0.00840863       -0.916866         1.72056
LJ          0.851199       -0.900548        0.799974
LJ            1.6349      -0.0960971        0.810862
LJ          0.793919      0.00691106         1.75439
LJ           1.79045       -0.757814         1.70114
LJ           -2.5616        0.897812        0.818533
LJ          -1.70254         1.60981        0.867523
LJ          -2.56366         1.70381         1.82512
LJ          -1.61399        0.832507         1.75876
LJ         -0.812673        0.833525        0.881891
LJ         0.0104472         1.62972        0.955959
LJ         -0.840115         1.71859         1.65626
LJ        -0.0300334        0.744191         1.69163
LJ          0.812732        0.739019        0.733706
LJ           1.64864         1.59765        0.825062
LJ             0.857         1.59199         1.75354
LJ           1.74159        0.869158         1.68578
