108
#Comment!
LJ           2.45329        -2.54716         2.52638
LJ           -1.6987        -1.88616         2.55956
LJ          -2.50247        -1.68012        -1.77994
LJ          -1.81477          2.5359        -1.70032
LJ          -0.92751         2.33354         2.45652
LJ         -0.164715        -1.82422        -2.48717
LJ         -0.836302        -1.61435        -1.57078
LJ        0.00313395         2.56156         -1.6919
LJ           0.91616          2.5547        -2.53256
LJ           1.62836        -1.81611        -2.50763
LJ          0.838011        -1.50539        -1.61652
LJ           1.88529        -2.44116        -1.72506
LJ           2.42272       -0.883477         2.51911
LJ          -1.58497       0.0604877         2.54061
LJ           2.55367        0.141074        -1.81478
LJ          -1.84132       -0.942284        -1.73025
LJ          -1.15104       -0.820308         2.54386
LJ         0.0140473       -0.125441         2.49146
LJ         -0.842165        0.049823        -1.73638
LJ         0.0431785       -0.815456        -1.69267
LJ          0.877891       -0.966021        -2.55638
LJ           1.80284        0.127309        -2.53307
LJ          0.722541        0.219964        -1.65132
LJ           1.67311       -0.807135        -1.67461
LJ          -2.54256        0.841218         2.50794
LJ          -1.76622         1.78048         2.52015
LJ          -2.55061         1.58139        -1.76953
LJ          -1.74484         0.92454        -1.68207
LJ         -0.695733        0.992284         2.31023
LJ          0.168094         1.73835         2.41135
LJ         -0.904812         1.60629        -1.61732
LJ         -0.106663        0.903571        -1.86512
LJ          0.771723        0.933363        -2.37628
LJ           1.75403         1.69402        -2.49044
LJ          0.944606         1.79203        -1.63811
LJ           1.74562        0.872568        -1.70411
LJ          -2.49471         -2.4411       -0.821428
LJ          -1.50906        -1.71279        -0.74348
LJ            2.4732        -1.76738     -0.00848946
LJ          -1.58493         2.53322      0.00099259
LJ         -0.770497        -2.52675       -0.823885
LJ        -0.0775206         -1.7111       -0.941731
LJ         -0.856652         -1.7704        0.141501
LJ         -0.123288         2.41294      -0.0394153
LJ          0.838562         2.52907       -0.876826
LJ           1.58503        -1.82027       -0.843251
LJ          0.726772        -1.78679        0.141025
LJ           1.63139        -2.50626      -0.0720388
LJ          -2.43316        -0.93671       -0.799373
LJ          -1.93784        0.192756       -0.828323
LJ           2.46179       0.0363932      -0.0495214
LJ          -1.64823       -0.858704      -0.0540199
LJ         -0.904049       -0.733928       -0.823679
LJ        -0.0372671     -0.00859438       -0.760839
LJ          -0.84634      -0.0163651      -0.0530724
LJ        -0.0362924       -0.701925      -0.0102622
LJ          0.965832       -0.846564       -0.749529
LJ           1.73864       -0.205599        -0.82044
LJ          0.875192      -0.0795064      -0.0623326
LJ           1.73429        -1.03989       -0.141272
LJ          -2.48905          1.0816       -0.880415
LJ          -1.72952         1.77604       -0.990074
LJ          -2.54662         1.81228        0.137245
LJ          -1.77473        0.946918       0.0917053
LJ         -0.817998        0.756034       -0.825286
LJ        -0.0940027         1.67437       -0.974165
LJ          -0.88731         1.72574        -0.15115
LJ         -0.141258        0.974327      -0.0497361
LJ          0.670379        0.925456       -0.834046
LJ           1.74533         1.92274       -0.902204
LJ          0.709298         1.76484      -0.0517122
LJ           1.64435        0.806818       0.0917765
LJ           2.53168         2.52414        0.901138
LJ          -1.56527        -1.70144        0.937891
LJ           2.37653        -1.70382         1.70789
LJ          -1.83837         2.48293         1.62153
LJ         -0.811273         2.50947         0.74103
LJ         0.0104573        -1.73749        0.853828
LJ         -0.927934        -1.75293         1.70485
LJ          0.103794         -2.4536         1.90984
LJ           1.09322         2.51126        0.959191
LJ           1.72181        -1.80172        0.869698
LJ          0.933934        -1.57748         1.61495
LJ           1.69152        -2.53292         1.80734
LJ            2.4802       -0.573937         0.90001
LJ          -1.78588       0.0359878         0.89095
LJ           -2.4467      -0.0210394         1.97698
LJ          -1.77628       -0.814019         1.69329
LJ         -0.683153       -0.879391        0.785175
LJ         0.0397432      0.00615163        0.814742
LJ         -0.660147       0.0958971         1.73826
LJ        0.00720046       -0.824067         1.59546
LJ          0.815269       -0.948235        0.791075
LJ           1.61076      -0.0220063        0.709099
LJ          0.821231       -0.163121         1.77184
LJ           1.65527       -0.878355         1.69743
LJ           2.39059        0.964533        0.867726
LJ          -1.78426         1.71998        0.795935
LJ          -2.52945         1.68435         1.81016
LJ          -1.78517        0.792768         1.67404
LJ          -0.83903        0.683126        0.852076
LJ         -0.045423          1.6361        0.897795
LJ         -0.802675         1.75838         1.63599
LJ         0.0448803        0.812068         1.56353
LJ          0.851005        0.751532        0.822852
LJ           1.76633         1.76492         0.79247
LJ          0.866228         1.59412         1.70541
LJ           1.65682         1.03887         1.62252
