108
#Comment!
LJ          0.624258        0.108958        -1.79504
LJ           2.03496        0.118294        -1.30493
LJ          -1.41218         1.12595         1.24736
LJ           -1.0577        -2.15637          2.2577
LJ           2.18332         2.01004        -1.79152
LJ           1.83996         1.07365        -1.32675
LJ           2.06184       -0.391905        -2.42147
LJ           2.48119       -0.322845         1.30864
LJ          0.754574         1.11653        -1.31236
LJ        0.00473411         2.37863        0.148276
LJ          -2.35458        -1.46743       -0.657467
LJ          -1.49816         2.11843         1.71945
LJ           2.01599        -1.31014        0.276304
LJ          -1.73043        -1.55189         1.94701
LJ         -0.473152         2.45978        0.990582
LJ           1.23463         2.31723        -1.01492
LJ          0.273525          2.5257       -0.995395
LJ          0.700134        0.953338         0.49632
LJ          -2.00549         1.58303        -0.88574
LJ          -2.48041         1.15191        0.332002
LJ          -1.27097        0.712161         2.40137
LJ         -0.398114         1.37858        0.657759
LJ           1.01278        -1.63638       -0.893694
LJ         -0.747502         2.12334       -0.818496
LJ           -0.1232       -0.820978        0.528417
LJ           1.31724        -1.42505         2.45887
LJ          -2.36837        -2.28085         1.57356
LJ          0.225056        -1.15433         2.08432
LJ           1.47037       -0.289368        0.831719
LJ           2.27497        -2.49894       -0.535187
LJ          -1.90554       -0.522389         1.99187
LJ           1.47153         1.57844        -2.42821
LJ          0.958917         2.49726        -1.94644
LJ          -2.19088        -2.43391         -1.3293
LJ        -0.0584364        -1.53091        -1.27374
LJ          0.757175        -2.40314          1.3103
LJ          -1.83791          2.5022         -2.3636
LJ         -0.759962        -2.20092        -1.89054
LJ           1.91725         -1.6434         1.35305
LJ           1.15752         1.96247        0.664335
LJ           1.65952         1.46533       -0.333629
LJ          -0.36011       -0.693935       -0.715929
LJ           1.10336        0.697288         1.65596
LJ          -2.33542          0.2822        -2.32435
LJ          -2.12459        0.647467         1.85644
LJ          -1.71974        0.425675        -1.46935
LJ           1.64353        -2.02621        -1.62124
LJ         0.0627148          1.7611        -1.80907
LJ          0.546429       -0.231763       -0.268324
LJ          -1.35213        -2.05812          1.1073
LJ         -0.848715       -0.288135        -1.63018
LJ          -2.08676         1.32653        -1.89641
LJ         -0.242381        -1.66324       0.0925885
LJ          0.036912        -1.71631         1.09731
LJ           1.32871        0.437529       -0.254458
LJ           0.59322         1.99256         2.27179
LJ           1.95053        0.378474         1.97724
LJ         -0.939502        -1.57193       -0.645564
LJ          -2.15365       -0.448054        -1.09604
LJ          0.791956        -1.06598         1.21482
LJ          0.928752       -0.894165        -1.56135
LJ         -0.516843         1.45625         2.19868
LJ         -0.994674          1.0953       -0.912637
LJ          -2.54915         1.79954         1.27468
LJ           1.68451        0.723224        0.822102
LJ          -1.57263         0.33932       -0.316486
LJ          0.776917       -0.551862        -2.45602
LJ           2.56344        0.735826       -0.569582
LJ          0.387073        0.980618        -2.28227
LJ         -0.957498        -1.04554          2.4492
LJ          -1.16913      -0.0375138         1.46647
LJ          -1.43572        -1.37945        0.230064
LJ           2.21903        -1.08544        -1.59746
LJ         -0.480489        0.294654       0.0432817
LJ          -1.97024         -1.1596         1.11778
LJ         -0.125577       -0.883554        -2.01456
LJ          0.948737        -1.13615        0.162839
LJ            2.0628        -2.30942         2.32371
LJ           1.61963        0.585555        -2.25918
LJ          -1.08839         1.86519        -1.80393
LJ           2.35234        -1.05977         2.02206
LJ          -2.19995       -0.605936        0.202494
LJ          -2.23074        -1.57462        -2.26843
LJ          0.275256         1.88197         1.32771
LJ          -1.26916         1.21173       0.0822525
LJ        -0.0707891        -2.18673         2.10048
LJ          0.104366        0.451253       -0.956925
LJ         -0.820022        -1.25408         1.22202
LJ           1.77187         2.34531         1.42515
LJ            0.2396         1.53433       -0.594976
LJ          -2.38004        -2.20276        0.557878
LJ          -1.26187       -0.512471       -0.669957
LJ          -1.70418         1.98569        0.579905
LJ           1.70402       -0.542191        -0.23522
LJ           1.38497        -2.12378         0.36415
LJ        -0.0251236        0.739375         1.57234
LJ         -0.775564        0.787614        -1.84532
LJ          0.478185        -1.77645        -2.18273
LJ         -0.242257       0.0810224        -2.55057
LJ          -1.93987       -0.636981          -2.198
LJ            1.4745       -0.563864         1.86103
LJ          -1.42612        -2.38527       -0.101744
LJ          -1.89958        0.331369        0.812042
LJ          -1.31189        -1.26777        -1.77176
LJ           2.55653         1.55089         2.33126
LJ           -1.2381       -0.419981        0.481553
LJ           2.16225         2.09304        0.397292
LJ         -0.209378       -0.308343          1.4168
