108
#Comment!
LJ           2.52823        -2.56151         2.50447
LJ          -1.72837        -1.82005        -2.56485
LJ          -2.46398         -1.7579        -1.69214
LJ          -1.82074        -2.55486        -1.73002
LJ         -0.839133         2.45981         2.48021
LJ         -0.227409        -1.77118        -2.49323
LJ         -0.870237        -1.66154        -1.56872
LJ        -0.0431007        -2.51989           -1.64
LJ          0.904012         2.46615         2.52014
LJ           1.60013        -1.84058         2.55876
LJ          0.872555        -1.53368        -1.64642
LJ            1.8567        -2.49964        -1.70402
LJ           2.41152       -0.880839         -2.5578
LJ          -1.58239       0.0840321         2.51201
LJ           2.52927       0.0448109        -1.76289
LJ          -1.76972       -0.896345        -1.73876
LJ          -1.04996        -0.93604         2.55696
LJ         0.0283638       -0.107857         2.49879
LJ          -0.91112        0.129308        -1.74107
LJ         0.0696041       -0.904017        -1.73025
LJ          0.877938        -0.98813        -2.49156
LJ           1.79596        0.140987        -2.52187
LJ          0.724409        0.155996         -1.6925
LJ            1.6687       -0.856935        -1.69983
LJ            2.5138        0.807987         2.51352
LJ           -1.7738         1.67528         2.52136
LJ          -2.54594         1.56427        -1.78564
LJ          -1.74656        0.920317        -1.62737
LJ         -0.791218        0.972791         2.30196
LJ          0.163171         1.64322          2.4306
LJ         -0.844893         1.73259        -1.64401
LJ        -0.0215988        0.904792        -1.88998
LJ          0.873188        0.941152        -2.38661
LJ           1.83981         1.76214        -2.53095
LJ          0.991039         1.83247         -1.6845
LJ           1.71593        0.829989        -1.69517
LJ          -2.54795        -2.48643       -0.906161
LJ          -1.51833         -1.7525       -0.754242
LJ           2.48981        -1.77257     -0.00420828
LJ          -1.65463         2.49252       0.0767305
LJ         -0.776911        -2.55495       -0.891548
LJ         0.0323208        -1.68866       -0.908547
LJ          -0.87374        -1.73453       0.0843769
LJ        -0.0937455         2.46513       0.0410572
LJ          0.845768          2.5371       -0.821476
LJ           1.61108        -1.79451       -0.738216
LJ          0.801744        -1.84734         0.16673
LJ           1.65867        -2.53863       -0.066732
LJ           -2.5301       -0.867938       -0.788886
LJ          -1.93498        0.121831       -0.781615
LJ           2.44096      -0.0439166      -0.0611638
LJ          -1.73145       -0.925108      -0.0447777
LJ         -0.932631       -0.749065       -0.780573
LJ         -0.061899      -0.0458226       -0.839269
LJ         -0.937595      -0.0229301      -0.0152109
LJ        -0.0915763        -0.71446       0.0051821
LJ          0.876875       -0.875176       -0.775112
LJ           1.71789       -0.172203       -0.863008
LJ          0.929379      -0.0590782       -0.150011
LJ           1.69667       -0.930165       -0.140395
LJ          -2.42152        0.995666       -0.864295
LJ          -1.79739         1.79214       -0.968762
LJ          -2.47608         1.75359        0.112409
LJ          -1.66862         0.93434        0.133929
LJ          -0.84925        0.781584       -0.698362
LJ         -0.136933         1.71173       -0.933946
LJ         -0.931253          1.7603       -0.160709
LJ        -0.0678849        0.917694       0.0592365
LJ          0.691803        0.899647       -0.871557
LJ           1.68556         1.88228       -0.882089
LJ          0.657769         1.72617       -0.189152
LJ           1.71517        0.726982       0.0428082
LJ           2.51865         2.51204         0.96858
LJ          -1.63678         -1.7611        0.979628
LJ           2.26539        -1.67655         1.71472
LJ          -1.87689        -2.54809         1.64329
LJ         -0.861069         2.42959        0.809924
LJ         0.0766263        -1.78542        0.917515
LJ         -0.897867        -1.65815         1.75535
LJ         0.0336182        -2.50942         1.88367
LJ           1.06201         2.44828        0.941138
LJ           1.70633        -1.80307        0.826161
LJ          0.977723        -1.60742         1.66188
LJ           1.69365        -2.49937         1.76285
LJ           2.37352       -0.634003        0.953729
LJ           -1.7187      0.00973083        0.792865
LJ          -2.46313     -0.00440357         1.92142
LJ          -1.77427       -0.901954         1.77829
LJ          -0.77045       -0.911566        0.821286
LJ         0.0905126      -0.0075896        0.853125
LJ         -0.710929       0.0267276         1.74474
LJ        0.00961907       -0.900667         1.64361
LJ          0.810721       -0.904853        0.771818
LJ            1.6138      -0.0423965         0.74718
LJ          0.869123       -0.142467         1.71306
LJ           1.72027       -0.845318         1.74036
LJ           2.50218        0.933079        0.768972
LJ          -1.81644         1.69882        0.858161
LJ          -2.55135         1.76576         1.75161
LJ          -1.64941         0.79234          1.7897
LJ         -0.856521         0.66324        0.799702
LJ        -0.0662899         1.63792        0.926431
LJ         -0.851606         1.77677         1.71738
LJ         0.0302218        0.749766         1.57339
LJ          0.881313        0.707279        0.817236
LJ           1.74613         1.65895        0.735005
LJ          0.837289         1.57264         1.65367
LJ           1.67414         1.02443         1.70028
