108
#Comment!
LJ           2.46629        -2.52117          2.5525
LJ          -1.66503        -1.82767         2.54898
LJ           2.56011        -1.70664        -1.60535
LJ          -1.88653         2.50664        -1.79011
LJ         -0.865424         2.54907         2.39695
LJ         -0.187951        -1.86261        -2.51626
LJ         -0.915894         -1.5216        -1.67703
LJ          0.123455         2.36423        -1.72433
LJ          0.861076         2.52337        -2.38957
LJ           1.68465        -1.69297          2.5596
LJ          0.793055        -1.52584        -1.55031
LJ           1.89064        -2.45525        -1.61206
LJ           2.46004       -0.861024        -2.53827
LJ          -1.64714        0.154609         2.48783
LJ           -2.4949        0.179209        -1.82776
LJ          -1.84943       -0.839886        -1.52365
LJ          -1.10472       -0.978144         2.52626
LJ         -0.024248       -0.072449        -2.55712
LJ         -0.832613        0.149723        -1.77226
LJ          0.055539        -0.81999        -1.75437
LJ          0.915427        -1.02697        -2.52988
LJ           1.69855        0.184391         2.52282
LJ          0.711482        0.189692        -1.61546
LJ           1.59207       -0.823579         -1.7804
LJ          -2.50017        0.975652         2.47271
LJ          -1.80542         1.87655         2.49689
LJ            -2.558         1.62841        -1.80118
LJ           -1.6633        0.911461        -1.76696
LJ         -0.669593        0.988631         2.27006
LJ          0.115559         1.70091         2.36678
LJ         -0.804647         1.61439        -1.68702
LJ        -0.0683828        0.861228        -1.69994
LJ          0.739059        0.892539        -2.44889
LJ           1.79478         1.88596        -2.53067
LJ          0.970724         1.78093        -1.52451
LJ           1.78651        0.827335        -1.68682
LJ          -2.45384        -2.56424       -0.857014
LJ          -1.55468         -1.7406       -0.611266
LJ          -2.54506        -1.78394      -0.0407889
LJ          -1.75761         2.41428       0.0129652
LJ         -0.737432         2.50214       -0.818527
LJ          0.027557        -1.69201       -0.829286
LJ         -0.792129        -1.74454        0.125985
LJ         -0.205239         2.36532      -0.0171596
LJ           1.03426        -2.51424       -0.900276
LJ           1.65727        -1.68777       -0.813325
LJ          0.678146        -1.87457       0.0659556
LJ           1.68423        -2.41068      -0.0904015
LJ          -2.55002        -0.87565       -0.776568
LJ          -1.87331        0.187728       -0.733678
LJ           2.55958      -0.0297817       0.0110184
LJ          -1.73793       -0.719666      -0.0716559
LJ         -0.860626       -0.753598       -0.817951
LJ        0.00130341       0.0570412        -0.79526
LJ         -0.856733     -0.00978235     -0.00419206
LJ        -0.0914075       -0.723395      -0.0881203
LJ          0.750564       -0.838022        -0.81667
LJ           1.85046        -0.10326       -0.861582
LJ          0.883637       0.0470067       -0.114888
LJ           1.78272       -0.978016      -0.0477189
LJ          -2.52247         1.09166       -0.781499
LJ          -1.64508         1.75479         -1.0049
LJ            2.5631         1.67827       0.0863915
LJ          -1.87841        0.940407       0.0841783
LJ         -0.907915        0.812354       -0.837499
LJ        -0.0247179         1.73124       -0.858724
LJ         -0.935423         1.60222       -0.201867
LJ        -0.0464779         1.02981      -0.0556724
LJ           0.75962        0.949482       -0.801732
LJ           1.94877         1.79147       -0.927616
LJ          0.776262         1.95063       -0.118066
LJ           1.75892         0.87151      -0.0755202
LJ           2.47581         2.51102          1.0071
LJ          -1.50001        -1.79636        0.979234
LJ           2.46322        -1.55429         1.75323
LJ          -1.91531         2.42052         1.68423
LJ         -0.829475         2.52222        0.767646
LJ         0.0897923        -1.71283        0.870468
LJ         -0.930692        -1.67872         1.79271
LJ         0.0712315        -2.51848         1.75378
LJ           1.14407        -2.50796        0.998123
LJ           1.91595        -1.56272        0.881644
LJ          0.826617        -1.65635         1.69471
LJ           1.59931        -2.51146         1.82619
LJ           2.51916       -0.724922         0.90537
LJ           -1.8701       0.0423223        0.906551
LJ            2.5616       0.0135887         1.90176
LJ          -1.77733       -0.841161         1.63392
LJ         -0.684942       -0.835338        0.773825
LJ        0.00450471       -0.112824         0.82561
LJ         -0.771787        0.111361         1.80598
LJ         0.0319294       -0.918079         1.58806
LJ          0.885385       -0.865954        0.920076
LJ           1.56505       0.0233508        0.612187
LJ          0.787461      -0.0446138         1.88802
LJ           1.75721       -0.857965         1.69492
LJ           2.43614        0.706621        0.762117
LJ          -1.50958         1.82204        0.802707
LJ            2.5048         1.70903         1.73742
LJ          -1.60986        0.716433         1.64691
LJ         -0.906199        0.646746         0.78766
LJ        -0.0524113         1.70978        0.839159
LJ         -0.813797         1.75234         1.44812
LJ         0.0258169        0.877254         1.58555
LJ          0.869254        0.912816        0.989516
LJ           1.82297         1.71818        0.845716
LJ           1.00201         1.74662         1.88537
LJ           1.66715        0.951851         1.65399
