108
#Comment!
LJ           2.49682        -2.44669        -2.55245
LJ          -1.76839        -1.70592         2.46029
LJ           2.52021        -1.77734        -1.79217
LJ           -1.7337        -2.54798         -1.6249
LJ         -0.875108         2.50653         2.54244
LJ          0.036002         -2.0991        -2.47574
LJ          -1.16124        -1.45507        -1.69891
LJ        -0.0652366         2.25049          -1.781
LJ          0.920076         2.52482          2.4478
LJ           1.79012        -1.74841        -2.54538
LJ          0.837648        -1.83036        -1.79105
LJ           1.87892         2.54577        -1.68926
LJ           2.47914       -0.878217         -2.5631
LJ          -1.87124       0.0598193         2.50971
LJ            2.5031        0.104075         -1.9915
LJ          -1.75048       -0.512407        -1.51855
LJ           -1.2505       -0.790462        -2.41214
LJ         0.0123761       -0.224414        -2.47521
LJ         -0.711478       0.0275376        -1.74822
LJ         -0.133791        -1.13788        -1.90621
LJ          0.883753          -1.126        -2.51515
LJ           1.70576       0.0666475         2.50314
LJ          0.911479       0.0876407        -1.79588
LJ           1.61656       -0.652182        -1.65814
LJ          -2.50456        0.952854         2.45507
LJ          -1.73516         1.89425          2.5074
LJ          -2.50753         1.70599        -1.60876
LJ          -1.59158        0.777761        -1.77979
LJ          -0.56379          1.0318         2.44601
LJ            0.2087         1.75477         2.46255
LJ         -0.974358         1.64211         -1.7823
LJ         0.0738412         1.01228        -1.80597
LJ          0.832969        0.872249           2.506
LJ           1.87251         1.83843         2.50225
LJ          0.898182         1.83675        -1.61869
LJ           1.60062         0.95577        -1.67815
LJ             2.432          2.3008       -0.737851
LJ          -1.47158        -1.71844       -0.764939
LJ          -2.44658        -1.90323      -0.0575984
LJ          -1.68209         2.51616      0.00921555
LJ         -0.870586         -2.5398        -1.02535
LJ            0.1991        -1.74893       -0.943566
LJ         -0.562988        -1.82795       0.0212334
LJ         -0.203934         2.34167       0.0623628
LJ           0.85109        -2.47179       -0.929351
LJ           1.79988        -1.71116        -0.94039
LJ          0.755386         -2.0142          0.1588
LJ           1.66826        -2.41906      -0.0154815
LJ          -2.54152       -0.940149       -0.668537
LJ          -1.90133        0.187272       -0.810975
LJ          -2.48138       0.0398199       0.0753049
LJ          -1.69108        -0.97422      -0.0178239
LJ         -0.567146       -0.890027        -0.65157
LJ          -0.11321        0.310903         -0.9375
LJ         -0.756019      -0.0518448      -0.0516334
LJ           0.15528       -0.754354        0.280549
LJ          0.793484       -0.951423       -0.585254
LJ            2.0361       -0.169459       -0.851108
LJ           0.69345      0.00825952      -0.0486292
LJ           1.70432        -1.12212       -0.106635
LJ          -2.48128          1.0091       -0.835994
LJ           -1.5846         1.83793        -0.75838
LJ           2.38442         1.69824       0.0133695
LJ           -1.9522         1.06364        0.152957
LJ          -1.04414        0.695244       -0.975722
LJ         0.0897738         1.86177       -0.897375
LJ         -0.755069         1.55364       -0.131026
LJ        0.00175676        0.842837      -0.0948094
LJ          0.740761        0.992931       -0.751521
LJ           1.68281         1.66253       -0.884295
LJ          0.746441          2.0039      -0.0549375
LJ           1.72593        0.824046       -0.199522
LJ           2.37926         2.34539        0.826887
LJ          -1.39539        -1.90722        0.717005
LJ           2.54529        -1.58332         1.72343
LJ          -1.97504        -2.46579         1.57664
LJ         -0.615433         2.52554         1.09104
LJ         0.0772162         -1.5842        0.950814
LJ         -0.867431        -1.89364         1.74352
LJ          0.102159        -2.31426          1.6599
LJ          0.835843         2.32011        0.972613
LJ           1.99158        -1.60167         0.73539
LJ           0.97805        -1.78441         1.75317
LJ           1.68329        -2.52866         1.74393
LJ           2.49976       -0.662712        0.887502
LJ          -1.71349       0.0583146        0.819186
LJ           2.54175      0.00772799         1.72048
LJ          -1.85643       -0.787376         1.80046
LJ         -0.730822       -0.904746        0.989161
LJ         0.0198293      -0.0893572         1.00488
LJ         -0.917315        0.248241         1.84979
LJ          0.289378        -0.94648         1.78959
LJ           1.03691        -1.01762        0.687896
LJ           1.61834       -0.168409        0.723535
LJ          0.831207      -0.0081665         1.97142
LJ           1.58434       -0.892531          1.8013
LJ           2.35951        0.774793        0.894896
LJ          -1.41222         1.92893        0.866468
LJ           2.46536         1.65332         1.58523
LJ           -1.8301        0.953494         1.58233
LJ         -0.842131        0.649305        0.828611
LJ          0.188936         1.47238        0.707523
LJ         -0.788004         1.58793         1.62755
LJ         0.0189846        0.797254         1.56388
LJ           1.01185        0.766965        0.895948
LJ           1.57895         1.70908        0.587373
LJ          0.869485         1.63299         1.71566
LJ            1.7302        0.814781         1.84495
