108
#Comment!
LJ           2.52183         2.53755         2.49492
LJ          -1.78337        -1.73975         2.50938
LJ          -2.50709        -1.76041        -1.58504
LJ           -1.7732        -2.46822         -1.8382
LJ         -0.936731         2.43464         2.52344
LJ         0.0143015        -1.99764        -2.49816
LJ         -0.904794        -1.54668        -1.61965
LJ          0.059625         2.26858        -1.64794
LJ          0.987311         2.47351        -2.30264
LJ           1.79921        -1.70969         2.49545
LJ          0.985465        -1.72684        -1.65047
LJ           2.00671        -2.48059        -1.48708
LJ           2.46737       -0.792197         -2.4618
LJ          -1.76827       0.0501903         2.56058
LJ          -2.51386        0.197515        -1.72059
LJ          -1.62366       -0.565225        -1.33136
LJ          -1.18294       -0.885521        -2.45653
LJ         -0.124739       -0.250882        -2.44749
LJ         -0.799958        0.104438        -1.81158
LJ        -0.0335647       -0.923776        -1.77584
LJ           1.00042        -1.11484        -2.44065
LJ           1.61299       0.0787866        -2.55974
LJ          0.750929      -0.0827802        -1.56553
LJ           1.70708       -0.825512        -1.72353
LJ          -2.48735         1.03997         2.32016
LJ          -1.79122         1.78738         2.53886
LJ           2.56094         1.63763        -1.74904
LJ          -1.71791        0.929059        -1.90833
LJ         -0.737702          1.1035         2.55441
LJ         0.0300308         1.84666         2.51317
LJ         -0.789823         1.69838        -1.79019
LJ         0.0391417        0.825734        -1.87634
LJ          0.852105        0.806913        -2.47609
LJ             1.769         1.88218          2.4322
LJ          0.920874          1.6798        -1.58465
LJ           1.82329        0.796521        -1.76366
LJ          -2.46784         2.43621       -0.727547
LJ          -1.45782        -1.81519        -0.67661
LJ           2.53695         -1.7818       -0.171396
LJ          -1.65285         2.42291      -0.0980805
LJ         -0.750761         2.50341       -0.941989
LJ         0.0329934        -1.72332       -0.950164
LJ         -0.596952        -1.80326       0.0941304
LJ         -0.186787         2.31199       0.0673118
LJ          0.818162        -2.47184       -0.922635
LJ           1.79897        -1.64949        -0.85324
LJ          0.662651        -1.90467        0.130515
LJ           1.61177        -2.32215       -0.095697
LJ          -2.53448       -0.835829        -0.76829
LJ          -1.89739         0.12606       -0.725038
LJ           2.38029      -0.0523534      -0.0235074
LJ          -1.64891       -0.919625     -0.00495147
LJ         -0.672712       -0.846906       -0.816117
LJ       -0.00248921        0.194171       -0.918528
LJ         -0.772609       -0.060361      -0.0412623
LJ         0.0835089       -0.780142        0.185102
LJ          0.755373       -0.873813       -0.779025
LJ            1.7916       -0.163367       -0.885754
LJ          0.760805       0.0472563       -0.118773
LJ           1.66855       -0.933459      -0.0904358
LJ          -2.40387        0.991446       -0.965214
LJ          -1.66622         1.70343        -1.07646
LJ           2.53167         1.57495        0.078374
LJ          -1.92329        0.828407       0.0259598
LJ         -0.975031        0.732301       -0.867912
LJ        -0.0724402          1.5321       -0.833122
LJ         -0.871749         1.47098      -0.0560966
LJ         0.0651173        0.991242       0.0507107
LJ          0.841446         1.08912       -0.765161
LJ           1.73818          1.6939       -0.936563
LJ          0.871407         1.96544       0.0452094
LJ           1.83182        0.821182       -0.140708
LJ           2.49728        -2.50724        0.801745
LJ          -1.52322        -1.69628        0.705162
LJ          -2.56349         -1.4712         1.69442
LJ          -1.99191         2.48411         1.54004
LJ         -0.763081        -2.51518         1.01438
LJ          0.146424        -1.75682        0.899049
LJ         -0.940162        -1.69047         1.76728
LJ          0.113254        -2.41763         1.71451
LJ           1.03795        -2.54709        0.918889
LJ           1.80821        -1.53175        0.746995
LJ          0.881329        -1.68486         1.69264
LJ           1.61054        -2.51372         1.84414
LJ           2.52658        -0.55274          1.0654
LJ          -1.82032       0.0146779        0.795133
LJ           2.54688        0.123277         1.86352
LJ          -1.62589       -0.920877         1.47759
LJ         -0.790046       -0.894488        0.898672
LJ          0.109281      -0.0787984         1.02569
LJ         -0.849569        0.140141         2.11948
LJ          0.112471       -0.954442         1.66877
LJ           0.94189       -0.827454        0.812472
LJ           1.63372      -0.0979681        0.592984
LJ          0.729752       -0.119707         1.95171
LJ           1.68784       -0.827796         1.70156
LJ           2.50303        0.665203        0.791581
LJ          -1.45177         1.90135        0.778378
LJ          -2.53708         1.56387          1.4583
LJ          -1.52135        0.901074         1.59971
LJ         -0.851225        0.727958        0.640128
LJ           0.20427          1.6299        0.957385
LJ         -0.761112         1.65472         1.50759
LJ        0.00204509         0.95796         1.59987
LJ          0.789209        0.628482        0.917853
LJ           1.73414         1.65277        0.741722
LJ          0.916272         1.64766          1.7053
LJ           1.68374        0.762617          1.6775
