108
#Comment!
LJ           2.56053        -2.22873         2.34748
LJ          -1.68637        -1.65659         2.50907
LJ          -2.28404        -1.56894        -1.74037
LJ          -1.71305         -2.5061        -1.74519
LJ         -0.724581         2.32135         2.52845
LJ        -0.0268368        -1.80162        -2.49115
LJ          -1.14495        -1.52114        -1.79831
LJ         -0.013998         2.28175        -1.88369
LJ          0.847233        -2.46668        -2.55868
LJ           1.68492        -1.67054         2.50203
LJ          0.934331         -1.8418        -1.68345
LJ           1.92067          2.4516         -1.7811
LJ          -2.56424       -0.850508         2.34227
LJ          -1.80818       0.0303027        -2.53691
LJ           2.47075       0.0829345        -1.81135
LJ          -1.78583       -0.650778         -1.6847
LJ          -1.11953       -0.762849         -2.4084
LJ        -0.0531809       -0.180925        -2.41057
LJ          -1.02923        0.018088        -1.73252
LJ         0.0158281        -1.00277        -1.75477
LJ          0.937221        -0.99235        -2.55452
LJ           1.59367      -0.0263757        -2.53329
LJ           1.00683        0.135847        -1.70028
LJ           1.63117       -0.653245        -1.68579
LJ          -2.45552         1.01544        -2.55888
LJ          -1.71198         1.95507          2.3229
LJ          -2.50226         1.58694        -1.62723
LJ          -1.72453        0.797359        -1.79479
LJ         -0.562492        0.908623         2.44514
LJ          0.166645         1.65633         2.43369
LJ          -1.21963         1.63229        -1.85284
LJ         0.0713242         1.15991        -1.88411
LJ          0.925118        0.961598          2.5358
LJ           1.82119         1.76379         2.54158
LJ          0.966625          1.7952        -1.89037
LJ            1.7145        0.972884        -1.66446
LJ          -2.55887          2.3821       -0.794861
LJ          -1.47464        -1.73195       -0.827925
LJ           -2.2166        -1.81443        -0.12945
LJ          -1.73428         2.45428       0.0997146
LJ         -0.595701        -2.51887         -1.0655
LJ         0.0500159        -1.62322       -0.806684
LJ         -0.758237        -2.04524      -0.0869717
LJ         -0.110453         2.31937       0.0689806
LJ          0.860697        -2.51359        -0.81314
LJ           2.08585        -1.69295       -0.975841
LJ          0.802835        -1.80517         0.32305
LJ           1.70338           2.543      -0.0429772
LJ          -2.28778       -0.991654       -0.749361
LJ          -1.95549      -0.0435252       -0.798808
LJ          -2.43646       0.0940692        0.105889
LJ          -1.64239       -0.697936       0.0709635
LJ         -0.744669       -0.808941       -0.772892
LJ         -0.107884       0.0337133        -1.05053
LJ          -0.73156     0.000426402      -0.0982065
LJ         0.0125394       -0.648675       0.0152718
LJ           1.01419          -1.218        -0.82882
LJ           1.88852       -0.123701       -0.617485
LJ          0.883353       0.0722292        0.151847
LJ           2.01184        -1.00153      -0.0299877
LJ           2.42302        0.933432       -0.799152
LJ          -1.56971         1.78943       -0.846346
LJ           2.35038         1.69444      -0.0402461
LJ          -1.86663        0.980978        0.278879
LJ          -1.02375        0.711287       -0.820614
LJ         0.0403744         1.69164       -0.968787
LJ         -0.855779         1.50567       -0.290197
LJ         -0.118468        0.849222       -0.182577
LJ           1.14087         0.79016       -0.876895
LJ           1.61116         1.73341       -0.694423
LJ          0.735921          1.8429       -0.162351
LJ           1.74667        0.814357      -0.0650008
LJ           2.37502         2.35632        0.725977
LJ          -1.28199        -1.82199          0.6969
LJ           2.56353        -1.49683         1.51791
LJ          -1.89533        -2.34988         1.47936
LJ         -0.758213         2.46844        0.951585
LJ        -0.0404758        -1.51188        0.959398
LJ         -0.844501        -1.78393         1.90295
LJ          0.105018        -2.35808         1.76566
LJ          0.680106         2.48802         1.01083
LJ           1.70577        -1.60226         0.90034
LJ          0.941485        -1.72464         1.67308
LJ           1.76094         2.54599         1.59359
LJ          -2.47058       -0.805686        0.760888
LJ          -1.51614      -0.0364128        0.831577
LJ           2.44737      0.00468536          1.7162
LJ          -1.75316       -0.714309         1.61695
LJ         -0.866081        -0.96053         1.05706
LJ           0.22669       -0.226453        0.988889
LJ         -0.953662        0.107404         1.84702
LJ          0.217018       -0.890506          1.7982
LJ          0.872569       -0.837217         0.76382
LJ           1.82707       -0.183086        0.639223
LJ          0.679726       0.0190918         1.96703
LJ            1.5566       -0.851695         1.63443
LJ           2.21767        0.858554         0.85665
LJ          -1.65871         1.88981        0.978552
LJ           2.43095         1.70306         1.61424
LJ          -1.87942        0.796877         1.42435
LJ         -0.728387        0.824845        0.607563
LJ          0.410708         1.52877        0.874147
LJ          -1.00684          1.4275           1.606
LJ         0.0789972        0.831764         1.51379
LJ           1.13488        0.663325         1.02686
LJ           1.45453         1.73771        0.634517
LJ           1.00865         1.53762         1.71949
LJ           1.81572        0.918988         1.89186
