108
#Comment!
LJ          -2.49723        -2.38586         2.56262
LJ          -1.83297        -1.50525         2.47412
LJ          -2.28123        -1.61157        -1.76659
LJ          -1.54071        -2.40089        -1.84957
LJ         -0.822215         2.32476        -2.41532
LJ         -0.118783        -1.52927         2.44654
LJ         -0.928747        -1.52372        -1.88937
LJ         0.0744402         2.47908        -1.85946
LJ           1.01742         -2.3865         -2.4388
LJ             1.698        -1.63583         2.42667
LJ           1.22432        -1.71036        -1.64255
LJ           1.89837          2.4635        -1.52759
LJ           2.41976       -0.620041        -2.53668
LJ          -1.79503      -0.0191518         2.33567
LJ          -2.44211      -0.0424311        -1.80661
LJ            -1.531       -0.611681         -1.6649
LJ         -0.962464       -0.762608        -2.51592
LJ        0.00131459       -0.192948        -2.47051
LJ         -0.809758        0.148268         -1.7387
LJ          0.117659       -0.865717        -1.65156
LJ          0.783906       -0.928665        -2.56138
LJ            1.6417       0.0142958        -2.40648
LJ          0.772065        0.180584        -1.66745
LJ           1.59136       -0.661741        -1.55873
LJ          -2.56049        0.949988        -2.43839
LJ          -1.74045         1.97564         2.41466
LJ          -2.52207         1.71002         -1.5398
LJ          -1.59899        0.788206        -2.05709
LJ         -0.490062        0.748972         2.54527
LJ         0.0919636         1.73168         2.32908
LJ          -1.25598         1.73349        -1.68439
LJ         0.0284513         1.02946        -1.72575
LJ            1.0775         1.06903        -2.45176
LJ           1.75508         1.88346         2.48305
LJ           1.01904         1.88091        -1.86752
LJ           1.78183        0.857605        -1.76595
LJ           2.52302        -2.51883       -0.719523
LJ          -1.42027        -1.71362       -0.895785
LJ          -2.29922        -1.63638       -0.216493
LJ          -1.61164         2.44232        0.102884
LJ         -0.688196        -2.48864         -1.0006
LJ         0.0651667        -1.79375       -0.719365
LJ         -0.693605        -1.75743      -0.0462288
LJ        -0.0150302         2.32618        0.201374
LJ          0.642533         2.51706       -0.839085
LJ            1.9232        -1.54381       -0.890598
LJ          0.808553        -1.86835        0.177576
LJ           1.72047        -2.49513      0.00256547
LJ          -2.36908       -0.813587       -0.887505
LJ          -1.79287       0.0997305       -0.977432
LJ          -2.36793       0.0710614      -0.0268016
LJ          -1.62624       -0.735545      -0.0214984
LJ         -0.809666        -0.76819       -0.684619
LJ           -0.1377        0.167254        -1.01127
LJ         -0.675552      -0.0327557        0.111692
LJ        -0.0468938       -0.870386        0.118088
LJ          0.928021        -1.13941       -0.743556
LJ           1.84807        -0.19711         -0.6239
LJ           0.79084        0.109918        0.125045
LJ           1.95123        -1.04158      0.00302034
LJ           2.44399        0.808052       -0.759982
LJ          -1.83182         1.67693       -0.716941
LJ           2.53027         1.60059       -0.078545
LJ          -1.87698        0.955691         0.15605
LJ          -1.07655        0.798861       -0.954322
LJ          0.152456         1.75285       -0.822109
LJ         -0.755935         1.69659       -0.124927
LJ         0.0826955        0.845363       -0.164174
LJ          0.872803        0.876403       -0.900691
LJ           1.63306         1.71441       -0.877802
LJ          0.863457         1.73638      -0.0885527
LJ           1.62334        0.830285        0.152122
LJ           2.44863         2.45102        0.662179
LJ          -1.48058        -1.80754        0.786577
LJ           2.56279        -1.45596          1.5713
LJ          -1.99582        -2.41277         1.65344
LJ         -0.889807         2.41675         1.02515
LJ         0.0129433         -1.4717         1.08363
LJ          -1.07025        -1.71577         1.86882
LJ        0.00984568        -2.26331         1.70998
LJ          0.794618         2.38543        0.859241
LJ           1.66673          -1.508         1.04534
LJ          0.820357        -1.68476         1.78745
LJ           1.74878        -2.52364         1.49169
LJ          -2.43002       -0.768353        0.684384
LJ          -1.64304        0.101566        0.898122
LJ           2.36675       0.0421564         1.64905
LJ          -1.70753       -0.900543         1.59649
LJ         -0.823008       -0.905833         1.07384
LJ          0.149836        -0.12687        0.887197
LJ          -0.94775       0.0221472         1.84878
LJ          0.222619       -0.771921         1.78069
LJ          0.928823       -0.816866        0.623446
LJ           1.75177       -0.343753        0.825584
LJ          0.841748       0.0470149         1.73257
LJ           1.50902       -0.777646         1.77958
LJ           2.30533        0.977121         1.05627
LJ          -1.79747         1.68986         1.00254
LJ           2.50488          1.8758         1.63623
LJ          -1.79144         0.86469         1.64404
LJ         -0.831598        0.978981        0.758257
LJ          0.370324         1.38542        0.778347
LJ         -0.717438         1.36949         1.72092
LJ         0.0912448        0.777421         1.65847
LJ           1.19425        0.647199         1.03752
LJ           1.52357         1.74846        0.690094
LJ          0.979943         1.71843         1.67464
LJ           1.80145         1.09563         1.91555
