108
#Comment!
LJ           2.45569         -2.5053         2.54734
LJ          -1.67292        -1.82307         2.55444
LJ           2.55133        -1.69442        -1.62267
LJ          -1.87453         2.51077        -1.76361
LJ         -0.861946          2.5245         2.40147
LJ         -0.175699        -1.84993        -2.51552
LJ         -0.912435        -1.50732        -1.67657
LJ          0.116657         2.35877        -1.74756
LJ          0.872376         2.52877        -2.40457
LJ           1.67311        -1.67319        -2.53884
LJ          0.786013        -1.52507        -1.56934
LJ           1.90191        -2.46676        -1.58732
LJ           2.42816       -0.872331        -2.54451
LJ          -1.65076         0.14914         2.48186
LJ          -2.48333        0.178187        -1.81729
LJ          -1.84064        -0.84693        -1.53529
LJ          -1.11108       -0.971722         2.52239
LJ       -0.00355763      -0.0489635        -2.56442
LJ         -0.824475         0.16504        -1.75564
LJ         0.0738849       -0.800933        -1.75351
LJ          0.928973        -1.05342           -2.55
LJ           1.70967        0.187294         2.50904
LJ          0.726976        0.183739        -1.61505
LJ            1.5873       -0.807227        -1.76845
LJ          -2.49518        0.954164         2.47115
LJ           -1.7881         1.89521         2.51791
LJ          -2.54447         1.60261        -1.80036
LJ          -1.67282        0.908259        -1.76905
LJ         -0.687062        0.974005         2.26177
LJ          0.122074         1.70867         2.36074
LJ         -0.826363         1.60052        -1.67893
LJ        -0.0636165        0.881951        -1.71075
LJ           0.72887        0.896092        -2.47429
LJ           1.75954         1.88093         -2.5371
LJ          0.968534         1.75521        -1.54062
LJ            1.7821        0.813822        -1.68378
LJ          -2.45942         2.54043       -0.862076
LJ          -1.55154        -1.75785       -0.617046
LJ          -2.52345        -1.76929      -0.0319316
LJ           -1.7466         2.41414       0.0126976
LJ         -0.760912         2.50732        -0.81195
LJ         0.0291312         -1.7041       -0.855837
LJ          -0.79869        -1.73215        0.126105
LJ         -0.199108          2.3668      0.00357137
LJ           1.03282        -2.51654       -0.880008
LJ           1.65273        -1.71054       -0.810942
LJ          0.689502        -1.88476       0.0555575
LJ           1.69159        -2.42125      -0.0791125
LJ          -2.55593        -0.87467       -0.765888
LJ          -1.87607        0.175258       -0.726998
LJ           2.56495        -0.03504        0.028189
LJ          -1.72622       -0.731207      -0.0711816
LJ         -0.864113       -0.771785        -0.82506
LJ       0.000476361       0.0429821       -0.785555
LJ         -0.859799      -0.0100594      -0.0140261
LJ        -0.0884122         -0.7307      -0.0998268
LJ          0.755272       -0.825967       -0.832227
LJ           1.83373      -0.0995703       -0.858398
LJ          0.883166       0.0782753       -0.134396
LJ           1.79033       -0.972897      -0.0442677
LJ          -2.53222         1.10163       -0.780136
LJ          -1.62806          1.7418        -1.02077
LJ          -2.56167          1.6808        0.100394
LJ          -1.89755        0.934388       0.0592062
LJ         -0.918065         0.81816       -0.838899
LJ        -0.0125144         1.76041        -0.86305
LJ         -0.947208         1.57566       -0.207513
LJ        -0.0604665         1.04131       -0.076434
LJ          0.762581        0.934265       -0.798596
LJ           1.95902         1.77849       -0.926077
LJ          0.757284         1.93787       -0.115237
LJ           1.75425        0.881709       -0.069986
LJ            2.4695         2.51289         1.02567
LJ           -1.4948        -1.79799        0.981604
LJ           2.47998        -1.54787         1.74865
LJ          -1.90142         2.43481         1.67639
LJ         -0.827745         2.54084        0.769418
LJ          0.103775        -1.72341        0.870278
LJ         -0.939828        -1.66131         1.80411
LJ         0.0633151        -2.51212         1.76237
LJ           1.13073        -2.50054         0.98846
LJ            1.9315        -1.56772         0.85491
LJ          0.835895        -1.65072         1.68358
LJ           1.58988        -2.48798         1.82226
LJ           2.50153       -0.727691        0.874028
LJ          -1.83149       0.0581929        0.893342
LJ           2.56211     -0.00236259         1.89273
LJ          -1.77668       -0.863301         1.63009
LJ         -0.668698       -0.856431        0.759358
LJ        -0.0027955      -0.0872053        0.838767
LJ         -0.746146         0.10593         1.81264
LJ         0.0246056       -0.907466         1.58369
LJ          0.885481        -0.86179        0.912775
LJ           1.58102       0.0194936        0.597518
LJ          0.774682      -0.0462953         1.88901
LJ           1.74112       -0.855378         1.70583
LJ           2.45167        0.695156         0.74363
LJ          -1.52151         1.83166        0.810668
LJ           2.52292         1.71508         1.73679
LJ          -1.60943        0.710412         1.66124
LJ         -0.916396        0.658699        0.808506
LJ        -0.0394847         1.71326        0.817394
LJ         -0.791134          1.7324         1.45269
LJ         0.0151389        0.899191          1.5795
LJ          0.871455        0.919647         1.00479
LJ           1.81666         1.72548        0.838805
LJ            1.0034         1.74571         1.88899
LJ           1.68871        0.945965          1.6542
