108
#Comment!
LJ           2.51765        -2.43415         2.53967
LJ          -1.69829        -1.67206         2.45419
LJ           2.55797         -1.6501        -1.64191
LJ           -1.7041        -2.37021        -1.81685
LJ         -0.828486         2.48206         2.48922
LJ         0.0426572        -2.04684        -2.49397
LJ          -1.12256        -1.43124        -1.62396
LJ         0.0665282         2.27152        -1.62896
LJ          0.949237         2.37466        -2.52747
LJ           1.82562        -1.73611         2.51762
LJ           1.00524        -1.78207        -1.66784
LJ           1.91383         2.55312        -1.54989
LJ           2.41597         -0.8024         2.51345
LJ          -1.74143       0.0917638          2.5279
LJ          -2.55472        0.183898        -1.83366
LJ          -1.65187       -0.503627        -1.52998
LJ          -1.14956       -0.857901        -2.43729
LJ         0.0273178       -0.248088        -2.43087
LJ         -0.821701       0.0177066         -1.7057
LJ         -0.109803        -1.00196        -1.89071
LJ          0.937536        -1.11157        -2.47331
LJ           1.66948        0.062061        -2.50759
LJ            0.7558      -0.0189169        -1.71301
LJ           1.63733       -0.759899        -1.72724
LJ          -2.42257         1.08769         2.47039
LJ          -1.78661         1.87696         2.52131
LJ          -2.51855         1.65485        -1.64288
LJ          -1.50829        0.893643        -1.74697
LJ         -0.642916         1.11685        -2.54284
LJ         0.0981484         1.76317         2.51827
LJ         -0.816163         1.73089         -1.6623
LJ         0.0590498         1.06719        -1.70205
LJ           1.03192        0.842458        -2.54276
LJ           1.84955         1.85883         2.50694
LJ          0.885687         1.75419        -1.63008
LJ           1.81697        0.893402        -1.83045
LJ           2.51358         2.38063       -0.622584
LJ          -1.55525        -1.91056       -0.774486
LJ          -2.42377        -1.75287       -0.135711
LJ          -1.78003         2.46117      -0.0499459
LJ         -0.677904        -2.50946         -1.0021
LJ         0.0989406        -1.74792       -0.895234
LJ           -0.4888        -1.77792       0.0349474
LJ         -0.319651         2.36591        0.195636
LJ          0.804209        -2.54361       -0.940864
LJ             1.723        -1.65452       -0.967325
LJ          0.615329        -2.11583       0.0206005
LJ           1.67693        -2.31778       0.0308841
LJ          -2.37355       -0.878131       -0.735679
LJ          -1.84265       0.0614914       -0.596267
LJ           2.44655       0.0932398       0.0119112
LJ          -1.57246        -0.91699       0.0409595
LJ          -0.58008       -0.861758       -0.812027
LJ        -0.0103276        0.303664       -0.965548
LJ          -0.88459      -0.0608559      -0.0950695
LJ         0.0335049        -0.84799        0.238076
LJ          0.826998       -0.976634       -0.727118
LJ            1.9126       -0.146829       -0.872022
LJ          0.743195        0.047219      -0.0435813
LJ           1.66649       -0.905786       -0.174163
LJ          -2.42588        0.886864       -0.939385
LJ          -1.62066         1.71557       -0.886375
LJ           2.46601         1.67629       0.0986232
LJ          -1.96265         1.01425      -0.0385619
LJ          -1.06081        0.710086       -0.848015
LJ          0.030843         1.65808       -0.803188
LJ         -0.826524         1.55033       -0.148822
LJ        -0.0645055        0.880393        0.119878
LJ          0.777073        0.905522       -0.669104
LJ           1.66227         1.62563       -0.960168
LJ          0.866414         1.99728      -0.0362529
LJ           1.74172        0.805248        -0.21093
LJ           2.45881         2.46687        0.823878
LJ          -1.41094        -1.70791        0.606407
LJ            2.4498        -1.55638         1.72629
LJ          -1.99249          2.4927         1.65198
LJ         -0.691908        -2.43705          1.0841
LJ          0.146574        -1.58442          0.8479
LJ         -0.902757        -1.71626         1.68816
LJ         0.0708683        -2.34189         1.73962
LJ          0.952874         2.43239        0.892344
LJ           2.00032        -1.53903        0.651973
LJ           1.01388        -1.82898         1.63972
LJ           1.69893         2.55532         1.67009
LJ           2.54655       -0.624567          0.9824
LJ          -1.73451      -0.0542586        0.933386
LJ           2.52366       0.0243108         1.82926
LJ          -1.74605       -0.946899         1.57624
LJ         -0.682578       -0.905707        0.937213
LJ         0.0843662      0.00823871         1.05034
LJ         -0.851723        0.159526         2.04924
LJ         0.0990742       -0.889118         1.85655
LJ           1.03286       -0.967134        0.718415
LJ           1.64225       -0.112867        0.680555
LJ          0.746525      -0.0581955         1.85629
LJ           1.66349       -0.839356         1.69762
LJ           2.55972        0.806181        0.932533
LJ          -1.43344         1.90465        0.733032
LJ           2.41622         1.66181         1.55889
LJ          -1.64704        0.953307         1.56876
LJ         -0.906957        0.652832        0.838256
LJ          0.265127         1.43212        0.867179
LJ         -0.837392         1.54851         1.57846
LJ        -0.0170232        0.856492         1.59415
LJ          0.940009        0.682419        0.821864
LJ           1.66696         1.73795        0.721529
LJ          0.904979         1.50183         1.83656
LJ           1.76484        0.821966          1.8097
