108
#Comment!
LJ           2.46274       -0.323447        0.781518
LJ           2.38756        -1.71879        0.818666
LJ         -0.679503        -1.60721         1.30663
LJ           -2.5148        0.649523      -0.0323535
LJ           2.31223        0.678953         2.30925
LJ          -1.11087        -1.60057        -1.20284
LJ           2.37228       -0.351894         -2.3881
LJ          -1.43647        0.236265        0.427587
LJ          0.909286         2.48041         1.76188
LJ          -1.33315        0.101457         2.28694
LJ           1.33988       -0.156689        -1.87553
LJ          0.180461         1.65834         1.76636
LJ           -0.1545      -0.0720502        0.820595
LJ          -1.21823        -2.51752         1.71835
LJ           1.58833        0.311448         1.44037
LJ           1.97015       -0.388045        -0.11462
LJ          0.497548        -1.79293         2.44748
LJ         -0.872981         1.08723       -0.138919
LJ          0.591933         2.48372        0.721468
LJ          0.271105       -0.253719       -0.382615
LJ          -2.48459        0.709457         1.21096
LJ         -0.324011        -2.56337       -0.839248
LJ         -0.129475         1.60451       -0.517105
LJ           1.21904        0.309088       -0.663742
LJ          0.842079         -2.4137         -1.7874
LJ             -1.41        -1.63382       -0.227113
LJ           1.86921         2.36321       -0.470524
LJ           2.23152         -1.0101        -1.53715
LJ           1.76214         2.41007          1.1121
LJ          -1.73758        -2.04567         2.53612
LJ           -1.8367         1.76294         1.67426
LJ          -1.78794        -1.53468         1.38361
LJ           2.55764        -1.67048        -2.50464
LJ          0.538093       -0.713228        -2.45038
LJ          0.207407       -0.488272        -1.34304
LJ          -1.48916        -1.07709         2.24059
LJ          -2.45074         2.45582         0.82719
LJ           0.11511         1.15741        -2.46082
LJ           1.59007        -1.20405        -2.42849
LJ          -2.24728        -1.15303       -0.758363
LJ           1.76242         -2.0565        -1.20686
LJ          0.480449       -0.994612        0.433379
LJ           1.22714        0.755543         2.42832
LJ          -2.43908        0.434573        -1.86628
LJ           1.52192        -1.14464        0.759737
LJ           0.15713        -1.60644        -1.60973
LJ          0.302131        0.225658        -2.06887
LJ            1.6416        0.784976        0.331848
LJ          0.712564       -0.560127         1.29613
LJ           -2.4901        -2.16941         1.75795
LJ          -2.14363       -0.252429         1.89989
LJ           1.25987          1.8317        0.324933
LJ            2.4089         2.42291        -2.24642
LJ            1.3251        -1.97264        0.486803
LJ           1.51881       -0.489903         2.05906
LJ          -2.48617         2.11585        -1.27128
LJ         -0.743709         1.99249        0.834584
LJ           1.02174        -1.02067        -1.40175
LJ         -0.820162       -0.718149       -0.643726
LJ          -1.89691        0.989077        -2.55089
LJ         -0.153246        -2.51872         1.72362
LJ          -1.37736        -2.41066        0.440302
LJ          -2.07229         1.40957       -0.536383
LJ          -1.87189        -1.13597        -1.91395
LJ         -0.641518       -0.850903        -1.88167
LJ           1.03649        0.869149        -1.54007
LJ           1.30839         1.35825         1.38419
LJ         -0.605804       -0.619635         2.28449
LJ           1.28893        -1.13911       -0.266591
LJ         -0.751183         0.51601        -2.10783
LJ          0.211599          -1.512       -0.596018
LJ          0.506633        0.638684       0.0835146
LJ           1.52174        -2.43497        -2.46516
LJ           2.00316         1.24185       -0.933013
LJ          -2.04879        -2.02031        -1.43034
LJ         -0.378235        0.326487         1.94752
LJ          -1.73729         2.12521         -2.2453
LJ           -1.5827        -0.20321        -1.73281
LJ          -1.35523       -0.616173         1.36388
LJ          0.238457         1.36639        0.817075
LJ         -0.648803        -1.95822          2.3972
LJ         -0.110728        0.564448        -1.22586
LJ          -2.19182         -2.5463       -0.281542
LJ           2.00943         2.02341         2.00016
LJ          -1.69355         1.10132        -1.51139
LJ         -0.699634         1.51602        -1.90745
LJ           2.39357         -1.1271         1.68556
LJ            2.2106      -0.0149764         -1.0897
LJ           1.01686       -0.181973        0.394744
LJ           2.22566        -1.67458        -0.27031
LJ          -1.67651         0.19142       -0.805753
LJ           -1.8651         1.53382        0.577225
LJ         -0.192042         2.53609        -1.96459
LJ          0.521796        -1.66452         1.38965
LJ         -0.552962        -1.27462        0.194787
LJ           2.25231         1.61853        0.234784
LJ          0.786938        -2.33328       -0.550671
LJ           1.81929         1.43472        -2.18616
LJ            1.5212        -1.61689          1.7043
LJ         -0.800673         1.41118         1.70604
LJ          0.895866         1.72969        -2.52581
LJ          0.968461         1.53733       -0.695794
LJ         -0.201405        -2.33917        0.174462
LJ          -1.19786          2.0605       -0.394396
LJ           1.58658         2.08431        -1.40754
LJ          0.511348        0.620011         1.48009
LJ          -1.51886       -0.889637        0.387431
LJ          0.178959         1.55607        -1.53472
