108
#Comment!
LJ           2.32697         2.55552         2.55091
LJ          -1.62561        -1.88868         2.48318
LJ          -2.55194        -1.72251        -1.75137
LJ          -1.86013         2.50942        -1.79059
LJ         -0.928056         2.51478         2.45936
LJ         -0.119432        -1.89989        -2.41795
LJ         -0.838189        -1.55874        -1.60315
LJ         0.0329526         2.48401        -1.75707
LJ           0.88676         2.50159        -2.45899
LJ           1.64921        -1.75539        -2.48224
LJ          0.797197        -1.48455        -1.54229
LJ           1.93975        -2.47453        -1.63815
LJ           2.42075       -0.944584         2.53702
LJ          -1.64935      0.00783255        -2.55622
LJ          -2.44686        0.156695        -1.76821
LJ            -1.815        -0.88656        -1.58782
LJ          -1.16435        -0.90608         2.47736
LJ        -0.0627668      -0.0481432         2.50876
LJ         -0.737188        0.154813         -1.7152
LJ          0.116312       -0.812321         -1.7674
LJ          0.961251       -0.920412        -2.50959
LJ           1.75099         0.09386         2.53784
LJ          0.714207        0.175012        -1.66135
LJ           1.62161       -0.819692        -1.76899
LJ          -2.49983        0.896543         2.50866
LJ          -1.80072         1.86839         2.40878
LJ           -2.5316         1.65957        -1.79682
LJ          -1.73135        0.978578         -1.7555
LJ         -0.597832         1.02624          2.3256
LJ          0.198432         1.75484         2.43774
LJ         -0.816644          1.6702         -1.6747
LJ         -0.086888        0.941547        -1.67076
LJ          0.787574        0.803858        -2.43281
LJ           1.75192         1.80837        -2.51874
LJ          0.953771          1.7211        -1.56808
LJ           1.71343        0.803195         -1.6796
LJ          -2.46675        -2.54454       -0.828237
LJ          -1.51488        -1.76642       -0.715747
LJ           2.49616        -1.77193      -0.0290889
LJ          -1.76164          2.4972      -0.0870423
LJ         -0.815497           2.507       -0.771171
LJ        -0.0605831        -1.68773       -0.861791
LJ         -0.811515        -1.81362       0.0611103
LJ         -0.174286         2.34885       0.0635858
LJ          0.915523          2.4644       -0.896263
LJ           1.60426        -1.70984       -0.841096
LJ          0.767495        -1.82451        0.173789
LJ           1.66151        -2.47452      -0.0636682
LJ          -2.44736       -0.940375       -0.788116
LJ          -1.90752        0.123689       -0.798824
LJ           2.47899       0.0395251      -0.0484909
LJ          -1.72629       -0.754931       -0.088597
LJ         -0.854131       -0.707212       -0.802216
LJ        -0.0596174        0.118842       -0.726513
LJ         -0.896447     -0.00591544       0.0317976
LJ        -0.0471087       -0.714786      -0.0918769
LJ           0.88759       -0.765401       -0.849789
LJ           1.83458      -0.0912298       -0.821747
LJ          0.980519      -0.0433347      -0.0654396
LJ           1.65752        -1.02998       -0.101154
LJ          -2.53211         1.07317       -0.724899
LJ          -1.65366         1.71517       -0.954869
LJ           2.49247         1.73482        0.168063
LJ           -1.8202        0.920045       0.0125598
LJ         -0.778376        0.777552       -0.867761
LJ        -0.0367001         1.70378       -0.903064
LJ         -0.914872         1.65329       -0.157729
LJ        -0.0654154          1.1068      -0.0328088
LJ          0.696829        0.923375       -0.793134
LJ           1.84618          1.8538       -0.911822
LJ          0.716426         1.84716      -0.0875455
LJ           1.69721        0.934285      -0.0277344
LJ           2.45871         2.52517        0.943849
LJ          -1.53252        -1.80759         0.90131
LJ           2.46196        -1.68161          1.6871
LJ          -1.79673        -2.53888         1.66644
LJ         -0.875346         2.50686        0.788528
LJ        -0.0321579        -1.65373         0.81685
LJ         -0.843292        -1.64224         1.70483
LJ          0.199513        -2.49606         1.79311
LJ           1.09303         2.56323        0.956728
LJ           1.88917        -1.70387         0.80388
LJ          0.876142        -1.58676         1.54766
LJ           1.61558        -2.53136         1.80128
LJ           2.45569       -0.690195        0.828273
LJ          -1.86009      -0.0176364        0.935983
LJ          -2.52532      -0.0252126         1.94656
LJ          -1.82929       -0.896859         1.68302
LJ         -0.662651       -0.812532         0.74255
LJ         0.0718093      -0.0979415        0.827313
LJ         -0.729418       0.0697031         1.69213
LJ        -0.0323763       -0.881797         1.68346
LJ          0.790457       -0.986322        0.810377
LJ           1.56872      -0.0188946        0.750719
LJ          0.786361       -0.104911         1.84541
LJ           1.74032       -0.821799         1.68876
LJ           2.39577        0.778562        0.763845
LJ          -1.73892         1.74829        0.815742
LJ            2.5301         1.72674         1.72437
LJ          -1.72437        0.761758         1.62063
LJ         -0.874548        0.725218        0.819399
LJ         0.0716427         1.66725        0.859051
LJ         -0.859646         1.66946         1.54915
LJ         0.0519227        0.876366         1.52842
LJ          0.911937        0.822189         1.00721
LJ           1.70847          1.7209        0.826348
LJ          0.950603         1.67874         1.75752
LJ           1.68499         1.03459         1.71525
