108
#Comment!
LJ          0.181259        0.670044        0.287016
LJ          -1.74994         2.17214        -1.75488
LJ         -0.577867        0.488764        -2.55022
LJ         -0.755855        -2.04355       -0.194964
LJ         -0.458089        -1.59439         1.02064
LJ          -1.02287         1.60242        -2.52798
LJ         -0.782914       -0.690999        0.679406
LJ          0.225378        -0.63575        0.969622
LJ         -0.672608         2.12501        0.209465
LJ           1.02643       -0.357072         1.61905
LJ           2.11428         1.07606       -0.574175
LJ          -2.16462        -2.21403         1.53334
LJ          -2.07439        -1.11139         1.15488
LJ           1.95388        0.123525        0.111063
LJ          -1.97828       -0.738712       -0.976909
LJ           2.36272        -1.74431       -0.708819
LJ         -0.571999        -1.21734         1.99688
LJ           1.01486       -0.128644        -1.42099
LJ           2.51598     -0.00552688        -2.38145
LJ         -0.246857         1.20451        -1.89463
LJ          -1.66338        0.634275        -2.55714
LJ          -2.41347         1.62346        -1.17484
LJ          -2.17232         1.10148        0.405025
LJ           2.41127         -2.5425        -1.29676
LJ          0.188492       0.0563869        -1.93457
LJ          -1.33036        -2.29261        -1.20302
LJ          0.027332       -0.680663       -0.997575
LJ          0.842856       -0.209412        0.187954
LJ           1.21262         1.47654       0.0747492
LJ        0.00188599        -1.69169        -2.42748
LJ          -1.17727        -1.58844        -1.99046
LJ           -1.2205        0.982913        -1.63704
LJ           1.05327        -1.72046        0.164105
LJ          -2.14615        0.343985       -0.480161
LJ          -1.82272          1.8878          1.7171
LJ          -1.72328        -2.37999        0.655651
LJ           -1.0904      -0.0259071         1.66158
LJ           -1.3056        -2.44258        -2.48255
LJ           2.14147        -0.16906       -0.943182
LJ          0.156259        0.338455         1.46705
LJ          -2.08396        0.207045        -1.58254
LJ         -0.817798         1.76092        -1.20813
LJ          -0.13519         1.45766         1.79489
LJ         0.0749964        -1.22697      -0.0585959
LJ        -0.0105865       -0.476689         2.32962
LJ           1.29046        -2.22138        -1.09111
LJ          0.998729        -1.25081         2.38201
LJ          -1.16587       -0.672825       -0.431479
LJ           2.37561        -1.89165        0.270441
LJ          0.743599        -1.15175        -1.75809
LJ           1.24538       -0.194349        -2.49708
LJ            1.5726       -0.957759        0.930532
LJ          -2.35264       -0.640154       0.0651048
LJ         -0.807907        0.978175       0.0948265
LJ          -1.53287         1.51966       -0.465841
LJ           2.48334         1.95776        0.686566
LJ          0.851656          1.6244        -2.33163
LJ        -0.0904925        0.703151       -0.884272
LJ           1.72167        0.745534          1.9706
LJ           0.93195        0.825464        -1.71691
LJ          -1.64346        -1.71463       -0.302993
LJ           1.96343         1.03937        0.947586
LJ          0.752176         -2.4878        -2.13739
LJ          -1.43164         1.59054         0.83459
LJ          -1.75435       -0.665919        -1.97128
LJ           1.75866        -1.79945        -2.04765
LJ          -2.26607        -2.26309        -2.42674
LJ          -2.36332         1.59852        -2.44995
LJ           1.52814        -2.51765         2.23453
LJ          0.838527         2.34568        -0.32985
LJ           1.75707         2.21793        -2.02624
LJ          -0.52807         -2.4079        -1.76645
LJ          0.274857        -2.11179        -1.15359
LJ          -1.57588        -1.21059         2.09631
LJ          0.926711       -0.922528       -0.655393
LJ           -0.1384         2.20915        -2.54258
LJ          -2.27894         2.47043       -0.327694
LJ           0.55781        -1.65038         1.05717
LJ           1.00673         1.68984         1.60222
LJ         -0.549293        -2.55644         1.55403
LJ           -2.1387       -0.397961         2.01869
LJ           1.12814         0.51435       -0.504219
LJ           2.13917        -1.22708         1.95416
LJ          -2.43964      -0.0944585        0.958379
LJ           2.00218        0.896757        -1.84973
LJ          0.361988         1.83771        0.760378
LJ           1.06392        0.588157          1.0904
LJ           2.08354         1.73375         1.84378
LJ           2.06473       -0.226646         1.74068
LJ         -0.246477       -0.175017       -0.210519
LJ          -1.16009        0.244845       -0.936592
LJ          0.513584        -2.41981         1.89838
LJ           1.79694         2.41806      -0.0523497
LJ         0.0308136        -2.27525         0.41523
LJ           0.31762          1.9373        -1.35191
LJ          -1.55418       0.0916804        0.584192
LJ          -0.75492       -0.532366        -1.73926
LJ           1.83066       -0.844133        -1.66488
LJ           1.40045         2.27792         0.89783
LJ          0.603931        0.602884         2.29729
LJ           1.75963        -1.88731          1.2154
LJ          -2.40595        0.846736         1.62945
LJ          0.130053         1.53118       -0.230154
LJ         -0.745235        -1.39605         -1.0355
LJ         -0.742308        0.825802         1.27222
LJ          -2.43314        -1.32314        -2.16103
LJ           1.74577       -0.958591       -0.155451
LJ           1.43114         1.79172        -1.09925
