108
#Comment!
LJ          -1.14976        -1.87615       -0.340267
LJ           1.82802         0.22362       -0.685412
LJ         -0.110758        0.233643        0.559914
LJ          -2.14387        -1.40825         1.39938
LJ           1.51148         2.20752        0.163779
LJ          -2.44444        0.579423        -1.32721
LJ           1.64395        -1.65144        -2.13666
LJ          -1.35095         1.56106        0.984283
LJ           1.95258        -2.37198        -1.44786
LJ          -1.93854        -2.28365       -0.897714
LJ           2.35193        -2.28146       -0.170211
LJ           1.77386       -0.213413         1.67202
LJ           1.70585         1.00809        -1.47054
LJ          0.688447         1.84245          2.1381
LJ          0.492079       -0.545891        -1.03277
LJ          0.379123         1.73821        -1.10594
LJ          -1.85265       -0.915837        0.277906
LJ          0.809436        0.625544       -0.933436
LJ          -2.27626         2.27532        -1.83665
LJ         -0.116428         0.89531       -0.548162
LJ          -1.56999         2.52487        -2.52856
LJ          -2.37099        0.500392         1.73232
LJ          -2.55188         2.03388         0.39708
LJ           1.20879        0.685992         1.94386
LJ          0.961162        -0.71155         -2.0692
LJ       -0.00332272        -2.04833       -0.763342
LJ         -0.313265         2.20262         1.51916
LJ          -1.56828        0.498508        0.776222
LJ          -0.66321         1.22225        -1.54684
LJ           1.53407       -0.626383        0.713324
LJ          0.469187     -0.00550648         2.26976
LJ        -0.0687678        -1.34002         2.30767
LJ          -1.03721       -0.273748        0.361057
LJ           2.11857        -2.09148        0.905673
LJ           1.40222         -1.8597         1.78314
LJ           0.47676       -0.816373         1.67146
LJ           2.36118        -1.24876        0.395646
LJ           1.14047        -1.48504        -1.01541
LJ          -1.50148        -1.52755         2.23488
LJ          -1.98514        -1.92099        0.387059
LJ          -1.43559         1.31629         2.05948
LJ         -0.890523        -1.40171        0.473709
LJ          -1.50415         2.22931       0.0717079
LJ          -1.00023         1.01805      0.00409867
LJ         -0.531173         1.92399        0.382803
LJ          0.562165           2.257       -0.152331
LJ           2.42797         -1.4213       -0.761441
LJ         -0.915465        0.745519        -2.38968
LJ           1.83084        0.148478        -2.15423
LJ          0.595579        -2.54404        0.960465
LJ         -0.894256       -0.711998        -1.15827
LJ          0.717518        -1.19294       -0.129543
LJ         -0.843289         1.89511        -2.30845
LJ          -1.85075        -1.86308        -1.82701
LJ          0.849274        -1.57297        0.905842
LJ           1.45511        -1.86422        0.148161
LJ           1.71436       -0.797897       -0.216898
LJ          0.622489         1.51909         1.13413
LJ          -2.31074          1.9141         2.06599
LJ          -2.37377        -1.05423        -2.07757
LJ         -0.551117        0.907019         1.23239
LJ            1.0159        -2.54238       -0.989795
LJ          0.077897       -0.894226         0.57915
LJ           2.11625          1.3047         1.40702
LJ           0.85422       -0.154042      -0.0306213
LJ         -0.669939        -2.20044         2.50837
LJ         -0.907932       -0.675473        -2.48248
LJ         -0.140564       0.0697196        -1.65603
LJ           1.38453         1.64526       -0.617487
LJ         -0.335542       -0.134543       -0.377537
LJ          0.888945        0.510529        -1.99468
LJ           1.69885        0.686704        0.554382
LJ           2.51249        -2.18317        -2.45883
LJ          -1.04481        -2.40904        0.937143
LJ           2.50237        0.999766      -0.0979132
LJ         -0.813445         -1.6047        -1.44415
LJ          0.212396        -1.51862        -1.82143
LJ          -1.21566       -0.921456         1.41824
LJ          -2.42944       -0.224641        0.929774
LJ          0.755041      -0.0333728        0.997199
LJ          -2.12889        0.230504        -2.37786
LJ           1.90333         1.17241        -2.43338
LJ             2.478         1.87572       -0.780835
LJ         -0.590218         2.11115        -0.64274
LJ          -1.65119         1.37764        -0.98107
LJ          -1.97432         2.46517         1.28107
LJ           2.46166      -0.0587167      -0.0246046
LJ          0.429307        -2.12128         2.02489
LJ         -0.398031        -1.16521       -0.346313
LJ         -0.441737        -1.77804         1.39667
LJ          -1.49701        0.220644       -0.410619
LJ           1.74609         2.28999         2.37274
LJ            1.4696         2.36178         1.36505
LJ         -0.374716       -0.170759         1.65853
LJ         -0.161153        -2.47682        -1.79667
LJ          -1.43094         0.27409          2.0051
LJ          -1.17459        0.244749        -1.39232
LJ          0.604617         1.25892        0.128728
LJ         -0.129146        -2.03322        0.418112
LJ           1.38563         1.91968        -1.74408
LJ          -1.16571         2.51485        -1.38803
LJ          0.208299         1.50423        -2.07685
LJ           0.11569         1.00036         2.07062
LJ          0.857593        -2.37965        -2.09405
LJ           2.00265       -0.540131        -1.32991
LJ          -2.00794       -0.677478        -1.07684
LJ          -1.80462         1.05552         -1.9839
LJ          -2.35363       -0.554747         1.96095
