108
#Comment!
LJ          0.718425        0.636806        0.395501
LJ          -1.83692         2.05768        -1.74188
LJ         -0.590387       -0.226153          2.4568
LJ         -0.624385        -2.18416       -0.242201
LJ         -0.759436        -1.56785         1.11743
LJ          -1.09476         1.63402        -2.38255
LJ          -1.09508        -1.03759        0.367224
LJ        -0.0930584       -0.903196        0.897786
LJ         -0.839276         1.90003      -0.0180564
LJ           1.21613       -0.826455         1.49053
LJ           2.39704         1.13154       -0.688197
LJ          -2.36407        -2.20385         1.59079
LJ          -1.76455        -1.63883         1.03666
LJ           2.16141        0.104799       -0.277907
LJ          -2.14253       -0.909912        -1.09476
LJ          -2.53834        -2.06681        -1.05296
LJ         -0.840302        -1.22749         2.08204
LJ          0.850928      -0.0185539        -1.24411
LJ          -2.50262        0.141002         2.39206
LJ         -0.380784        0.783322         2.47019
LJ          -1.41162         0.59315         2.12435
LJ           -1.9933        0.956246        -1.56035
LJ          -2.49328         1.22995        0.445195
LJ           2.28678         1.96761         -1.4322
LJ          0.154211        0.150924        -2.00496
LJ          -1.27799        -2.39791        -1.25166
LJ          -0.20725       -0.418614        -1.11726
LJ            1.3589       -0.412999        0.561974
LJ           1.12697         1.57918        0.305204
LJ          0.317859        -1.61106          2.5472
LJ          -1.44903        -1.76025        -2.15711
LJ         -0.860649        0.542753        -1.74107
LJ           1.26646        -1.61207       0.0964347
LJ          -1.97956     0.000927658        -0.78076
LJ          -1.78545         1.94986          2.0013
LJ          -1.55237        -2.51183        0.328797
LJ         -0.919622       -0.298108         1.25331
LJ          -1.15949        -2.40123         2.26364
LJ           2.29484        0.288375        -1.38114
LJ         0.0929574       0.0379509         1.25039
LJ          -1.93242       -0.103957        -1.85907
LJ          -1.11497         1.50332        -1.35591
LJ       -0.00159634         1.38086         1.53032
LJ         -0.244513        -1.10079       -0.257825
LJ          0.558719        -0.24487         2.24779
LJ           1.32088        -1.78461       -0.904127
LJ           1.20417       -0.976074        -2.38022
LJ           -1.1596       -0.639565       -0.657212
LJ          -2.52506        -1.86942        0.313986
LJ           0.50192        -1.05256        -1.70876
LJ           1.52292        0.273739         -1.9854
LJ           2.34329       -0.840114        0.868132
LJ          -2.10458       -0.703066      -0.0537959
LJ         -0.338923         1.04501         0.10048
LJ          -1.72026         1.08876       -0.545598
LJ            2.5139         2.24927        0.932119
LJ          0.652539         1.81239        -2.13032
LJ           0.15724        0.496278       -0.754412
LJ           1.88072        0.958526         2.28592
LJ          0.602573         1.33353        -1.16103
LJ          -1.68699        -1.66151       -0.338689
LJ           1.85416         1.38634         1.04918
LJ          0.794747         -2.1448         -1.8455
LJ          -1.70362          1.8084        0.984868
LJ           -1.5603       -0.673123         2.51691
LJ           1.81269         -1.6863        -1.73413
LJ          -2.41424        -2.17725         -2.2426
LJ          -2.44589         1.53765        -2.31999
LJ           1.63383        -1.95093          2.2591
LJ           0.94799         2.52768         0.20017
LJ           1.57881         2.33976         -2.3836
LJ         -0.403048        -2.19108        -1.91051
LJ          0.221672         -1.9777       -0.801053
LJ           -1.9099        -1.58373         2.14444
LJ          0.672711       -0.914551       -0.645332
LJ         -0.229854         2.01041         2.49148
LJ          -1.99801         2.06207       -0.316468
LJ          0.657073        -1.76366         1.45755
LJ            1.1885         1.68944         2.03252
LJ         -0.253641        -2.29997         1.78839
LJ          -2.01082       -0.657599         1.53654
LJ           1.21414        0.658432       -0.601105
LJ           2.37754        -1.27029          1.7592
LJ           -2.1797        0.155368        0.805441
LJ           1.73312         1.20132        -1.63244
LJ         0.0689211         2.13146         0.93993
LJ           1.01075        0.743628         1.38333
LJ           2.29192         1.86822         1.92819
LJ            2.0015        0.235443         1.35716
LJ         -0.151493      -0.0559954        0.144442
LJ         -0.869289        0.491559       -0.630674
LJ          0.636308         2.48187         2.11754
LJ           2.00922         2.53382       -0.118571
LJ          0.153902        -2.01154        0.486078
LJ        -0.0513956         2.11396        -1.21819
LJ          -1.27549        0.133184        0.267639
LJ          -1.04252       -0.546265        -1.74389
LJ           1.97211       -0.706738        -1.38154
LJ           1.20368         2.46911         1.34169
LJ          0.793704        0.835822         2.50676
LJ           1.81958        -1.86083          1.1107
LJ          -2.35285         0.88706         1.58155
LJ          0.308961         1.72283       -0.243922
LJ          -0.54889        -1.45816        -1.22412
LJ         -0.872075        0.896117         1.10793
LJ          -2.45715        -1.17348          -2.023
LJ           1.99732       -0.980862       -0.245338
LJ           1.36763         2.03984       -0.761179
