108
#Comment!
LJ         -0.452683         1.85459         1.81975
LJ           1.89262         1.48642        -1.40662
LJ           2.27153        0.600487        -1.99715
LJ          -0.25465         1.65349        0.465679
LJ          -2.09809        -1.55452       -0.214188
LJ          -1.75171         2.22464        -2.01947
LJ           1.30886         0.29803         1.48334
LJ          0.811507        0.142986      -0.0191708
LJ           1.97734         1.71398        0.284106
LJ         -0.160434        0.375144        0.830168
LJ           1.01659       -0.528003        -1.44709
LJ          -2.28466       -0.820361        0.754042
LJ           1.70681         2.44338         1.42749
LJ          0.935382       -0.974534       -0.348762
LJ            2.1123       0.0148314       0.0143658
LJ          0.828133         1.80371       -0.127434
LJ         -0.207078       -0.972505         2.07493
LJ           1.69844         1.27497         1.28321
LJ          0.969564        -2.14239        -2.39868
LJ          -1.87652         1.00794         1.40376
LJ          -1.43124         0.35677        -2.22677
LJ           1.54123         2.12779         2.51584
LJ           2.50475        0.668258        0.793973
LJ           1.31804         2.42784        -1.05488
LJ         0.0747853        -1.29214       -0.653614
LJ           2.17462        -1.00516      -0.0219365
LJ          0.853904       -0.980169         2.51515
LJ         -0.353388        -1.29105         1.13665
LJ           1.27826        -1.65334        -1.21893
LJ          -1.04922       -0.691536         -2.5623
LJ         -0.592873        -2.22839       -0.836732
LJ          -2.31691         1.95494       -0.936518
LJ         -0.114901        -2.24434        0.278722
LJ          0.358593         1.02164       -0.701553
LJ          -1.03956        -1.65639          2.2887
LJ           0.92515         2.53563        0.728787
LJ           2.13387        -1.97627       -0.916772
LJ         -0.498539         1.84092        -2.03948
LJ           1.77526        0.248611        -1.10074
LJ           -1.9317       -0.372425       -0.142724
LJ           1.16758        0.713486        -1.75244
LJ          -1.19836         1.91737        -1.12308
LJ          -1.54547         1.94009         1.83249
LJ          -0.59406       0.0817239         2.00157
LJ          0.325953       -0.560067         1.25167
LJ           1.08711         1.09128         2.32425
LJ          0.117786        0.983758        -2.39906
LJ         -0.763539       -0.436619        0.809655
LJ           1.34583       -0.661232        0.737958
LJ          0.643175        -1.50439         0.47511
LJ         -0.512265        -1.17951        -1.64527
LJ          0.843099         -1.6436         1.68815
LJ           1.50243         1.05224       -0.416124
LJ          -1.86662         1.19548        -1.54664
LJ          -1.89315         1.70621        0.196361
LJ           1.59685        -1.94067       0.0138196
LJ         -0.989986        -2.27193        -1.93912
LJ          -1.69577        0.743656       -0.316645
LJ           0.12983         0.94423         1.59192
LJ          -1.13229        0.177755       -0.964609
LJ            -2.254        -1.94981        0.744157
LJ          0.738005        0.963859        0.496029
LJ          -1.16086         2.01091        0.902902
LJ           2.35945         1.77544         1.94856
LJ          -2.02116        -1.23023        -1.27069
LJ        -0.0330316        -1.92205         2.45872
LJ           2.47237         1.71013        -2.14592
LJ           2.47981        0.881643        -0.80886
LJ          -1.83629        -1.69284        -2.20398
LJ         -0.693955        0.895661        -1.48126
LJ          0.872523         1.73098        -1.78789
LJ          -2.33856         1.91612         1.05232
LJ           2.19925        -0.63481        -1.24174
LJ          -2.28501        -2.37899         1.69012
LJ         -0.950214         2.26507       -0.120327
LJ          -2.10416        0.988532         2.40094
LJ          -1.73495        -2.30883       -0.917237
LJ           1.67251       -0.940804         1.74607
LJ         -0.751673        0.253311      0.00691109
LJ         -0.899434         -2.1469         1.34127
LJ          -1.50243        -1.09657         1.50275
LJ          0.128632       -0.143413        -1.02479
LJ           1.64821         -1.3156         -2.1163
LJ          0.542545      -0.0119465         2.15351
LJ        -0.0456003       -0.356199        -2.15601
LJ         -0.713832         1.29085       -0.458401
LJ           2.06998        0.434578         2.16631
LJ            1.9924         -1.9531         2.10636
LJ          -2.36418        -1.38349         2.02089
LJ         -0.858759       -0.909546       -0.362938
LJ          -2.14345      -0.0980546        -1.48434
LJ          0.176056        -2.47073         1.54372
LJ          -0.83326        0.982959         2.31034
LJ         -0.904596        0.948599         1.10495
LJ          0.338566        -2.42975        -1.59322
LJ          -1.58656        0.317085        0.561758
LJ          0.603084        -2.21752       -0.396323
LJ          -2.50793        -2.52027      -0.0300821
LJ          0.761152         1.83565          1.5337
LJ          0.304812         2.09465          2.3265
LJ          -2.52512       -0.187911         1.59761
LJ          -2.05893       -0.634651          -2.327
LJ         0.0219275         1.99856        -0.82995
LJ           2.31772        -2.38139         -2.1408
LJ           -1.5186       -0.147881         1.79133
LJ           1.93497       -0.417139        -2.33163
LJ           1.60684        -1.69984        0.999731
LJ         0.0389926       -0.503323       0.0712984
