108
#Comment!
LJ         -0.166984        -1.85703        -2.33359
LJ           2.34737        0.223714        0.157554
LJ         -0.831062          1.0105        -0.17368
LJ          -2.04716         2.35993         2.43114
LJ           2.11579         -2.1796        -1.18133
LJ         -0.481844          1.4758         2.22176
LJ          -1.31794        0.239004        0.670982
LJ          -1.45944       -0.417895         2.28851
LJ          -1.03862        -2.49871        -1.36366
LJ         0.0975029          2.5639        -1.40033
LJ          -2.27198       -0.603748      -0.0678314
LJ          -1.36154        0.533885        -2.35395
LJ          -1.08511         2.37031       -0.306192
LJ           -2.4206         1.19121         2.43624
LJ           1.71065        -1.57871         -1.8412
LJ           1.92769         1.09503        0.744736
LJ          0.299937         2.21832       -0.388156
LJ          0.590889       -0.416729       -0.863609
LJ           2.50372         1.87513        -1.86451
LJ         -0.469531       -0.292176        -1.37115
LJ           0.50816        -1.55549        -1.56005
LJ          -1.90889        0.800015         1.51565
LJ          -1.98683         0.95598        -1.74376
LJ           1.00354         0.45185         2.07723
LJ          0.491481        0.217169        -1.89875
LJ           2.08357          2.0594       0.0730769
LJ           1.17406        -2.44238         1.38421
LJ          -1.22592       -0.716688       -0.597612
LJ          0.527993         1.20841        -2.47331
LJ           1.30791        -1.34035       -0.818129
LJ          0.645329        0.889648         1.10125
LJ          -1.01685         1.29371         1.26043
LJ          -1.24777        -1.72731       -0.605871
LJ          -1.69282        0.260758       -0.479168
LJ           2.14945         2.45407         1.24021
LJ           2.22499        0.138684          2.2155
LJ          -2.21791        -1.68178       -0.837226
LJ           1.92524        -1.67601         1.73257
LJ            -1.784        -1.54669         2.19453
LJ        -0.0724042        -1.33269        0.775995
LJ          -1.18591        -1.63996         1.34795
LJ         -0.737065       -0.727401         1.55749
LJ          -1.93437         2.39321        0.372806
LJ           1.17129         1.84905        0.588151
LJ           1.27098        -2.25606       -0.263848
LJ         0.0471496        -1.74282       -0.714502
LJ         -0.768971        -1.53405        -1.55906
LJ           1.14551          1.6622         1.86755
LJ            1.4927       0.0740829        -0.54217
LJ           2.03389         1.00773         1.71214
LJ         0.0988998       -0.154417         2.02894
LJ           2.32687        -1.85759       0.0343723
LJ          -1.51012         1.62031         2.21172
LJ          -1.27167         1.66032        -1.78708
LJ          -1.88553        -1.53224        0.469153
LJ          -2.14989        -2.21275        -1.85001
LJ          -2.29116         2.44297       -0.553803
LJ         -0.139366        0.185852      -0.0234977
LJ           2.02962       -0.894399          1.0056
LJ         -0.902232        0.325581         1.68383
LJ          0.324179        -2.33802         0.54368
LJ             2.072        -2.24349        -2.55313
LJ           1.48932        0.183005         1.23885
LJ          -2.56301        0.707409        -1.04206
LJ          -2.31728         1.77659         1.11732
LJ          0.816033         -1.2559         1.35546
LJ         -0.546088       -0.646411        -2.40907
LJ         -0.401116        0.904597        -2.01978
LJ           2.13463         1.64361       -0.982124
LJ          0.375779         0.63773       -0.885277
LJ           1.35352         1.89019        -1.88227
LJ           1.75714       -0.897798      0.00088208
LJ          -2.53106        0.153075         1.13715
LJ         -0.345196         1.96797        0.640592
LJ           -1.7939         1.51074       -0.919937
LJ           1.25392          1.5991       -0.472636
LJ          0.538486        -0.87986        -2.30993
LJ          -1.11679       -0.885921        0.496186
LJ           -1.8901       -0.778333         1.18353
LJ           2.30331       -0.812203        -2.43238
LJ           2.15477       -0.904358        -1.19536
LJ          -1.56956       -0.050164        -1.39623
LJ         -0.944963        -2.24881        0.458151
LJ           1.00429       -0.241569        0.371693
LJ          0.550466         1.51194        -1.43771
LJ          -1.04045        -2.48409        -2.54845
LJ          -2.52036          1.1833      -0.0660573
LJ           0.98018        -1.40338        0.375148
LJ           1.04075        -2.51028         -1.2796
LJ        -0.0192695      -0.0284457         1.05996
LJ          -0.92802         2.33399         1.52638
LJ           2.10992         1.93639         2.25788
LJ          0.634752         2.38821        -2.51837
LJ          0.218824         2.07175         1.68133
LJ           1.06863        -1.73168         2.50334
LJ          -1.59764         1.27715        0.462668
LJ         -0.990168        0.808711        -1.18797
LJ          0.222441         1.15181       0.0707733
LJ         -0.117403       -0.820446       -0.260407
LJ           1.58183       -0.376742        -1.87162
LJ          -1.92303        -2.40687         1.34848
LJ           1.36069        0.758757         -1.3835
LJ        -0.0526889         -2.1412         1.46931
LJ           1.50915       -0.710722         2.04076
LJ           2.46363         0.02512        -1.89579
LJ           1.84681        0.987425        -2.36457
LJ         -0.587452         1.74288       -0.953594
LJ          -1.79372        -1.21264        -1.62005
