108
#Comment!
LJ           2.55538        -2.44778         2.49967
LJ          -1.77061        -1.69065         2.48497
LJ          -2.47059        -1.67074        -1.67294
LJ          -1.75829        -2.42754        -1.75103
LJ         -0.857881         2.48415         2.49859
LJ         0.0385701        -1.96743        -2.50874
LJ         -0.940281        -1.51528        -1.55121
LJ         0.0717888         2.28682          -1.677
LJ          0.969875          2.3438        -2.44299
LJ           1.76525        -1.66902         2.55458
LJ           1.04773        -1.79203        -1.71345
LJ            1.9543        -2.52913        -1.51605
LJ           2.51613       -0.839859          2.5612
LJ           -1.7779        0.047199        -2.53423
LJ            -2.481         0.17215        -1.79689
LJ          -1.63669       -0.491598        -1.37313
LJ          -1.12324       -0.894246        -2.51201
LJ        -0.0783362       -0.190398        -2.39856
LJ         -0.826521       0.0637447        -1.70586
LJ         -0.114097        -1.01138        -1.82479
LJ           0.98812        -1.08684        -2.48857
LJ           1.65954        0.051164         2.55307
LJ          0.779911       -0.103297        -1.61086
LJ           1.70399       -0.911085        -1.70154
LJ          -2.45064         1.05634         2.41356
LJ          -1.74766         1.84223         2.55111
LJ          -2.49427         1.70636        -1.60183
LJ          -1.54024        0.867082        -1.66851
LJ         -0.672795          1.0932        -2.51189
LJ          0.156297         1.86385         2.54134
LJ         -0.746375         1.76054        -1.76283
LJ         0.0467241        0.940344        -1.81202
LJ          0.950255        0.808394        -2.47485
LJ           1.83598         1.80757         2.42829
LJ          0.945514         1.68591        -1.59017
LJ            1.8478        0.804785        -1.82352
LJ          -2.53251         2.35674       -0.734034
LJ          -1.50808        -1.89152       -0.729969
LJ          -2.45012        -1.72393       -0.131851
LJ          -1.72791         2.44846       -0.106605
LJ         -0.648957        -2.49475       -0.949088
LJ          0.094369        -1.71911       -0.915649
LJ         -0.580665        -1.76818      -0.0194407
LJ         -0.254419         2.35065        0.125331
LJ          0.827509        -2.50929        -0.91083
LJ           1.73716        -1.72901       -0.864255
LJ          0.628808        -2.00019        0.149896
LJ           1.60581        -2.37482       0.0382271
LJ          -2.43202       -0.923484       -0.732758
LJ          -1.85847       0.0559817       -0.631708
LJ           2.38683        0.104445      -0.0010255
LJ          -1.64348       -0.856187       0.0266698
LJ          -0.59823       -0.770678       -0.801781
LJ       -0.00626028         0.20746       -0.868662
LJ         -0.845189       -0.021201       -0.049833
LJ         0.0221974       -0.811894        0.202844
LJ          0.821665       -0.908592       -0.689669
LJ           1.87287       -0.164191       -0.871433
LJ          0.787329       0.0223946      -0.0811988
LJ           1.70162       -0.842398      -0.0640499
LJ          -2.46254        0.988796       -0.933261
LJ          -1.59212         1.75111         -1.0155
LJ           2.51762         1.70591       0.0855559
LJ          -1.90583        0.893507       0.0464207
LJ         -0.885399        0.727285       -0.859173
LJ         -0.139647         1.56251       -0.830963
LJ         -0.889191         1.46533      0.00733365
LJ         0.0258313         0.92782        0.128305
LJ          0.843596        0.960697       -0.635907
LJ            1.7466          1.6358       -0.852941
LJ          0.779291         2.04029       0.0389779
LJ           1.72054        0.856761        -0.11469
LJ           2.47033         -2.5601        0.837079
LJ          -1.46078        -1.73835        0.666759
LJ           2.50208        -1.46972         1.67046
LJ          -1.93724          2.5047         1.58716
LJ         -0.764986        -2.44226         1.14123
LJ          0.117942        -1.55502        0.896664
LJ            -0.837        -1.63261         1.69571
LJ          0.159378         -2.3835         1.68872
LJ           1.00122         2.47818        0.874688
LJ           1.94119        -1.58106        0.691693
LJ          0.950824        -1.75792         1.72742
LJ           1.62811        -2.50164         1.72464
LJ           2.45045        -0.63891        0.995319
LJ          -1.74121      -0.0414371        0.813113
LJ            2.4394       0.0482984         1.91477
LJ          -1.63362       -0.989231         1.47173
LJ         -0.723964       -0.868832        0.992156
LJ         0.0654172      -0.0774309        0.973981
LJ         -0.861153        0.173082         2.08222
LJ          0.155118        -1.00226         1.72835
LJ           1.00848       -0.863839        0.807465
LJ            1.6073      -0.0991097        0.658692
LJ           0.73101      -0.0417516         1.83478
LJ            1.5366       -0.851224         1.66695
LJ           2.50805        0.681226        0.903351
LJ          -1.51968         1.96713        0.738601
LJ           2.46142         1.59749         1.51624
LJ          -1.58036        0.935698         1.58677
LJ         -0.986412        0.684424        0.752374
LJ          0.186183         1.54042        0.826817
LJ         -0.814511         1.63784         1.54079
LJ        -0.0884059        0.874945          1.5265
LJ          0.828077        0.646667        0.898556
LJ           1.71868         1.72668        0.742614
LJ          0.871556         1.59338         1.78739
LJ           1.79168         0.81676         1.70728
