108
#Comment!
LJ          -2.47556        -2.27608          2.3686
LJ           -1.6918        -1.57355         2.39383
LJ          -2.22267        -1.56609         -1.6356
LJ          -1.54677         -2.4161        -1.78278
LJ         -0.799264         2.47378         2.48359
LJ         -0.139459        -1.71868         2.53922
LJ          -1.09566        -1.53321        -1.78276
LJ          0.151304         2.39587        -1.85969
LJ          0.956864         -2.5221         2.51433
LJ           1.70228        -1.57466         2.41683
LJ           1.00914        -1.83126        -1.70615
LJ           1.98443         2.37581        -1.81916
LJ           -2.4974       -0.784412         2.51658
LJ          -1.77209      -0.0732024         2.40553
LJ           -2.4933       0.0241824        -1.75726
LJ           -1.6995       -0.671734        -1.66079
LJ          -1.08424       -0.844431        -2.49888
LJ        -0.0193657        -0.15141        -2.34693
LJ          -1.00533       0.0560512        -1.81726
LJ         0.0452981        -1.12868        -1.70336
LJ           0.88705        -0.88912         2.55137
LJ             1.679       0.0101554         -2.4228
LJ          0.879213        0.179649        -1.82227
LJ           1.62563        -0.66638        -1.70162
LJ           -2.4379        0.948773        -2.46023
LJ          -1.68516         2.00411         2.39124
LJ          -2.50707           1.606        -1.58809
LJ          -1.68787        0.734571        -1.89719
LJ         -0.461305        0.793115         2.43966
LJ          0.150632         1.61096         2.32364
LJ          -1.21178         1.66231        -1.74987
LJ       -0.00456318         1.12358        -1.82749
LJ           1.05365        0.970989         2.48083
LJ            1.8783         1.72383        -2.55745
LJ          0.954534         1.77837         -1.9548
LJ           1.58884        0.874946         -1.6476
LJ           2.51964         2.40154       -0.847576
LJ          -1.44781        -1.70173       -0.822486
LJ           -2.2556        -1.76973      -0.0199398
LJ          -1.64674         2.55755         0.10904
LJ         -0.566693        -2.48296         -1.1031
LJ       -0.00727238        -1.71547        -0.78162
LJ         -0.765232        -1.92372     -0.00677484
LJ       -0.00126506         2.25545       0.0806202
LJ          0.819702        -2.52946       -0.944564
LJ           2.00814        -1.72987       -0.913504
LJ           0.77539        -1.84014        0.357879
LJ           1.70881        -2.49568       0.0244142
LJ          -2.36166        -0.85291       -0.826673
LJ            -1.939       0.0332534       -0.897239
LJ          -2.44019      0.00969623       0.0801043
LJ          -1.66976       -0.720425       0.0672939
LJ         -0.715356       -0.892544       -0.791138
LJ         -0.215182      -0.0842534        -1.03984
LJ         -0.686123      0.00212938     -0.00986554
LJ         0.0481844       -0.810717        0.126833
LJ           1.02717        -1.25884       -0.841863
LJ           1.84159       -0.149879       -0.621891
LJ          0.946849        0.127304       0.0851193
LJ           1.92813       -0.975804      -0.0021717
LJ           2.47038        0.847116       -0.805127
LJ          -1.61968         1.70157       -0.808761
LJ           2.31307         1.56977       0.0515921
LJ          -1.81229         1.03229        0.310512
LJ           -1.1439         0.70926       -0.986562
LJ          0.148855         1.68431       -0.842465
LJ         -0.846218         1.61719       -0.245241
LJ        -0.0102866         0.81595       -0.260013
LJ          0.992577        0.798702       -0.837728
LJ           1.67112         1.68496       -0.736045
LJ          0.868338          1.6934       -0.180251
LJ           1.64821        0.775394     -0.00712178
LJ           2.54282         2.37592        0.672645
LJ          -1.37761        -1.81834        0.828181
LJ          -2.55871        -1.48177         1.62361
LJ          -1.95076        -2.30993         1.52766
LJ         -0.780435         2.42771        0.929982
LJ        -0.0997711        -1.54064        0.929202
LJ          -0.84116        -1.72038         1.91446
LJ       -0.00123581        -2.35247         1.75594
LJ          0.801729         2.42777        0.967606
LJ            1.6928        -1.58462        0.867768
LJ          0.876517        -1.62232         1.78979
LJ           1.82427        -2.48131         1.60296
LJ          -2.47179       -0.922007        0.766623
LJ          -1.50948       -0.055624        0.778219
LJ           2.47525      -0.0959829         1.64884
LJ          -1.71629       -0.763463         1.64298
LJ         -0.905257       -0.906511         1.13657
LJ          0.175265       -0.103029        0.969415
LJ          -0.93985       0.0438115         1.77827
LJ          0.182201       -0.834834         1.71127
LJ          0.829711       -0.854216        0.632943
LJ            1.7433       -0.264072        0.701874
LJ          0.734098      0.00525072         1.81711
LJ           1.59541       -0.775786         1.71687
LJ            2.2297        0.942942        0.973747
LJ          -1.75589         1.77008        0.946786
LJ           2.47258         1.83581         1.72361
LJ          -1.89336        0.831871         1.44197
LJ         -0.874238        0.853502        0.630012
LJ          0.414319         1.54061        0.761711
LJ         -0.913419         1.39387         1.66844
LJ         0.0882019        0.934882         1.46838
LJ           1.15536        0.630797         1.03037
LJ           1.49247         1.63797        0.599474
LJ           1.12986         1.73472         1.73409
LJ           1.80289         1.06803         1.87293
