108
#Comment!
LJ          -1.19732         2.29286          1.8041
LJ          -2.37503        -1.12177      -0.0665672
LJ          -1.59531        -1.27283        0.860159
LJ         -0.313422        -2.28928        0.496265
LJ         -0.373592        -2.41286         2.38111
LJ           1.71052        -0.70383        0.180405
LJ           1.29081        0.427087        0.711121
LJ           1.08406        0.202403         2.35475
LJ          0.473341        0.973128         1.47884
LJ         -0.667297        -2.39773       -0.814145
LJ          -2.04705        -0.41392        0.604309
LJ          -1.68893         1.26738         1.75511
LJ          0.345985         1.71802         2.52346
LJ           1.25176         1.79518         1.14139
LJ           2.30258         0.89118         1.07204
LJ           2.28399         2.22372       -0.243611
LJ          -2.10226        -2.55258         2.19637
LJ          0.553242        0.291354       -0.351213
LJ          0.311238        -1.55856         1.34848
LJ          -1.58354         1.61009       -0.180827
LJ          -2.41864         -2.1061         1.17539
LJ         0.0237475         2.04504        -1.47857
LJ          -1.61346        -2.55646        -1.10939
LJ          -1.17178         -1.6406         2.32805
LJ           1.57834        -2.46602         1.54627
LJ          0.113867       -0.810103          2.1641
LJ          0.811684        -1.40149        -1.44131
LJ          -1.90476       0.0545408         2.35855
LJ         -0.869149         1.52421        0.938405
LJ         -0.230527        -1.06368        0.591693
LJ         -0.954643        0.475222         2.06836
LJ           2.26516        0.132565        0.358625
LJ           1.77645        -1.10615        -1.76586
LJ           1.24751          2.1294         2.28254
LJ           1.83781        -1.50615         1.48953
LJ          -1.48521         -2.4784        0.511452
LJ          0.426954         2.44313         1.71369
LJ           1.25282        -1.25123         2.35774
LJ           1.41327        -1.41105        -0.64924
LJ         -0.466893         0.84416       -0.164986
LJ         -0.614776         1.87438       -0.175346
LJ          0.192527          2.4239       -0.414065
LJ         -0.912696         2.50639        -1.88215
LJ         -0.258805       -0.999778        -1.95444
LJ           1.70084        -2.38996        -2.07034
LJ          -1.23872        0.448785        -2.05458
LJ           1.96117       -0.511536         2.37196
LJ             1.873        -1.81433        0.352399
LJ          -2.10429       -0.902261         1.75695
LJ          0.691012        -1.95636        -2.51397
LJ          -1.95725        -1.90375        -2.16607
LJ            2.2006       -0.349678         1.32768
LJ         -0.745944        -1.40453       -0.121983
LJ           2.29121         1.53634        -2.04306
LJ         -0.889472         1.75474        -1.12497
LJ         -0.116321        -2.06057        -1.71984
LJ           1.91859         1.14284        -1.09056
LJ          -1.75888         -1.9039       -0.222259
LJ           1.79717        0.365185       -0.487374
LJ           1.21774          1.7086        -1.78025
LJ          0.807172        -2.31734        -1.17053
LJ          0.934876        -1.35917         0.47565
LJ          -1.94889         2.21695        -2.05456
LJ         -0.610498        -1.99718         1.45018
LJ          0.981385       -0.420983        -1.81707
LJ          -1.16726         1.54975        -2.22472
LJ          0.384584        0.880708         0.44787
LJ          -1.80718        0.580426        0.299261
LJ           2.53912         1.18088      0.00447043
LJ          -1.66587       -0.212033       -0.353847
LJ          -2.40641       -0.315361        -1.77658
LJ          -2.16407         1.69924        -1.00277
LJ          -1.99795         1.83231        0.911942
LJ        -0.0168543        0.137916         1.70234
LJ          -1.33077       -0.460063        -1.32175
LJ           1.65925        0.534998          -2.023
LJ           1.92858         2.24535        -1.20272
LJ        -0.0393834          -1.481       -0.852544
LJ           2.07794       -0.680778       -0.867383
LJ          -0.55661         1.38021         1.98937
LJ           1.48188        0.955918         1.66477
LJ          -2.30699        0.756426       -0.921457
LJ          -1.52478       -0.885414        -2.20314
LJ         -0.208667          1.0671        -1.34263
LJ           2.26564        -1.89595         -1.3567
LJ           1.49553         1.38988        0.105454
LJ          -1.72102        0.119846         1.38107
LJ        -0.0713087         0.80864        -2.46488
LJ          0.836571        -2.44883        0.774134
LJ           2.32231        -1.62787         2.43206
LJ           1.09285       -0.636454         1.24415
LJ         -0.784077        0.454171        0.851005
LJ           2.32529         1.93964         1.58046
LJ           2.27919         0.69801         2.27212
LJ          0.483626       -0.296408        0.514031
LJ          -2.03675         -1.1843        -1.01625
LJ          -0.61832       -0.302911         2.47251
LJ          -1.08055        -1.41144        -1.48176
LJ         -0.529482        -0.49609       -0.647997
LJ          -2.04635        0.975166        -1.98589
LJ          0.651921        0.616488        -1.86456
LJ           1.22307         2.56014       -0.162712
LJ         -0.739781       -0.742159         1.43021
LJ          0.591828         1.33803       -0.568796
LJ         -0.970977       -0.376338        0.399151
LJ          -1.25898        0.640689       -0.873419
LJ          0.552654       -0.713732       -0.438281
LJ         -0.348998     -0.00144774        -1.60062
