108
#Comment!
LJ           2.55688         2.53312        -2.55141
LJ          -1.69685        -1.77555         2.52415
LJ           2.53471        -1.80728         -1.7402
LJ          -1.79841          2.5309        -1.70656
LJ         -0.941704         2.41562         2.50451
LJ        -0.0897271        -1.75049        -2.52144
LJ         -0.768936        -1.62529        -1.66036
LJ        -0.0589764        -2.50425        -1.57249
LJ          0.907241         -2.5462         2.48672
LJ           1.70059        -1.80842        -2.49953
LJ          0.899096        -1.59958        -1.59952
LJ           1.79371        -2.52154         -1.7054
LJ           2.38444       -0.825178         2.49129
LJ          -1.58605       0.0252386         2.44735
LJ           2.48366       -0.010428         -1.7219
LJ          -1.63678       -0.908658         -1.6594
LJ         -0.908379       -0.836663          2.5562
LJ          0.136841      -0.0528118         2.55699
LJ         -0.866261        0.147105        -1.61218
LJ        -0.0281148       -0.948973        -1.68422
LJ          0.795445       -0.992374        -2.53892
LJ           1.78452        0.093889         2.53588
LJ          0.747969        0.053207        -1.70951
LJ           1.65452       -0.885753        -1.60999
LJ            2.5626        0.847959         2.50946
LJ          -1.76051         1.73722        -2.54107
LJ          -2.46885         1.57004        -1.75224
LJ          -1.79717        0.822646        -1.74436
LJ         -0.829564        0.927759         2.36569
LJ          0.041412         1.62897         2.42937
LJ         -0.795409         1.74545        -1.70028
LJ         0.0249915         0.86443        -1.81116
LJ          0.817389        0.925777        -2.49293
LJ           1.73472         1.77425        -2.55809
LJ           1.01856         1.75988        -1.75994
LJ           1.63933         0.79868        -1.59119
LJ          -2.50979        -2.54649       -0.868407
LJ          -1.62164        -1.73331       -0.815469
LJ          -2.54768        -1.77895      -0.0502102
LJ          -1.66193         2.54288      -0.0237381
LJ         -0.802024         2.49776       -0.843685
LJ        -0.0395165        -1.60335       -0.883442
LJ         -0.851993        -1.69376       -0.063246
LJ        -0.0958698         2.43708      -0.0949216
LJ          0.910225         2.51039       -0.806352
LJ           1.65292        -1.71995       -0.779782
LJ          0.743476        -1.85828        0.071915
LJ           1.67184        -2.51642      -0.0252202
LJ          -2.55538       -0.894202       -0.755455
LJ          -1.84083        0.134632       -0.984076
LJ          -2.56061     -0.00512457       -0.055467
LJ          -1.76385       -0.912324      -0.0547038
LJ         -0.803024       -0.767775       -0.782788
LJ         0.0155386       -0.203514       -0.927776
LJ          -0.93634       -0.164788       0.0135604
LJ       -0.00739021        -0.72497       0.0911676
LJ          0.953298       -0.789919       -0.878264
LJ           1.68386      -0.0110886       -0.894286
LJ           0.87102       0.0259939      -0.0590916
LJ           1.67767       -0.924135       -0.153529
LJ           2.54101        0.913854        -0.86783
LJ          -1.72827         1.68333       -0.900924
LJ           2.51664         1.69143         0.01952
LJ          -1.68156        0.931303         0.11817
LJ         -0.820677        0.783402        -0.63599
LJ         -0.154273         1.74814       -0.988888
LJ         -0.975036         1.70475      -0.0512039
LJ        -0.0226265         0.90128        0.166329
LJ          0.799961        0.971051       -0.864696
LJ           1.78672         1.74851       -0.772868
LJ          0.706067         1.72728      -0.0907712
LJ           1.66671        0.761262       0.0606786
LJ          -2.54855        -2.50745        0.866606
LJ           -1.6299        -1.77736        0.969555
LJ           2.47027        -1.57377         1.71631
LJ          -1.79474          2.5484         1.69035
LJ         -0.884256         2.52907        0.773938
LJ         0.0638381        -1.77292        0.928498
LJ         -0.871493        -1.72409         1.83222
LJ         0.0710949        -2.50927         1.69698
LJ          0.987716         2.42104        0.877293
LJ           1.70129        -1.86446        0.839879
LJ          0.913663        -1.75186         1.56011
LJ           1.76495         2.55127         1.72595
LJ           2.50453       -0.796833        0.906918
LJ          -1.73224       0.0282773        0.891285
LJ          -2.49614      -0.0420188         1.84611
LJ          -1.74857       -0.922599         1.83762
LJ         -0.847378       -0.818505        0.759833
LJ          0.138977     -0.00299496        0.839463
LJ         -0.728221       0.0585221         1.70152
LJ        0.00588115       -0.915486         1.65854
LJ          0.812183       -0.850852        0.868539
LJ           1.66719       -0.158182        0.868958
LJ          0.827921      -0.0113996         1.72202
LJ           1.79976       -0.823431         1.65297
LJ           2.52006        0.827868        0.786393
LJ          -1.68866         1.64436        0.819116
LJ           2.53756         1.66419         1.79979
LJ          -1.59562        0.832365         1.76705
LJ         -0.878704        0.795247        0.820678
LJ          0.018079          1.5667        0.872605
LJ         -0.784836         1.75215         1.66151
LJ         0.0054918        0.726609          1.5887
LJ          0.901584        0.763953        0.691028
LJ           1.60484         1.61756        0.791026
LJ          0.866681         1.57613         1.68222
LJ            1.7073        0.974779         1.66548
