108
#Comment!
LJ          -2.52663        -2.32542         2.52453
LJ          -1.66968        -1.50778         2.47918
LJ          -2.35639        -1.50458        -1.81198
LJ          -1.65317         -2.5264        -1.68937
LJ         -0.753981         2.36355        -2.40315
LJ          -0.12649        -1.45455         2.53217
LJ         -0.959502        -1.43711        -1.92672
LJ         0.0900338         -2.4914         -1.9955
LJ            1.0135        -2.35259        -2.41262
LJ            1.7072        -1.54253         2.38885
LJ           1.19626        -1.68363        -1.71958
LJ           1.92269        -2.55562        -1.66255
LJ           2.46664       -0.740034        -2.43087
LJ          -1.82208      -0.0738702         2.33597
LJ           2.53144     -0.00637898        -1.69798
LJ           -1.5692       -0.559726        -1.65363
LJ         -0.776884       -0.649923        -2.52802
LJ          0.127304       -0.116072        -2.36552
LJ         -0.797828        0.112601        -1.73127
LJ          0.165113       -0.898994         -1.6078
LJ          0.754516        -1.01292        -2.52494
LJ           1.68117       0.0290954        -2.39064
LJ          0.929744        0.179012        -1.63848
LJ            1.5579       -0.633217        -1.52746
LJ          -2.49354        0.852481        -2.41236
LJ          -1.80502         2.03756         2.43719
LJ          -2.54199         1.71302        -1.56368
LJ          -1.54232        0.674462        -2.09392
LJ         -0.567447        0.833224         2.53786
LJ         0.0806564         1.75087         2.40652
LJ          -1.28528         1.71466        -1.67124
LJ        -0.0368943         1.07472        -1.63531
LJ          0.958546        0.933658        -2.55088
LJ           1.77118         1.87757         2.45335
LJ           0.92651         1.84816        -1.76263
LJ           1.70917         1.00412        -1.81255
LJ           2.54939        -2.52701       -0.751046
LJ          -1.37209        -1.69139       -0.927294
LJ          -2.27697        -1.58657      -0.0905937
LJ          -1.66445         2.38923        0.189296
LJ         -0.752561        -2.54535        -1.01499
LJ         0.0390407        -1.85801       -0.662973
LJ         -0.738357        -1.80502       0.0139961
LJ        -0.0367652         2.36602        0.200666
LJ          0.843692        -2.50819        -1.03865
LJ           1.87324        -1.59141       -0.870834
LJ           0.81041        -1.92288        0.204434
LJ           1.74001         -2.5647        0.117738
LJ          -2.37141       -0.742825        -0.78206
LJ          -1.85888        0.198545        -0.92937
LJ          -2.32115       0.0142268      -0.0162062
LJ          -1.52185        -0.68657      -0.0858489
LJ         -0.675202       -0.763009       -0.751436
LJ        -0.0285225      -0.0359622       -0.950902
LJ         -0.671642       -0.103549     0.000481981
LJ         0.0253655        -1.00049        0.180177
LJ          0.985502        -1.02583        -0.74247
LJ           1.91123       -0.258213       -0.667637
LJ          0.757361        0.104141       0.0719858
LJ           1.89428        -1.05577       0.0704794
LJ           2.36179        0.784353       -0.768612
LJ          -1.83227         1.73893       -0.651725
LJ           2.47896         1.74258      -0.0222567
LJ          -1.75267        0.976862         0.18644
LJ          -1.00027        0.787826       -0.975442
LJ        -0.0148831         1.73472       -0.794812
LJ          -0.72438         1.66425       -0.114004
LJ         0.0806198        0.879963       -0.114852
LJ          0.834962          1.0582       -0.966073
LJ           1.65283         1.69945       -0.789593
LJ          0.880201          1.7884      -0.0897481
LJ           1.69261        0.830259        0.117319
LJ           2.49524         2.47628        0.697841
LJ          -1.44335        -1.82667        0.827933
LJ           2.51443        -1.54073         1.61007
LJ           -1.8358        -2.37271         1.66331
LJ         -0.912477         2.46772        0.992671
LJ         -0.046317        -1.50809         1.05236
LJ         -0.869236        -1.63571         1.78126
LJ        -0.0191069        -2.27153         1.76171
LJ           0.75519          2.3958        0.870117
LJ           1.66769        -1.63225        0.983049
LJ          0.765165        -1.61041         1.64439
LJ           1.69119        -2.50488         1.58485
LJ          -2.40708       -0.854063         0.80464
LJ          -1.72671          0.1667        0.814913
LJ           2.35742       0.0465895         1.67036
LJ          -1.65727       -0.832612         1.57865
LJ         -0.858736       -0.872348        0.977594
LJ          0.143595       -0.105651        0.848374
LJ         -0.914929      -0.0268239         1.74162
LJ           0.07354       -0.738959         1.76447
LJ           1.02318       -0.910448        0.538391
LJ           1.75678       -0.256535        0.831093
LJ          0.882406      0.00907935          1.7294
LJ           1.55067       -0.690967         1.71829
LJ           2.30601        0.947929         1.08185
LJ          -1.84148         1.66767        0.915336
LJ           2.44612         1.88954         1.58533
LJ          -1.73579        0.834866         1.69899
LJ         -0.931147        0.955046        0.854203
LJ          0.375726         1.37455        0.775531
LJ         -0.621815         1.52147         1.67719
LJ         0.0867505        0.774742         1.63006
LJ           1.02614        0.713009        0.991532
LJ           1.61065         1.77779        0.726503
LJ          0.924735         1.81599         1.65924
LJ           1.81741         1.01061         1.95845
