108
#Comment!
LJ          -2.48203        -2.25629        -2.54407
LJ          -1.67428        -1.51935        -2.55498
LJ          -2.44748        -1.54517        -1.72718
LJ          -1.71484        -2.42829        -1.77379
LJ         -0.821503         2.37674        -2.50042
LJ        -0.0807633        -1.53363         2.50706
LJ         -0.800971        -1.40811         -1.9143
LJ          0.117459           2.556         -1.8125
LJ            1.0904        -2.53722         2.55386
LJ           1.59088        -1.52549         2.43427
LJ           1.05685        -1.70603         -1.7499
LJ           1.93167         2.54549        -1.62886
LJ           2.54699        -0.77813         -2.4411
LJ          -1.94847      -0.0558792         2.30348
LJ           2.52769       0.0742529        -1.60689
LJ          -1.62215       -0.571614        -1.62133
LJ         -0.796201       -0.718877         2.49803
LJ          0.105069      -0.0296149        -2.35236
LJ         -0.754374       0.0765262        -1.74379
LJ          0.106267       -0.882751         -1.5196
LJ          0.734513        -1.00223        -2.51776
LJ           1.72278       0.0912758        -2.42998
LJ           0.86995        0.235513        -1.60606
LJ           1.40188       -0.692992        -1.52369
LJ           2.54523        0.887283        -2.33079
LJ          -1.75611         1.89335         2.40741
LJ          -2.42041         1.72817        -1.52148
LJ          -1.51077        0.634955        -1.98977
LJ         -0.477554         0.86043         2.52783
LJ         0.0877573         1.88097         2.48309
LJ          -1.18638         1.62862        -1.72077
LJ           -0.2011         1.06518        -1.67191
LJ          0.998334        0.990685        -2.46242
LJ           1.78989         1.95462        -2.52884
LJ          0.939765         1.83887        -1.78562
LJ           1.73891         1.23837        -1.82154
LJ           2.54411         -2.3702       -0.638112
LJ          -1.40835        -1.59413       -0.887057
LJ          -2.30145        -1.63223       0.0751536
LJ          -1.73753          2.4671        0.352186
LJ         -0.687116         2.55184        -1.02024
LJ         0.0905592        -1.85537       -0.711198
LJ         -0.810032        -1.83859       0.0642006
LJ         0.0185278         2.43194       0.0938753
LJ           1.00722        -2.47094       -0.919628
LJ           1.93071        -1.51184       -0.887336
LJ          0.704947        -1.92652        0.258685
LJ           1.66192        -2.50074       0.0374161
LJ          -2.24686       -0.831971        -0.73558
LJ            -1.841        0.262567       -0.914984
LJ          -2.44387      0.00741121       -0.011009
LJ          -1.55953       -0.629411       -0.134524
LJ         -0.730981       -0.785203       -0.843026
LJ       -0.00494227       0.0336982        -0.81266
LJ         -0.661035      -0.0518097       0.0371984
LJ         -0.033799        -1.08336       0.0787771
LJ          0.913018         -1.1176       -0.671248
LJ           1.93192       -0.309123       -0.569468
LJ          0.857938       0.0632826       0.0298611
LJ           1.91694        -1.06409        0.178009
LJ           2.30568        0.810437       -0.703044
LJ          -1.78066          1.6447       -0.645399
LJ           2.35792         1.60977       0.0255059
LJ          -1.81096         1.03288        0.105451
LJ         -0.875984        0.856917       -0.888388
LJ         0.0338374         1.82941       -0.904429
LJ         -0.822655         1.69315       -0.126299
LJ          0.169511         0.94105        -0.14985
LJ          0.849174        0.953295       -0.960345
LJ           1.72829         1.76617       -0.828324
LJ          0.865831         1.84914       -0.135878
LJ           1.67007        0.648565       0.0949905
LJ           2.44094         2.45418        0.734691
LJ          -1.50956        -1.80352        0.883561
LJ           2.41239        -1.43997         1.64896
LJ          -1.92489        -2.39983          1.6506
LJ         -0.705841         2.44408        0.973325
LJ         -0.134797        -1.60542         1.07667
LJ         -0.864148        -1.65811         1.80186
LJ       -0.00411168        -2.32064         1.76554
LJ          0.845026         2.50178        0.903812
LJ            1.5597        -1.66459         1.00194
LJ          0.794592        -1.54748         1.68245
LJ           1.58431         2.53638         1.58214
LJ          -2.33502        -0.75538        0.923085
LJ          -1.81368        0.191701        0.807523
LJ           2.33276        0.104162         1.67718
LJ          -1.60833       -0.833474          1.6298
LJ         -0.915562       -0.892785        0.878354
LJ          0.135444      -0.0618944         0.88023
LJ          -1.01008     -0.00275181         1.58422
LJ         0.0565344       -0.650138         1.80106
LJ          0.959793       -0.920076        0.504429
LJ           1.69398       -0.195968        0.864537
LJ          0.974428      -0.0447972         1.71974
LJ           1.56323       -0.811052         1.69654
LJ            2.3915         0.94855         1.02728
LJ          -1.92837         1.67902         0.93265
LJ           2.43028         1.94634          1.6643
LJ          -1.66997        0.824073         1.64298
LJ         -0.943971        0.864298        0.935183
LJ          0.289949         1.46979        0.744209
LJ         -0.741345         1.47649         1.70538
LJ            0.1484        0.708443         1.60117
LJ           1.13156        0.669513         1.10222
LJ           1.55161         1.78513        0.817139
LJ          0.806952         1.77177         1.59817
LJ           1.76688        0.885431         1.90156
