108
#Comment!
LJ           2.47781        -2.48108         2.55435
LJ          -1.75169        -1.70413          2.4353
LJ           2.51599        -1.75957        -1.77474
LJ          -1.75605         2.55802        -1.56582
LJ         -0.871763         2.48816        -2.52927
LJ         0.0263833        -2.05573        -2.46062
LJ           -1.2029        -1.47852         -1.7249
LJ         -0.030192         2.21454        -1.81065
LJ          0.871468         2.50844         2.46267
LJ           1.81092        -1.71262         -2.5437
LJ          0.876943        -1.84928        -1.77031
LJ           1.89518         2.53298        -1.70101
LJ           2.51501       -0.903733        -2.54877
LJ          -1.83766       0.0467275         2.52448
LJ           2.50216        0.132228        -1.97807
LJ          -1.79349       -0.566751        -1.65946
LJ           -1.2022       -0.796286        -2.42816
LJ        0.00202811        -0.24504        -2.48597
LJ         -0.703356     -0.00119514        -1.79873
LJ         -0.155962         -1.1395        -1.86212
LJ          0.918989        -1.16015        -2.52358
LJ           1.74057       0.0307688         2.50033
LJ          0.944355       0.0717805        -1.80671
LJ           1.69396        -0.62706        -1.73189
LJ          -2.51036        0.930184         2.46005
LJ          -1.72631         1.98267         2.47877
LJ          -2.46424         1.64865        -1.61093
LJ           -1.5866        0.776402        -1.78899
LJ         -0.602481         1.06798         2.49297
LJ          0.199551         1.73304         2.43653
LJ         -0.968072         1.63086        -1.76765
LJ         0.0911651         1.03354        -1.79159
LJ          0.883256        0.849953         2.47952
LJ           1.86108         1.84177         2.51582
LJ           0.89724         1.82044        -1.63307
LJ            1.5872         0.96746        -1.64686
LJ           2.47749         2.36088       -0.746117
LJ          -1.47924        -1.69353       -0.759705
LJ          -2.43891         -1.9088      -0.0890841
LJ          -1.67262         2.54177      -0.0161198
LJ         -0.825195        -2.55029        -1.04452
LJ          0.227019        -1.73199       -0.923061
LJ         -0.600651        -1.85513       0.0437601
LJ         -0.174771         2.37976         0.10033
LJ           0.84646        -2.44583       -0.922424
LJ           1.84756        -1.73476       -0.937259
LJ           0.79176        -2.01254        0.231674
LJ            1.7048         -2.4525      0.00900521
LJ           2.55393       -0.937733       -0.689104
LJ          -1.87925        0.180917       -0.807371
LJ          -2.50458       0.0872687         0.04672
LJ          -1.75982       -0.975132        0.029934
LJ         -0.572156       -0.877294       -0.684463
LJ         -0.107997         0.33857       -0.960406
LJ         -0.695993      -0.0206639       -0.017661
LJ         0.0615969       -0.802685        0.260846
LJ          0.793208       -0.985648       -0.571224
LJ           1.98993       -0.161142       -0.790467
LJ          0.733134      -0.0346502      -0.0131744
LJ           1.71707        -1.08078       -0.141787
LJ          -2.53513        0.962103       -0.881621
LJ          -1.55417         1.83799       -0.821381
LJ           2.37793         1.69368       0.0143314
LJ          -1.93727         1.10178        0.167967
LJ          -1.03906        0.732252       -0.967687
LJ          0.174277         1.86341       -0.894091
LJ           -0.7644         1.59809      -0.0920064
LJ          0.072844        0.902549       -0.107857
LJ          0.747062         1.00552       -0.802596
LJ           1.62569          1.7198        -0.85379
LJ          0.755227          2.0409       -0.027042
LJ           1.74043        0.850045       -0.133351
LJ           2.37165         2.29682        0.813047
LJ           -1.4058        -1.85523        0.679259
LJ          -2.56159        -1.56523         1.70105
LJ          -1.99802        -2.40229         1.50983
LJ         -0.592712         2.53061         1.12313
LJ          0.086061        -1.61496         0.94266
LJ         -0.938828        -1.88888         1.75438
LJ         0.0694111        -2.32059         1.73052
LJ          0.809628         2.32357        0.945857
LJ           2.00362         -1.6172        0.686465
LJ          0.981975        -1.78901           1.732
LJ           1.66984         2.56317         1.69462
LJ           2.47618       -0.672781        0.937239
LJ          -1.76672       0.0747991        0.869933
LJ           2.50121      0.00977722         1.74324
LJ          -1.91636       -0.755705         1.75408
LJ         -0.734031       -0.900903         1.04366
LJ         0.0370756       -0.131485         1.02476
LJ         -0.930326        0.226981         1.90529
LJ          0.235796       -0.982568         1.80523
LJ            1.1129        -1.01022        0.682166
LJ           1.60616       -0.134182        0.754056
LJ          0.833739      -0.0462458         1.92825
LJ            1.5866       -0.830175         1.83519
LJ           2.36383        0.867058        0.851427
LJ          -1.43059         1.94566        0.850146
LJ            2.4259         1.61275         1.56752
LJ          -1.82312        0.981746         1.61057
LJ         -0.917431        0.673019        0.867996
LJ           0.18524         1.48628         0.67906
LJ         -0.791491         1.60872         1.63406
LJ         0.0398394        0.805943         1.55817
LJ            1.0756        0.786518        0.922842
LJ           1.55688          1.6775        0.570942
LJ          0.806643         1.57128         1.68831
LJ           1.76325        0.773011         1.81562
