108
#Comment!
LJ          0.699267        0.272209        -1.55944
LJ            1.6965      -0.0805813        -1.92581
LJ          -1.94098         1.12583          1.3015
LJ          -1.36471         2.43265        -2.06992
LJ           1.72759         2.49437        -1.46987
LJ           2.26574         1.56618        -1.37888
LJ           1.24173       -0.357542          1.2626
LJ           1.77546       -0.430166        0.380792
LJ          0.709997        0.629512       -0.617822
LJ          0.138024         2.34591        0.400504
LJ           2.34465        -1.24983      -0.0462517
LJ           2.01505         1.73144         1.85057
LJ             1.332        -1.38725        0.619988
LJ         -0.865864        -1.75141        -2.05897
LJ         -0.916868         2.31415        0.855664
LJ           1.02158        -2.42755       -0.448898
LJ         -0.586158        -2.00786      -0.0686309
LJ          0.226192         1.26127        0.490913
LJ          -1.73417         1.39232        0.245528
LJ          -2.38487         0.22481        0.245672
LJ          -1.68178         1.70883         2.24301
LJ         -0.727076         1.27281        0.640338
LJ           1.45622        -1.32255       -0.545372
LJ         -0.925204          2.0566       -0.250012
LJ         -0.592996       -0.607352      -0.0882145
LJ           1.16062        -1.26199         2.40541
LJ            2.2018        -2.30533        0.964391
LJ         -0.527367         -1.3829         2.00678
LJ           1.49779        0.485149         0.35775
LJ          -2.26101        -2.16033        -1.26738
LJ           2.08443       -0.424573         2.21382
LJ           1.47762        0.896291        -2.05417
LJ          0.644604         2.04707        -1.56714
LJ           -1.7087        -1.81143        -2.53406
LJ          0.803101        -2.03294        -1.54723
LJ          0.127032        -2.04581         1.47111
LJ           2.49668        -1.91021         2.11042
LJ         -0.114588        -2.43101        -1.93436
LJ           1.11724         2.30582         1.64701
LJ           1.06825        -2.48963        0.585983
LJ          0.733706          1.7272       -0.308598
LJ          0.449396       -0.341215       -0.654947
LJ          0.661783        0.589959         1.25351
LJ           2.35786         0.78828         2.50714
LJ           2.22906        0.493135         1.10623
LJ           -2.0891       -0.107062        -1.75461
LJ            2.0254        -2.16157        -0.48925
LJ         0.0960911         1.77651        -2.38498
LJ          0.473517        0.275502        0.325008
LJ          -1.28013        -2.26114         1.70591
LJ         -0.389159       -0.309999        -1.15436
LJ          -1.86407         1.15477        -1.77331
LJ          0.497021        -1.47465       -0.711107
LJ         -0.831628        -1.70705         1.00386
LJ           2.12525         1.02517       -0.349173
LJ         -0.685419         1.11661        -2.49781
LJ           1.48562        0.413315         1.90017
LJ          -1.14429        -2.37293         -1.0266
LJ           -1.3613       -0.621442       -0.843008
LJ          0.399039        -1.02744         1.59015
LJ           1.08883       -0.775215        -1.42375
LJ          -1.55328        0.380339        -2.48131
LJ          -1.31569        0.417036        -1.35573
LJ           2.43131         1.51851         0.75857
LJ           1.22322         1.51071         1.09703
LJ          -1.84925       -0.835658       0.0401565
LJ          0.859942       -0.311071         2.19177
LJ          -2.08611        0.623876       -0.728093
LJ          0.381878        0.516317        -2.44269
LJ          -1.49752       -0.733854         2.53473
LJ           -1.5458      -0.0106435         1.71215
LJ          -2.22369        -1.49976        0.827048
LJ           2.37549        -1.28989        -1.01078
LJ         -0.526783        0.240779        0.560763
LJ          -2.53989       -0.495949         1.07422
LJ         0.0945022        -1.17867        -1.81013
LJ           0.52766       -0.609172        0.590898
LJ           1.57338         1.94547        -2.34912
LJ           2.13207        0.493399        -1.22872
LJ          -1.02319          1.5962        -1.35434
LJ           1.88679        -1.19598         1.44325
LJ           2.37014       -0.360204       -0.514086
LJ           1.68544        -1.65722         -1.7864
LJ         0.0605756         1.72309         1.69508
LJ          -1.21761        0.399024        -0.25034
LJ         -0.676806         2.36994         2.37132
LJ         -0.321979         1.00126        -0.45281
LJ          -1.64311        -1.30544         1.67399
LJ          0.936188         1.27643         2.25692
LJ         -0.108965         2.26947       -0.892759
LJ          -1.91253          1.9291       -0.707029
LJ         -0.594344         -1.4273       -0.939098
LJ          -2.18425          2.4042          1.4726
LJ            1.3618       -0.168479       -0.561382
LJ          0.356617        -1.63249        0.441984
LJ         -0.718989         0.99668         1.63898
LJ         -0.301316        0.704789        -1.62165
LJ          0.549942           -2.04         2.41778
LJ          -0.22543       -0.263823        -2.43241
LJ          -2.53108        -1.16243        -2.28323
LJ           1.13746        -1.82322         1.48671
LJ          -1.76498        -1.92992       -0.302994
LJ          -1.47901        0.269981        0.774649
LJ          -1.66469        -1.42927        -1.37997
LJ            -2.423         2.37416        -2.15974
LJ          -1.34019       -0.685643        0.934674
LJ           1.81316         2.04549       -0.190464
LJ          -0.18367       -0.123653         1.50001
