108
#Comment!
LJ          -2.55197        -2.26334         2.52425
LJ          -1.66024        -1.43892         2.48683
LJ          -2.33678        -1.54179        -1.80641
LJ          -1.72521        -2.48952        -1.71471
LJ           -0.7833         2.40048        -2.41128
LJ         -0.145622        -1.42938         2.47536
LJ         -0.902266        -1.43698        -1.93731
LJ         0.0903393        -2.51682        -1.93695
LJ          0.968952        -2.38216        -2.43786
LJ           1.66394        -1.57577         2.40349
LJ            1.1445        -1.69166        -1.73545
LJ           1.88032        -2.53203        -1.65266
LJ           2.49156       -0.704921        -2.42037
LJ          -1.86682      -0.0794872         2.32859
LJ           2.53582     -0.00363658        -1.62982
LJ          -1.61774        -0.48677        -1.68595
LJ         -0.794667       -0.625157        -2.51717
LJ          0.252462      -0.0417175        -2.25291
LJ         -0.751435       0.0592877        -1.72944
LJ          0.146492       -0.912602        -1.54308
LJ          0.766616        -1.01252        -2.49418
LJ           1.68596       0.0379842        -2.41677
LJ          0.871281        0.275933        -1.60909
LJ           1.51025       -0.631586        -1.59726
LJ          -2.51738        0.882153        -2.42857
LJ          -1.78838         2.01579         2.41852
LJ          -2.54841         1.74384        -1.54096
LJ          -1.60517        0.638058        -2.13608
LJ         -0.540901        0.844485         2.50828
LJ         0.0806466         1.79318         2.45642
LJ          -1.26049         1.71085        -1.62156
LJ        -0.0512499         1.03488        -1.60513
LJ          0.973272        0.965233        -2.53667
LJ           1.69662         1.88753         2.53591
LJ          0.931931         1.83705        -1.79849
LJ           1.71072         1.02431         -1.8132
LJ           2.53916          2.5499       -0.721527
LJ          -1.39965        -1.66745       -0.837871
LJ          -2.24778        -1.59808      -0.0673305
LJ          -1.69861          2.4273        0.226238
LJ         -0.713905        -2.52681        -1.05366
LJ         0.0390197        -1.91055       -0.628683
LJ         -0.703661        -1.79861      -0.0277146
LJ        -0.0408598         2.32128        0.161783
LJ          0.957488        -2.50718        -1.00648
LJ           1.84611        -1.56007       -0.930203
LJ          0.772891        -1.98299        0.205286
LJ           1.73555        -2.54504        0.095406
LJ          -2.35096       -0.755513       -0.825582
LJ          -1.89679        0.230655       -0.962076
LJ          -2.37527      -0.0333055    -0.000399129
LJ           -1.5482       -0.648484       -0.144846
LJ         -0.710119       -0.695469       -0.778343
LJ         0.0459723      -0.0743645       -0.953376
LJ          -0.69727       -0.156771      -0.0195562
LJ         0.0378721        -1.06455        0.147308
LJ          0.936049        -1.08341       -0.636295
LJ           1.87418       -0.235188       -0.640268
LJ          0.735945       0.0812961    -0.000348444
LJ             1.889        -1.02582       0.0963235
LJ           2.38568        0.822871       -0.783585
LJ          -1.78562         1.66542       -0.679378
LJ           2.41461         1.68077       0.0045632
LJ          -1.78054        0.953701        0.131375
LJ         -0.944435        0.772718        -1.02114
LJ         0.0137137         1.76649       -0.852312
LJ         -0.727408         1.65663       -0.108499
LJ         0.0781137        0.908779       -0.120416
LJ          0.867172         1.05904       -0.989073
LJ            1.6607         1.74936       -0.801317
LJ           0.86112         1.81431       -0.116586
LJ           1.72279         0.82043        0.126235
LJ           2.47162          2.4469        0.732017
LJ          -1.43424         -1.8457        0.845437
LJ           2.50015        -1.53694         1.64444
LJ          -1.90173        -2.39402         1.66105
LJ         -0.818504         2.45284        0.937432
LJ        -0.0673985        -1.54569         1.09299
LJ         -0.914402        -1.61347         1.74442
LJ         0.0204208        -2.29711         1.76702
LJ          0.780508         2.47079        0.874923
LJ           1.63446         -1.6448         1.00606
LJ          0.792742        -1.55335         1.67282
LJ           1.71211        -2.49002          1.5799
LJ          -2.42431       -0.825295        0.792813
LJ          -1.80326        0.188175        0.771817
LJ           2.37213     -0.00218915          1.6652
LJ          -1.67237       -0.830266         1.65111
LJ         -0.852955        -0.89472        0.915545
LJ          0.161441      -0.0350541         0.86404
LJ         -0.917972      -0.0687059         1.74559
LJ        0.00845463       -0.735587         1.73389
LJ          0.989706        -0.91881        0.478274
LJ           1.75927       -0.215584        0.823321
LJ          0.936041       0.0207981          1.7376
LJ           1.56133       -0.760307         1.71693
LJ           2.33453        0.903782         1.07389
LJ          -1.89276         1.63089        0.896865
LJ           2.46348         1.88891         1.58975
LJ          -1.70446        0.869836         1.63776
LJ         -0.924464        0.934741        0.845829
LJ          0.367015         1.44123        0.794542
LJ         -0.697172         1.48415         1.66519
LJ          0.103446        0.647418         1.65706
LJ            1.0502        0.749925         1.04531
LJ           1.59577         1.74973        0.748161
LJ          0.929123          1.8341         1.63141
LJ            1.8728        0.988951         2.02125
