108
#Comment!
LJ          -2.54119        -2.30858         2.31819
LJ          -1.77047        -1.57884         2.48266
LJ          -2.26338        -1.56018        -1.63046
LJ          -1.78054        -2.54155        -1.59639
LJ         -0.665768         2.38379         2.53784
LJ         0.0700251        -1.81914        -2.46693
LJ          -1.16828        -1.51977        -1.76382
LJ        -0.0401041          2.1861        -1.88347
LJ          0.801943         -2.5141         2.52321
LJ           1.80582        -1.59455         2.41513
LJ          0.837502        -1.92555        -1.67865
LJ           1.95739         2.38044        -1.81865
LJ           2.50725       -0.879809         2.45064
LJ           -1.7475       0.0761523         2.53289
LJ           2.40821        0.134952        -1.77851
LJ          -1.85868       -0.529557        -1.65868
LJ          -1.04055       -0.785529        -2.39629
LJ        -0.0252361       -0.279604        -2.40524
LJ          -1.05095       0.0477778        -1.74819
LJ        -0.0459109        -1.11616        -1.73389
LJ           0.79034         -1.0493        -2.55809
LJ            1.6754       0.0311766         2.54383
LJ          0.950758        0.100357        -1.75681
LJ           1.62986       -0.749287        -1.71994
LJ          -2.47786        0.843807         -2.5068
LJ          -1.69754         1.89623         2.36851
LJ          -2.44506         1.60125        -1.59963
LJ          -1.74447        0.883355        -1.78721
LJ         -0.499238         1.00458        -2.51107
LJ          0.141703          1.6851         2.39997
LJ          -1.08087         1.66451        -1.79999
LJ          0.166963         1.04432        -1.79273
LJ          0.841849        0.923501        -2.54551
LJ           1.74416         1.77844         2.37748
LJ          0.942632         1.89524        -1.89865
LJ           1.73436         1.12787        -1.70198
LJ           2.52342         2.37171       -0.752813
LJ          -1.54131        -1.69337       -0.758319
LJ          -2.36688        -1.77008        -0.07071
LJ          -1.70253         2.39078       0.0456651
LJ         -0.681231        -2.52858        -1.08614
LJ         0.0987768        -1.62673       -0.796469
LJ         -0.761018        -2.04707       -0.203577
LJ         -0.163263         2.32508        0.145858
LJ          0.891014        -2.51001       -0.941771
LJ            1.8958        -1.71207        -1.07157
LJ          0.809543        -1.86621        0.344832
LJ           1.68431        -2.50815       -0.145792
LJ          -2.39022       -0.974036       -0.769895
LJ          -1.88427       0.0435575       -0.696528
LJ          -2.50352        0.182023        0.111008
LJ          -1.68052       -0.678637        0.135133
LJ          -0.71583       -0.863495        -0.78417
LJ         -0.157959        0.122208        -1.06333
LJ         -0.655142       0.0798724       -0.114367
LJ        -0.0389847       -0.652016       0.0902406
LJ           1.04494        -1.11667       -0.820636
LJ           1.87065       -0.250487       -0.526672
LJ          0.816384       0.0566491        0.108042
LJ           1.98397        -1.05683      -0.0689115
LJ           2.49589        0.906717       -0.773521
LJ          -1.56197         1.78043       -0.848127
LJ           2.39656         1.66678      -0.0585328
LJ          -1.82891          1.0414        0.297434
LJ          -1.03842        0.738787       -0.935774
LJ          0.149285         1.68889       -0.873404
LJ           -0.7953         1.59124       -0.201993
LJ        -0.0427167        0.894982       -0.154753
LJ          0.962195        0.845744       -0.769351
LJ           1.61975         1.72384       -0.720516
LJ          0.794735         1.91019      -0.0917293
LJ           1.77159         0.75554      -0.0895658
LJ           2.40614         2.34594        0.650695
LJ          -1.28685        -1.81271        0.821574
LJ           2.53391        -1.41818         1.50517
LJ          -1.91412        -2.34457         1.43836
LJ         -0.771442         2.53121        0.923869
LJ         0.0873475        -1.46442        0.935959
LJ         -0.868563        -1.89685         1.90466
LJ         0.0576644        -2.39099         1.75022
LJ          0.681386          2.4179         1.04838
LJ            1.7452        -1.66509        0.950617
LJ          0.921989        -1.73831         1.74765
LJ           1.71759        -2.53369         1.69508
LJ          -2.45227       -0.686635        0.735189
LJ          -1.54017       0.0215347        0.827104
LJ           2.46017       0.0960038         1.68251
LJ          -1.75289       -0.723889         1.73165
LJ         -0.840801        -1.01373         1.03515
LJ          0.171577       -0.281075         1.01461
LJ         -0.921642        0.203058         1.95166
LJ          0.162264       -0.962223         1.83364
LJ          0.956821        -0.85687        0.822933
LJ           1.73698       -0.141173         0.68337
LJ          0.600577      -0.0113498         2.00522
LJ           1.47537       -0.785076         1.75047
LJ           2.28052        0.856691        0.852542
LJ          -1.64823         1.90132         1.02007
LJ           2.43153         1.70025         1.55225
LJ          -1.84821        0.835628         1.50954
LJ         -0.804527        0.799421        0.639987
LJ          0.265117         1.42124        0.826689
LJ         -0.907296         1.38755         1.59376
LJ         0.0152107        0.906522         1.69415
LJ           1.18053        0.683383        0.980742
LJ            1.5095          1.7693        0.585643
LJ           1.00952         1.53994         1.63281
LJ            1.7223        0.888056         1.86209
