108
#Comment!
LJ           -2.4484        -2.42298         2.55488
LJ           -1.7812        -1.48068         2.47502
LJ          -2.26025        -1.54099         -1.7817
LJ          -1.61156        -2.38044        -1.85194
LJ         -0.818741         2.27312        -2.39863
LJ          -0.13598         -1.5691         2.41837
LJ          -0.89624        -1.50613        -1.95828
LJ         0.0402674         2.50059        -1.91736
LJ           1.04316        -2.40998        -2.44877
LJ           1.69897        -1.61995         2.43431
LJ           1.20054        -1.69673        -1.65344
LJ            1.9113         2.47207        -1.52358
LJ           2.37865       -0.596606        -2.54685
LJ          -1.85076      -0.0248454         2.30742
LJ          -2.46303      -0.0458388         -1.7561
LJ          -1.53878       -0.622648        -1.70843
LJ         -0.950898       -0.689194        -2.53551
LJ         0.0670595       -0.178957        -2.47146
LJ           -0.8371        0.126728        -1.71569
LJ          0.177097       -0.891862        -1.62648
LJ          0.780335       -0.933439        -2.50602
LJ            1.6141      -0.0208811        -2.44465
LJ          0.763945        0.157213        -1.67265
LJ           1.56745       -0.640465        -1.53127
LJ          -2.52472        0.880916        -2.37802
LJ          -1.78429         1.96527         2.42287
LJ          -2.50452         1.69303        -1.53881
LJ          -1.60546        0.774621        -2.08666
LJ         -0.524414        0.710828         2.53902
LJ          0.116971         1.73369         2.34427
LJ          -1.30551         1.78342        -1.71153
LJ         0.0211658         1.04642        -1.73258
LJ           1.08862         1.01918        -2.44986
LJ           1.70728         1.87532         2.47458
LJ           0.98103         1.89088        -1.88491
LJ           1.78796        0.838106        -1.78186
LJ            2.5544        -2.54574       -0.720151
LJ          -1.43914        -1.70073       -0.907988
LJ           -2.3015        -1.63783       -0.139691
LJ           -1.6372          2.4023       0.0996198
LJ         -0.636681        -2.47609        -1.01358
LJ        0.00701626        -1.79182       -0.645213
LJ         -0.750675         -1.7759      -0.0280792
LJ         0.0548375         2.36998        0.136975
LJ          0.748297         2.49141       -0.862884
LJ           1.96335        -1.62457       -0.935011
LJ          0.802113        -1.88908        0.174924
LJ           1.67641        -2.44516       0.0264935
LJ          -2.37655       -0.824642       -0.862642
LJ          -1.79535       0.0834426        -0.97233
LJ          -2.35969       0.0628967      -0.0293301
LJ          -1.61795       -0.718013      -0.0280838
LJ         -0.764689       -0.771507       -0.689332
LJ        -0.0686127        0.146858       -0.991551
LJ         -0.622483      -0.0466873       0.0798839
LJ        -0.0335846       -0.883428        0.120849
LJ           1.01396        -1.09855          -0.773
LJ           1.84821       -0.212504       -0.606841
LJ          0.791765       0.0644646        0.151708
LJ           1.97294         -1.0471       0.0315194
LJ           2.44268        0.796497       -0.770042
LJ           -1.8372         1.68305       -0.735283
LJ           2.53235         1.65434      -0.0532248
LJ          -1.83858        0.916405        0.110567
LJ          -1.06404         0.83686       -0.966953
LJ         0.0659391          1.7359       -0.818372
LJ         -0.770992         1.64229       -0.129812
LJ         0.0810057        0.864003       -0.150218
LJ          0.882641        0.908123       -0.927744
LJ           1.61701         1.74946       -0.868784
LJ          0.888336         1.71588       -0.102244
LJ           1.59337        0.812387        0.131435
LJ            2.5014          2.4696        0.696252
LJ          -1.48318        -1.83871        0.784991
LJ           2.54783        -1.45983          1.5748
LJ          -1.96836        -2.41417         1.67113
LJ         -0.927277         2.42566         1.01786
LJ         0.0275616        -1.48329         1.12271
LJ          -1.02551        -1.66174         1.78858
LJ         0.0235945        -2.28225         1.75099
LJ          0.729684         2.35682         0.88203
LJ           1.66091        -1.53587         1.07419
LJ          0.828599        -1.72395         1.79556
LJ           1.73073        -2.55433         1.45368
LJ          -2.39809       -0.776165        0.704744
LJ          -1.60335       0.0717409        0.824785
LJ           2.38553      -0.0277885         1.65172
LJ          -1.68646       -0.880699         1.59655
LJ         -0.867286       -0.862893         1.01945
LJ          0.160867       -0.155805        0.892089
LJ         -0.931241       0.0543886         1.83214
LJ           0.21356       -0.770108          1.7678
LJ          0.951318       -0.885213        0.571959
LJ           1.76277       -0.357722         0.79968
LJ          0.852139       0.0919538         1.71668
LJ           1.53236       -0.811516         1.76673
LJ           2.36906        0.981933          1.0399
LJ           -1.8415         1.64934        0.936924
LJ           2.44222         1.86903         1.57494
LJ          -1.74855        0.877307         1.68182
LJ         -0.859085        0.960326        0.795534
LJ          0.357271         1.37992        0.807035
LJ         -0.692926         1.38452          1.7599
LJ         0.0638913        0.829978         1.66796
LJ           1.16184         0.63302         1.06694
LJ           1.56923          1.7337        0.687737
LJ          0.991772         1.68785         1.71171
LJ           1.81353         1.07827         1.95049
