108
#Comment!
LJ          -2.55677        -2.51093         2.44769
LJ          -1.72663        -1.65867         2.49602
LJ          -2.40701        -1.56878        -1.80633
LJ          -1.71506         2.54293        -1.59908
LJ         -0.817151         2.55089        -2.47157
LJ        -0.0341594        -1.96365        -2.47742
LJ           -1.1403        -1.50085        -1.81139
LJ        -0.0699097         2.21035        -1.83031
LJ          0.823534        -2.55882         2.38942
LJ           1.77963        -1.71723        -2.53454
LJ          0.687482        -1.86907        -1.74886
LJ             1.985         2.45477        -1.70637
LJ           2.45894       -0.831328         2.53793
LJ          -1.76374       0.0438751        -2.56266
LJ            2.4692        0.125495        -1.87502
LJ          -1.70749       -0.570956        -1.58043
LJ          -1.09846       -0.754519        -2.46117
LJ         -0.131769       -0.206822        -2.51033
LJ         -0.842204       0.0449981        -1.85991
LJ         -0.100719        -1.16079        -1.90485
LJ          0.888426         -1.1112        -2.54691
LJ           1.66394       -0.063961         2.47167
LJ          0.951395       0.0494252        -1.84141
LJ           1.68638       -0.661169        -1.76416
LJ            2.5348        0.895191          2.5438
LJ          -1.70917         1.90406         2.49555
LJ          -2.34695         1.61618        -1.62838
LJ          -1.60847        0.755353        -1.85854
LJ         -0.581285        0.956901         2.49937
LJ          0.125211         1.76728         2.32971
LJ          -1.03978         1.70994        -1.74089
LJ          0.131926         1.14233        -1.79973
LJ          0.841917        0.904681         2.46689
LJ           1.81682         1.83973         2.40635
LJ          0.953502         1.96741        -1.90188
LJ           1.59491         1.00562        -1.68761
LJ           2.44779         2.46637       -0.692417
LJ          -1.39994        -1.73698       -0.810745
LJ          -2.34358        -1.90855       -0.149294
LJ          -1.76135         2.40252       -0.068967
LJ         -0.801973        -2.53609        -1.06967
LJ          0.154096        -1.66922       -0.821801
LJ         -0.644239        -1.95256       -0.177863
LJ         -0.139439          2.2965      0.00123677
LJ          0.796262        -2.49461       -0.960007
LJ           1.89657        -1.80914        -1.05696
LJ          0.709535        -1.91917        0.223051
LJ            1.6907        -2.50344      -0.0629985
LJ          -2.53002       -0.874224       -0.811256
LJ          -1.94619        0.103334        -0.81009
LJ          -2.50389        0.133648      -0.0107729
LJ          -1.80482       -0.850954        0.117567
LJ         -0.633096       -0.813594       -0.669294
LJ        -0.0902905        0.218959        -1.00227
LJ         -0.669433       0.0840107       0.0253412
LJ        -0.0437961       -0.767277        0.201985
LJ          0.899641       -0.926145        -0.66041
LJ           1.86017      -0.0543375       -0.642319
LJ          0.659818       0.0746368       0.0615871
LJ           1.80094        -1.26876       -0.153272
LJ           2.56056         1.01761       -0.749181
LJ          -1.56245         1.74787       -0.808203
LJ           2.51487         1.65396      -0.0767987
LJ          -1.86152          1.1138         0.30389
LJ          -1.06991        0.775957       -0.836153
LJ           0.11667         1.66907       -0.976138
LJ         -0.789974         1.53896      -0.0868741
LJ          0.124972        0.937318       -0.190271
LJ          0.963529        0.957161       -0.785938
LJ           1.68012         1.77017       -0.840643
LJ          0.751179         1.92061      -0.0197299
LJ           1.64333        0.828976       -0.102896
LJ           2.43046         2.32524        0.736584
LJ          -1.39518        -1.73278        0.704993
LJ           2.52438         -1.5636         1.78696
LJ          -2.07923        -2.41715         1.35776
LJ          -0.79306          2.4745         1.07227
LJ          0.103202        -1.50136        0.975848
LJ         -0.963212        -1.84405         1.83274
LJ         0.0889381        -2.35227         1.69945
LJ          0.836435          2.2878         1.01041
LJ           1.94854        -1.60036        0.869424
LJ          0.995517        -1.83868         1.72328
LJ           1.72812         -2.4733         1.58637
LJ           2.49153       -0.653344        0.866984
LJ          -1.69588       0.0698383        0.792649
LJ           2.47481        0.083181         1.69501
LJ          -1.66864       -0.742275          1.8149
LJ          -0.77349        -1.06285         1.00647
LJ         0.0586474      -0.0652966         1.10122
LJ         -0.901029        0.148899         1.98639
LJ          0.145395       -0.948267         1.85347
LJ           1.08042        -1.06415        0.755809
LJ           1.59917      -0.0760892        0.617385
LJ           0.78974       -0.045995         2.00067
LJ           1.56406        -0.78247         1.80041
LJ           2.26302        0.877643        0.788125
LJ          -1.62945         1.86226        0.938446
LJ           2.43005         1.54013         1.49119
LJ          -1.81756        0.997788         1.57785
LJ         -0.852228        0.699844         0.84886
LJ          0.193838         1.46847        0.784913
LJ         -0.873809         1.46843         1.58962
LJ          0.172843        0.876568         1.62348
LJ           1.11167        0.747179         1.00367
LJ            1.5407         1.64812        0.617878
LJ          0.876974          1.5667         1.64374
LJ           1.67163          0.8997         1.85162
