108
#Comment!
LJ           2.56129        -2.51615         2.42942
LJ          -1.74164        -1.65598         2.52807
LJ           -2.4154        -1.56335        -1.82306
LJ           -1.7375         2.52748        -1.61183
LJ         -0.844115           2.526        -2.44879
LJ        -0.0357454        -1.96321        -2.46257
LJ          -1.12011        -1.50559          -1.795
LJ        -0.0631327         2.20478        -1.85197
LJ          0.806584        -2.56099         2.37462
LJ           1.79723        -1.72792        -2.55015
LJ          0.686337        -1.85146        -1.76378
LJ            1.9974         2.42975        -1.72065
LJ           2.45828        -0.84876         2.52918
LJ          -1.75653       0.0356014        -2.54496
LJ           2.46529        0.103382        -1.86854
LJ          -1.70965       -0.571555        -1.57994
LJ          -1.09533       -0.755818        -2.45764
LJ         -0.127953       -0.181585        -2.50121
LJ         -0.840576       0.0249722        -1.84861
LJ         -0.119011        -1.16226        -1.91156
LJ          0.889228        -1.08039        -2.53209
LJ           1.66568      -0.0286601         2.43246
LJ          0.920815       0.0493054        -1.84594
LJ           1.67757       -0.664934        -1.75962
LJ           2.52969        0.905384         2.54639
LJ          -1.72006         1.93907          2.4784
LJ          -2.39084         1.63006        -1.65647
LJ          -1.58433        0.766365        -1.84807
LJ         -0.626619        0.981365         2.50709
LJ          0.142844         1.75258         2.32058
LJ          -1.04663         1.69464        -1.72739
LJ          0.130244         1.11305        -1.78653
LJ          0.837782        0.915213         2.49178
LJ           1.80044         1.83969         2.40591
LJ          0.955771         1.96372         -1.8801
LJ           1.58965         1.02873        -1.69408
LJ           2.44984         2.43996       -0.721025
LJ          -1.40016        -1.73056       -0.808648
LJ          -2.34876        -1.90849       -0.158722
LJ          -1.73662         2.39519      -0.0538053
LJ         -0.785303        -2.55593        -1.04387
LJ           0.15557         -1.6421       -0.815148
LJ         -0.646171        -1.98881       -0.164011
LJ         -0.164661          2.2616      0.00695063
LJ          0.789907        -2.53146       -0.961471
LJ           1.89448        -1.81234        -1.07453
LJ          0.696919        -1.91229        0.225186
LJ           1.68812        -2.48226      -0.0857564
LJ          -2.49375       -0.910432       -0.787898
LJ          -1.94902        0.080758       -0.818076
LJ          -2.51532        0.135272     0.000361165
LJ          -1.78859       -0.850138        0.146693
LJ         -0.614806       -0.818622       -0.662527
LJ         -0.102562        0.252385        -1.00253
LJ         -0.683471       0.0794595      -0.0116158
LJ        -0.0535301       -0.729451        0.197332
LJ          0.890572       -0.935493       -0.635591
LJ           1.84457      -0.0589239       -0.619587
LJ          0.668188       0.0867367       0.0801789
LJ           1.80287        -1.27449       -0.135679
LJ          -2.55791         1.01294       -0.781123
LJ          -1.57117         1.75276       -0.818226
LJ           2.49134         1.67531      -0.0588021
LJ          -1.84042         1.12007        0.309217
LJ          -1.07278        0.749602       -0.846371
LJ          0.139818         1.65319       -0.974737
LJ         -0.803395         1.55014       -0.101605
LJ          0.109796        0.947185       -0.231475
LJ          0.956986        0.920017       -0.790355
LJ           1.67737         1.75237       -0.833217
LJ          0.755625         1.92223        -0.02018
LJ           1.62705        0.836701      -0.0895344
LJ           2.43763         2.35198        0.718242
LJ          -1.40915        -1.74945        0.721359
LJ           2.54443        -1.58423         1.78159
LJ          -2.09491        -2.43085         1.37802
LJ         -0.777145         2.47754         1.06596
LJ         0.0872738        -1.48345        0.994058
LJ         -0.962652        -1.85454         1.81575
LJ         0.0693744        -2.35176         1.71393
LJ          0.811236         2.26583         1.01552
LJ           1.96699         -1.5917        0.829744
LJ           1.01787        -1.80585         1.71789
LJ           1.73934        -2.46515         1.61818
LJ           2.52708       -0.682166        0.869749
LJ          -1.69165       0.0857933        0.803576
LJ           2.43503       0.0706611         1.72936
LJ          -1.67601       -0.768247         1.79001
LJ         -0.777254        -1.05714         1.01245
LJ         0.0800538      -0.0767533         1.07587
LJ         -0.889343        0.133112         1.97943
LJ          0.164046       -0.950904         1.85134
LJ           1.07258        -1.06289        0.760011
LJ           1.58486      -0.0894791        0.630562
LJ          0.760705      -0.0437326         2.01345
LJ           1.56043       -0.773398         1.80053
LJ           2.25411        0.864215        0.748879
LJ           -1.6537          1.8549        0.936358
LJ           2.45695         1.54307         1.49048
LJ          -1.83424           1.003         1.56684
LJ         -0.834302        0.699599        0.827149
LJ          0.197347          1.4659        0.779663
LJ          -0.85979         1.47849         1.58049
LJ          0.198496        0.893177         1.59768
LJ           1.13895        0.719679        0.980745
LJ           1.53003         1.65797        0.599535
LJ          0.894818         1.55797         1.67523
LJ            1.6488        0.894617         1.84139
