108
#Comment!
LJ          -2.49602        -2.37938         2.50063
LJ          -1.66472        -1.54669         2.47959
LJ          -2.34231        -1.51439        -1.83283
LJ          -1.66847        -2.48421        -1.73506
LJ         -0.739388         2.34741        -2.43307
LJ         -0.114356         -1.5011         2.52676
LJ         -0.912951        -1.41899        -1.97997
LJ         0.0760926        -2.47855         -1.9728
LJ          0.978193        -2.37737        -2.41752
LJ           1.68833        -1.50305         2.35563
LJ           1.17977        -1.66619        -1.70277
LJ           1.85121        -2.54415        -1.62635
LJ           2.42955       -0.725104         -2.4636
LJ          -1.74888      -0.0402477         2.29525
LJ          -2.55715        0.032325        -1.69299
LJ          -1.52934       -0.563178        -1.74815
LJ         -0.827065       -0.669628         -2.5436
LJ         0.0792392       -0.102789        -2.38694
LJ         -0.791218       0.0838221        -1.73786
LJ          0.158742       -0.920362        -1.58438
LJ          0.750438        -1.01549        -2.53792
LJ           1.66609       0.0155832         -2.3827
LJ          0.924432        0.185218        -1.64671
LJ           1.52056         -0.5899        -1.52985
LJ          -2.45423         0.85264        -2.43639
LJ          -1.82556         2.00916         2.42339
LJ          -2.48587         1.70281        -1.60327
LJ          -1.54451         0.69719         -2.1074
LJ         -0.550555        0.810208         2.50966
LJ         0.0400334         1.70433         2.36649
LJ          -1.28369         1.74525        -1.68781
LJ        0.00361173         1.07395        -1.70724
LJ          0.990634        0.959369        -2.55032
LJ           1.74854         1.89475         2.46124
LJ          0.918397         1.82929        -1.75461
LJ           1.73282         1.00669        -1.83616
LJ          -2.54939        -2.51283       -0.759073
LJ          -1.38815        -1.66901        -1.01054
LJ          -2.34184        -1.55402       -0.109473
LJ          -1.65673         2.40878        0.144499
LJ         -0.727728        -2.50635       -0.997206
LJ         0.0514276         -1.8335       -0.691828
LJ         -0.772823        -1.83347       0.0362192
LJ        -0.0226957         2.35838        0.232558
LJ          0.874734         -2.5383        -1.03795
LJ           1.91274        -1.59204       -0.874777
LJ          0.806765        -1.87329         0.20553
LJ           1.74368        -2.50457       0.0863563
LJ          -2.41063       -0.731316       -0.720376
LJ          -1.83443        0.216206       -0.897362
LJ          -2.34395     0.000929784      -0.0521674
LJ          -1.53361       -0.653492      -0.0664546
LJ         -0.668738       -0.822611       -0.740205
LJ       -0.00618951      0.00638139       -0.984721
LJ         -0.683386       -0.145476      0.00787524
LJ       -0.00473108       -0.982963        0.196423
LJ          0.986184        -1.02935       -0.753052
LJ           1.85239       -0.296265       -0.673047
LJ          0.790261       0.0820597       0.0454841
LJ           1.87186        -1.06631       0.0827116
LJ           2.38986        0.828513       -0.763336
LJ          -1.84254         1.75115       -0.654235
LJ           2.49104         1.77794      -0.0342052
LJ          -1.74423        0.936953        0.203951
LJ          -1.00278        0.772781        -0.92629
LJ         0.0519577         1.72997        -0.76676
LJ          -0.70588         1.65014       -0.165689
LJ         0.0763512        0.852456       -0.135754
LJ          0.831928         1.05735        -1.00121
LJ           1.61606         1.71788       -0.778996
LJ          0.860507         1.78769       -0.128451
LJ           1.67874        0.784629       0.0608291
LJ           2.48294         2.45841        0.750076
LJ          -1.44639        -1.77578        0.832661
LJ           2.47521        -1.49673         1.62806
LJ          -1.83099        -2.36938         1.67868
LJ         -0.877443         2.48045        0.917716
LJ        0.00316099        -1.48038         1.01575
LJ         -0.874432        -1.62204         1.74646
LJ        -0.0446074        -2.25967         1.75893
LJ          0.781284         2.39299        0.863808
LJ           1.67712        -1.59056        0.950866
LJ          0.772077        -1.64008         1.60798
LJ           1.71091        -2.51975         1.56269
LJ          -2.38777       -0.890451         0.78225
LJ          -1.70176        0.136757         0.84278
LJ           2.39675       0.0501967         1.66119
LJ          -1.63989       -0.856466         1.58387
LJ         -0.846491       -0.848892         1.00377
LJ          0.127507       -0.150657        0.902427
LJ         -0.901963      -0.0163724         1.74549
LJ         0.0894208       -0.766003         1.78428
LJ          0.993488       -0.894642        0.544372
LJ           1.76157       -0.256601         0.85626
LJ          0.870473      -0.0340719          1.7457
LJ           1.51225       -0.724298         1.73818
LJ           2.29538         0.91646         1.08438
LJ          -1.84022         1.66607        0.935335
LJ           2.45893         1.87126         1.58886
LJ          -1.75237        0.806686         1.71383
LJ         -0.929845        0.910199        0.845273
LJ          0.359755          1.3624        0.762136
LJ           -0.6551         1.53353         1.72185
LJ         0.0914817        0.795957         1.61506
LJ           1.03628        0.667119         0.99234
LJ           1.59205         1.79398        0.683492
LJ          0.937123         1.79231          1.6721
LJ           1.82366         1.02463         1.92677
