108
#Comment!
LJ          -1.45068         -2.1224         1.46004
LJ          -2.47117        -1.31025       -0.506891
LJ          -1.16329        -1.20991        0.848054
LJ        -0.0287908        -1.76878       -0.285049
LJ         -0.398357         2.52402         2.30462
LJ           1.32593       -0.359129        0.289756
LJ          0.926759        0.365005          1.0441
LJ          0.502898        0.322192        -2.01512
LJ          0.840221         0.90814         2.21098
LJ         -0.907882        -2.31626       -0.585804
LJ          -2.00766       -0.427117        0.942222
LJ          -1.88717         1.98264         1.79639
LJ          0.254095         1.53242        -2.20732
LJ           1.14824         1.49147         1.13028
LJ           1.82209        0.790761         1.23099
LJ           2.32191        -2.30273        0.812958
LJ          -2.52468        -2.27037         2.00027
LJ         -0.135162         0.31349       -0.716507
LJ          0.459236         -2.1968          1.6837
LJ          -1.58198         1.54385       -0.207101
LJ          -2.02293        -1.49306        0.463939
LJ         -0.121644         2.28135        -1.34361
LJ           2.29208         2.17831       -0.977466
LJ          -1.08685        -1.72029         2.35234
LJ           1.62784        -2.04238         1.69347
LJ         -0.030745         -1.2189         1.79114
LJ           1.39433        -1.68981        -1.57674
LJ          -1.82642       -0.286475          2.3313
LJ          -1.27848         1.09576        0.786258
LJ         -0.425782       -0.488328         1.00885
LJ          -1.14164        0.178842         1.42795
LJ            2.1881        0.349807        0.104433
LJ           2.39251        -1.32227        -1.53165
LJ           1.72761         1.96019         2.05523
LJ           2.04623        -1.01549         1.71073
LJ          -1.06098        -2.18232        0.384408
LJ         0.0149937         1.54684         1.17155
LJ           1.18187         -1.0228         2.51807
LJ           1.11116        -1.72475       0.0168704
LJ         -0.675223         1.06509       -0.180822
LJ         -0.780709         2.06263        0.243658
LJ          0.273878         2.56339        0.538228
LJ         -0.971658         2.33173        -1.93736
LJ          0.467239       -0.700903        -1.88636
LJ          0.984151        -2.44511        -2.51144
LJ          -1.66228        0.378545        -2.05297
LJ           2.31357        -0.52859        -2.47027
LJ           2.10733        -1.30669        0.528012
LJ          -2.10609        -1.34386         1.60255
LJ          0.548268         1.90442         1.94583
LJ          -2.14492        -2.21908        -2.20284
LJ           2.13771       -0.211002         1.05241
LJ          -1.25163        -1.28551       -0.191375
LJ           2.14962         1.59301        -2.22968
LJ          -1.57587         1.93744        -1.15618
LJ           0.18795        -1.64527        -2.43287
LJ           1.62299         1.43507        -1.02289
LJ          -1.97578        -2.38023      -0.0876108
LJ          0.983612        0.581889       -0.324099
LJ          0.995602         1.95086        -1.65946
LJ          0.926021        -2.51286       -0.848503
LJ           0.50027        -1.45963        0.851792
LJ          -1.95723         1.71106        -2.40098
LJ         -0.427796        -2.02568         1.21123
LJ           1.60805       -0.261954        -1.83471
LJ         -0.917463         1.40529        -2.28641
LJ          0.224582         1.07579        0.325338
LJ          -1.83699        0.385436         0.26626
LJ           2.52046         1.72063      -0.0444749
LJ          -2.15012       -0.460215      -0.0952743
LJ           2.54062       -0.258329        -1.13328
LJ          -2.53235         1.28034        -1.09948
LJ          -1.99635         2.11563        0.771945
LJ          0.240045       -0.404156         2.21799
LJ          -1.69514       -0.831397       -0.998581
LJ            1.2747         1.02458        -2.03348
LJ           2.08341        -2.50202        -1.84065
LJ          0.425444        -1.66465        -1.19364
LJ           1.66036       -0.620336       -0.659763
LJ         -0.893239         1.56298         1.73202
LJ           1.37278      -0.0114871         2.12343
LJ           1.59769        0.417799        -1.10569
LJ          -1.81833        -1.08191         -2.0051
LJ         -0.625312         1.19159        -1.31219
LJ           1.96787         -2.0179        -0.51597
LJ           1.55751         1.23082        0.160127
LJ          -2.31652         1.04448         1.15179
LJ         -0.234356        0.589723          2.4017
LJ           1.30595         2.55575        0.979671
LJ            1.9788        -1.63227        -2.49496
LJ           1.00507       -0.617008         1.24519
LJ        -0.0809186        0.423165         1.29374
LJ           2.03692         1.89962        0.984215
LJ           2.47434        0.393135         1.96414
LJ         0.0798735       -0.836968        0.105126
LJ          -2.13411        -2.06477        -1.18495
LJ         -0.739796       -0.750233        -2.13144
LJ           -1.1685        -1.76502        -1.49958
LJ         -0.197217       -0.915486       -0.938201
LJ           2.44816        0.502857        -1.95828
LJ            0.5915         1.08025        -1.17218
LJ           1.61211         2.37994     -0.00323854
LJ          -1.06125       -0.845635         1.76503
LJ          0.767513         1.85191      -0.0921436
LJ         -0.915703       -0.154233       0.0579219
LJ          -1.67105        0.501416       -0.838453
LJ           0.70966       -0.356722         -0.8845
LJ         -0.836184        0.138855        -1.48899
