108
#Comment!
LJ           2.38906        -2.53649        -2.54328
LJ            -1.672        -1.83721         2.48926
LJ          -2.49795        -1.75094        -1.66951
LJ          -1.85349         2.53353        -1.73979
LJ         -0.869355        -2.56172         2.48228
LJ         -0.149891        -1.87056        -2.49382
LJ         -0.893276        -1.55828         -1.6552
LJ         0.0819146         2.38292        -1.80112
LJ          0.883124         2.51216        -2.37141
LJ           1.70523        -1.70193        -2.49639
LJ           0.81764        -1.52644        -1.52537
LJ            1.9267        -2.45514        -1.60475
LJ           2.45527         -0.9352         -2.5205
LJ          -1.66112        0.107186         2.56223
LJ          -2.41743        0.144776        -1.80155
LJ          -1.85543       -0.911204        -1.58422
LJ          -1.02493       -0.921901         2.52948
LJ       -0.00318056      -0.0330595         2.53477
LJ         -0.781366        0.138881        -1.77482
LJ          0.100941       -0.825167        -1.74636
LJ           1.02412       -0.983003         -2.5316
LJ            1.7972        0.136778          2.5028
LJ          0.686187        0.151707        -1.62498
LJ            1.5666       -0.865736        -1.72249
LJ           -2.5327        0.915143         2.47787
LJ          -1.81235         1.86999         2.47172
LJ          -2.56363         1.59803        -1.80061
LJ          -1.69887        0.867907        -1.73745
LJ          -0.63851         1.00272         2.28106
LJ          0.119826         1.66335         2.36733
LJ         -0.794327         1.62612        -1.70294
LJ         -0.099635        0.873695        -1.74945
LJ          0.791451        0.826044         -2.4455
LJ           1.76874         1.80797        -2.53173
LJ          0.981297         1.71813        -1.53377
LJ           1.74619        0.837274         -1.7259
LJ          -2.47925         2.56242       -0.857098
LJ           -1.5261        -1.79948       -0.652163
LJ          -2.55777        -1.79756      -0.0711358
LJ          -1.76591         2.43844    -0.000343099
LJ         -0.760883         2.52845       -0.807804
LJ        -0.0347232        -1.71588         -0.8846
LJ         -0.753337        -1.74331       0.0608505
LJ         -0.127809         2.36787      -0.0420185
LJ          0.982198        -2.55932       -0.880216
LJ           1.69494        -1.71874       -0.801215
LJ          0.779121        -1.84945        0.107982
LJ           1.66748        -2.41598       -0.091184
LJ          -2.51919       -0.993364       -0.765963
LJ          -1.91565        0.150377       -0.728331
LJ           2.56264       -0.012292       0.0160149
LJ          -1.75525       -0.737277       -0.106508
LJ         -0.868025       -0.683557        -0.80074
LJ         0.0352321        0.097129       -0.735634
LJ         -0.843828     -0.00255819       0.0546596
LJ         -0.106809       -0.762927      -0.0967276
LJ          0.796391       -0.760369       -0.834133
LJ            1.8464       -0.111834       -0.848137
LJ          0.942171       0.0286992       -0.117607
LJ           1.76706       -0.990352      -0.0338255
LJ          -2.52064         1.12045       -0.687186
LJ          -1.62526          1.7101       -0.959277
LJ           2.50106         1.72389         0.12073
LJ          -1.86363        0.951818        0.065191
LJ         -0.866891        0.826191       -0.847951
LJ        -0.0260463         1.68578       -0.836463
LJ         -0.947383           1.629       -0.218425
LJ        -0.0694993         1.03479      -0.0600709
LJ          0.717613        0.904058       -0.863215
LJ           1.94775         1.84675       -0.953901
LJ          0.738499         1.91409        -0.10974
LJ           1.76433        0.846963      -0.0908707
LJ            2.4385         2.49024        0.985934
LJ          -1.55218        -1.84165        0.965362
LJ           2.52932        -1.63352         1.71495
LJ          -1.85082         2.45527         1.58426
LJ         -0.818209         2.52718        0.815463
LJ         0.0533613        -1.69597        0.825328
LJ         -0.875512        -1.65195         1.78429
LJ          0.111863        -2.48762         1.76151
LJ           1.08502        -2.55191        0.979069
LJ           1.93932        -1.63742        0.814793
LJ          0.898372        -1.67002         1.63047
LJ           1.62902        -2.51159         1.87962
LJ            2.4795       -0.683148        0.893122
LJ          -1.87954     -0.00308283        0.912559
LJ          -2.54174     -0.00364202         1.88682
LJ          -1.87789        -0.84452          1.6633
LJ          -0.67181       -0.796673        0.750489
LJ        -0.0143763      -0.0579409        0.814592
LJ         -0.771417       0.0915824         1.81424
LJ         0.0397484       -0.934428         1.65071
LJ          0.845579       -0.923538        0.889292
LJ           1.57795     7.59959e-05        0.676996
LJ          0.789122      -0.0985726         1.84073
LJ            1.7018       -0.844748         1.66289
LJ           2.44321          0.7617        0.762129
LJ          -1.62761         1.78938        0.821171
LJ            2.5182         1.68624         1.71412
LJ          -1.69651        0.760264          1.6308
LJ         -0.883069        0.644289        0.826769
LJ         0.0260355         1.68542        0.822233
LJ         -0.803021         1.75578         1.47726
LJ         0.0320875        0.900331         1.55788
LJ          0.880643        0.869796         1.07754
LJ           1.71825         1.78859        0.811592
LJ          0.990575         1.73737         1.87985
LJ           1.72542        0.953301         1.65458
