108
#Comment!
LJ          -2.47376        -2.26579          2.3669
LJ          -1.69984        -1.57856         2.42349
LJ          -2.22197        -1.57294        -1.65912
LJ          -1.52993         -2.4288        -1.79557
LJ         -0.781177         2.49643         2.49157
LJ         -0.124405        -1.70239         2.54162
LJ          -1.11493        -1.52673        -1.78098
LJ          0.142562         2.38704        -1.85578
LJ          0.971079        -2.48872         2.51575
LJ           1.71639         -1.5906         2.42753
LJ           1.01013          -1.841         -1.6998
LJ           1.96226         2.36642        -1.81142
LJ          -2.48539       -0.782192         2.50717
LJ          -1.79571      -0.0678196         2.41423
LJ          -2.47704       0.0206724         -1.7626
LJ          -1.68475       -0.652536        -1.65303
LJ          -1.07031       -0.855539        -2.48387
LJ      -0.000691047        -0.13287        -2.33026
LJ         -0.993112       0.0341562        -1.81845
LJ         0.0161303        -1.11605        -1.68914
LJ          0.884913       -0.907132         2.53334
LJ           1.68954      -0.0149898        -2.39408
LJ          0.874673        0.165131        -1.81726
LJ           1.61653       -0.646009        -1.70339
LJ           -2.4556        0.947639        -2.47584
LJ          -1.68658         2.01162         2.36818
LJ          -2.51041         1.62016        -1.60022
LJ          -1.69256        0.726958        -1.90694
LJ         -0.457945        0.790034         2.44053
LJ          0.148679          1.6293         2.31562
LJ          -1.20584         1.66516        -1.75586
LJ       0.000900023         1.14749        -1.81781
LJ           1.07718        0.991095          2.4858
LJ           1.85893         1.73463        -2.53026
LJ          0.942432         1.78633        -1.94396
LJ           1.56776        0.885341         -1.6549
LJ           2.51329         2.39861       -0.845051
LJ           -1.4447        -1.68268       -0.823165
LJ          -2.24859        -1.76913      -0.0258735
LJ          -1.64311         2.55732        0.112209
LJ         -0.562441        -2.47209        -1.10268
LJ        0.00649761        -1.70681       -0.785693
LJ          -0.76479        -1.92593      -0.0153779
LJ       -0.00556029         2.23435       0.0732031
LJ          0.803644        -2.52829       -0.937651
LJ           2.01331        -1.76053       -0.894304
LJ           0.78062        -1.84959        0.352982
LJ           1.68609        -2.49181       0.0264057
LJ          -2.37589       -0.870389       -0.805638
LJ          -1.92127       0.0613876       -0.912559
LJ          -2.43095      0.00189801       0.0672905
LJ          -1.69024       -0.720403       0.0640764
LJ         -0.725779       -0.895046       -0.802171
LJ         -0.214353      -0.0735098        -1.03698
LJ         -0.680969      0.00301117      -0.0142464
LJ         0.0341927       -0.834912         0.11703
LJ           1.01677        -1.25473        -0.82152
LJ           1.81653       -0.132274       -0.627149
LJ           0.94618        0.115313       0.0999461
LJ            1.9309       -0.983851       0.0113083
LJ           2.47231        0.823887       -0.808535
LJ          -1.64039         1.66394       -0.813242
LJ           2.31852           1.588       0.0277359
LJ          -1.79792         1.01532        0.300053
LJ           -1.1497        0.720049       -0.990515
LJ           0.17003         1.65609       -0.856495
LJ         -0.847983         1.61074       -0.255572
LJ        -0.0134446        0.796441       -0.256851
LJ          0.989251         0.81188       -0.857631
LJ           1.67514         1.70101       -0.746011
LJ          0.885253         1.68192       -0.163218
LJ           1.63998        0.768118      0.00260351
LJ           2.52532         2.39267        0.678977
LJ          -1.38393        -1.81201        0.817027
LJ          -2.53377        -1.48532          1.6134
LJ          -1.94782        -2.30334         1.51963
LJ         -0.792503         2.43488        0.914297
LJ        -0.0784088        -1.53483        0.942259
LJ         -0.840845        -1.70385         1.90887
LJ         0.0139997        -2.35522         1.73141
LJ          0.779048          2.4461         0.96813
LJ           1.70408         -1.5811        0.857147
LJ          0.874648        -1.63304         1.78831
LJ           1.81047        -2.49104         1.61773
LJ          -2.44073       -0.892439        0.770699
LJ          -1.50355       -0.052372        0.800252
LJ           2.45584      -0.0802453         1.65321
LJ          -1.70699       -0.774899         1.62012
LJ         -0.901224       -0.907266          1.1403
LJ          0.170931      -0.0969702        0.975659
LJ         -0.945455       0.0593645         1.77572
LJ          0.169331       -0.832323         1.70466
LJ          0.844838       -0.869184        0.651261
LJ           1.74025       -0.266095        0.710374
LJ          0.741414     -0.00140963         1.82889
LJ           1.59532       -0.781729         1.70661
LJ           2.23663        0.954823         0.99417
LJ          -1.73261         1.76705        0.960471
LJ           2.47423         1.82211         1.71062
LJ          -1.87704        0.840782         1.43747
LJ         -0.879814        0.831799        0.634644
LJ          0.429151         1.54893         0.75142
LJ         -0.915916          1.3906         1.66217
LJ          0.102219        0.931307         1.46878
LJ           1.14936        0.644784         1.01186
LJ           1.48021         1.66529        0.607483
LJ           1.15621         1.73284         1.74373
LJ           1.81448         1.08511         1.87468
