108
#Comment!
LJ          -2.44805        -2.38621         2.42255
LJ          -1.72804        -1.65684           2.528
LJ           -2.3009        -1.50188        -1.76187
LJ          -1.56156        -2.44173        -1.84806
LJ         -0.730157          2.4556         2.55892
LJ         -0.140383        -1.54279         2.41596
LJ          -1.01675        -1.60259        -1.80997
LJ         0.0880309         2.46302        -1.87742
LJ          0.879527        -2.46452        -2.56197
LJ           1.76158        -1.62829         2.41283
LJ           1.02114        -1.78316        -1.68123
LJ           1.87332         2.42476        -1.58832
LJ           2.53898       -0.679656         2.49498
LJ          -1.84854      -0.0100338         2.35637
LJ          -2.47574      -0.0947841        -1.82848
LJ          -1.64151       -0.625262        -1.65619
LJ          -1.05331       -0.720653        -2.54386
LJ         0.0213345       -0.193245        -2.33807
LJ         -0.858518       0.0145502        -1.79441
LJ         0.0426592        -1.06497         -1.7366
LJ           0.82198       -0.981652          2.5487
LJ           1.70557      -0.0315479        -2.40995
LJ          0.809965        0.148034        -1.65264
LJ           1.55134       -0.766655        -1.69987
LJ          -2.48364        0.968875        -2.48246
LJ          -1.79626         1.94677         2.29581
LJ          -2.46549         1.67268        -1.56105
LJ           -1.6248        0.760407        -1.91894
LJ         -0.509743        0.674588         2.55246
LJ          0.130603         1.67343         2.33595
LJ          -1.17914         1.60674        -1.66707
LJ        -0.0401404         1.15443        -1.69092
LJ           1.10073         0.93779         2.52508
LJ           1.79244         1.74363         2.55713
LJ           1.01351          1.8235        -1.96762
LJ           1.60353        0.851077         -1.6967
LJ          -2.52005         2.38491       -0.816065
LJ          -1.46936        -1.70229       -0.899185
LJ          -2.29501         -1.6726      -0.0378926
LJ          -1.55796         2.55692        0.164306
LJ         -0.606434         -2.4694        -1.10942
LJ        -0.0066593        -1.72304       -0.774157
LJ         -0.804308        -1.80698      -0.0392486
LJ        -0.0672364         2.28885        0.146494
LJ          0.686048        -2.47922       -0.935758
LJ           1.95246         -1.6974       -0.920946
LJ          0.814443        -1.91654        0.245664
LJ           1.61101        -2.48151       0.0229874
LJ           -2.4424       -0.873975        -0.85543
LJ          -1.94858        0.119333       -0.941779
LJ          -2.44579       0.0766563       0.0746631
LJ          -1.62762       -0.727498       0.0078635
LJ         -0.811076       -0.808984       -0.845172
LJ         -0.228793      -0.0367304        -1.00902
LJ         -0.717356      0.00061344       0.0574186
LJ        0.00439463       -0.797094       0.0490988
LJ          0.931808        -1.29461       -0.800089
LJ           1.82309       -0.165886       -0.660598
LJ          0.904294        0.129045       0.0782809
LJ           1.97015        -1.03179      0.00367173
LJ           2.53011        0.890278        -0.81413
LJ           -1.7438         1.72696       -0.825979
LJ            2.4188         1.51201       0.0842222
LJ          -1.79716         1.10734         0.23605
LJ          -1.11122        0.729547       -0.981632
LJ          0.113459         1.71981       -0.861284
LJ          -0.85176          1.6485       -0.126976
LJ         0.0605541        0.886029       -0.170728
LJ          0.937384        0.945076        -0.86849
LJ           1.73073         1.72487       -0.728558
LJ          0.973103         1.61327       -0.143767
LJ             1.567        0.820715       0.0478465
LJ          -2.56141         2.39721        0.661457
LJ          -1.39727        -1.80591        0.832941
LJ          -2.49472        -1.48793         1.56462
LJ          -1.92219        -2.30075         1.49814
LJ         -0.816859         2.35884        0.939975
LJ        -0.0710742        -1.49196        0.980007
LJ          -0.97982        -1.66156         1.84184
LJ         0.0905775        -2.31349         1.69578
LJ          0.814923         2.46964         1.01996
LJ           1.64832        -1.49771        0.989889
LJ          0.901488        -1.61619         1.72794
LJ           1.82455         -2.4949         1.60658
LJ          -2.47095       -0.930503         0.75491
LJ          -1.55597       0.0173805        0.774364
LJ           2.42944     -0.00972706         1.63065
LJ          -1.70857       -0.854511         1.63687
LJ         -0.860167       -0.908962         1.06249
LJ          0.212162       -0.102749        0.890797
LJ         -0.938384      -0.0268198         1.74123
LJ          0.194266       -0.823833         1.70836
LJ          0.885392       -0.914631        0.627745
LJ           1.74815       -0.312777        0.833599
LJ          0.825301       0.0315132         1.79455
LJ           1.55872       -0.807306         1.80486
LJ           2.31036        0.960632         1.00578
LJ          -1.75395         1.83927         1.09341
LJ          -2.54674         1.88709         1.66738
LJ          -1.86378        0.827474         1.54949
LJ          -0.93023        0.877652        0.586241
LJ          0.408473         1.52642        0.795496
LJ         -0.875168         1.42898         1.66373
LJ        0.00373096         0.93885         1.51644
LJ           1.18762         0.72788         1.05737
LJ           1.54869         1.69609        0.730244
LJ           1.08664         1.66697         1.73927
LJ           1.87525         1.03076         1.83921
