108
#Comment!
LJ          -2.52317         2.49219         2.50986
LJ           -1.7957        -1.79821        -2.56314
LJ          -2.49823        -1.86022        -1.70035
LJ          -1.74973         2.49065        -1.64309
LJ         -0.781921         2.53255         2.53655
LJ         0.0968389        -1.83924        -2.55576
LJ         -0.835891        -1.68593        -1.95379
LJ          0.176655         2.43652        -1.61922
LJ          0.828315        -2.48238        -2.54558
LJ           1.78541        -1.71371        -2.52951
LJ          0.844157        -1.71619        -1.53651
LJ           1.68243        -2.44552        -1.66145
LJ           2.56473       -0.694269        -2.39259
LJ          -1.71984       0.0864342        -2.46962
LJ          -2.47602       0.0946543         -1.6806
LJ          -1.73748       -0.932561        -1.81892
LJ         -0.942718       -0.629399        -2.49994
LJ        -0.0220007      -0.0901062         2.48435
LJ         -0.903887       0.0191721        -1.73958
LJ        -0.0589828        -0.90443        -1.77544
LJ          0.808237       -0.833777         -2.3094
LJ           1.86563       0.0856087        -2.48496
LJ          0.700354      -0.0220071        -1.72754
LJ           1.74324       -0.829055          -1.779
LJ          -2.56034        0.865895        -2.39484
LJ           -1.7107         1.83207        -2.56065
LJ          -2.54752         1.63646        -1.65279
LJ          -1.61823        0.827464        -1.78716
LJ         -0.851225        0.768209         2.51489
LJ          0.131343         1.55642         -2.4617
LJ         -0.948234           1.704        -1.80403
LJ        -0.0206175        0.712165        -1.48445
LJ          0.866884        0.712606         2.51551
LJ           1.74164         1.72717        -2.48042
LJ            0.9595         1.59439        -1.55635
LJ           1.72167        0.939224        -1.71377
LJ           2.49851        -2.55357       -0.858187
LJ          -1.61651         -1.6748       -0.738529
LJ          -2.40772        -1.72047        -0.13724
LJ          -1.79188         2.52235       -0.136216
LJ         -0.789823         2.55626       -0.735572
LJ        -0.0235737        -1.64402       -0.976908
LJ         -0.753254        -1.60319        0.166865
LJ          0.153862         2.44843        -0.11697
LJ           1.10721         2.47171       -0.816406
LJ           1.70561        -1.63854       -0.982174
LJ          0.879108        -1.84694       -0.111413
LJ           1.75052         2.56315       0.0543734
LJ           2.41657       -0.797792       -0.858525
LJ          -1.72414        0.165507         -1.0176
LJ           2.44733       0.0935536      -0.0035425
LJ          -1.74349       -0.797948      -0.0689905
LJ         -0.899267       -0.882075       -0.630685
LJ        0.00969168       -0.132492        -0.85683
LJ         -0.877693      -0.0016713        0.245148
LJ         0.0124829       -0.633291        0.122986
LJ          0.902536       -0.677324       -0.917544
LJ           1.77615        0.135503       -0.951138
LJ          0.997577        0.082156       0.0214462
LJ           1.60307       -0.900622       -0.122254
LJ          -2.56249         0.88033       -0.984964
LJ          -1.60649         1.68898       -0.834551
LJ          -2.51262         1.60022       -0.206758
LJ           -1.7308        0.995439       -0.106168
LJ         -0.831954        0.977972       -0.847616
LJ       -0.00492142         1.74352       -0.813853
LJ         -0.694724         1.67714      -0.0716357
LJ        -0.0687815        0.757021       -0.158739
LJ          0.867382        0.908223       -0.727806
LJ           1.67953         1.67224       -0.626343
LJ          0.809576         1.60818        0.137162
LJ           1.83971          0.8456        0.122668
LJ          -2.54423        -2.37919         0.80374
LJ          -1.52882        -1.73935         1.02075
LJ          -2.53125        -1.78569         1.67462
LJ          -1.65521        -2.43217         1.77167
LJ         -0.835771        -2.55632         0.76563
LJ         0.0419123         -1.5678        0.923694
LJ         -0.836757        -1.68766         1.81795
LJ        -0.0503458        -2.52311         1.56941
LJ          0.900801         2.50708          0.8442
LJ           1.70699        -1.87554        0.952785
LJ          0.890976        -1.85107         1.62566
LJ            1.7881        -2.53048         1.82197
LJ           2.54447       -0.791976        0.732142
LJ          -1.88935      -0.0556932        0.979214
LJ          -2.45615        0.109201         1.81405
LJ          -1.71045       -0.878085         1.75326
LJ         -0.844193       -0.840376        0.837997
LJ         0.0265515       0.0999417        0.871652
LJ          -0.95908       -0.139413         1.64191
LJ         -0.116883       -0.711366         1.67328
LJ           1.15867       -0.845827        0.823315
LJ           1.54201       0.0455584        0.955164
LJ          0.893091      -0.0177446         1.67796
LJ           1.75702       -0.665433         1.85776
LJ          -2.48428        0.787534        0.883603
LJ          -1.85929         1.83926        0.732673
LJ           2.45998         1.75889         1.66803
LJ          -1.76507         0.90972         1.91971
LJ          -1.09507         1.00445        0.922214
LJ         -0.118184         1.81625         0.86666
LJ         -0.891415          1.7968         1.76558
LJ        0.00629773        0.885451         1.78949
LJ          0.970088        0.909818        0.891572
LJ           1.64804         1.70864        0.827238
LJ          0.687994         1.79634         1.59786
LJ            1.6916        0.795134         1.71207
