108
#Comment!
LJ           2.55009        -2.55086         2.48145
LJ           -1.7915        -1.72911         2.52131
LJ          -2.51842        -1.72724        -1.64652
LJ          -1.78466        -2.38621        -1.72824
LJ          -0.89879         2.49559         2.51739
LJ         0.0116208        -1.99449        -2.51974
LJ         -0.864396        -1.57542        -1.54633
LJ          0.100893         2.27765        -1.68691
LJ           1.00827         2.36184        -2.36998
LJ           1.83375        -1.73323         2.55303
LJ          0.975071        -1.72887         -1.6762
LJ           1.97998        -2.49947        -1.50154
LJ           2.47208        -0.81157         -2.5548
LJ          -1.76664       0.0456094         2.55527
LJ          -2.47309        0.182291        -1.76796
LJ          -1.71053       -0.542343        -1.41806
LJ          -1.18769        -0.85292        -2.44276
LJ        -0.0851162       -0.274811        -2.45528
LJ         -0.782559        0.108247        -1.82018
LJ        -0.0755589       -0.994539        -1.75391
LJ          0.979436        -1.07895        -2.44582
LJ           1.65129       0.0888874         2.55061
LJ          0.761436       -0.104167        -1.51924
LJ           1.75355       -0.871886        -1.70656
LJ          -2.42499         1.07038         2.32835
LJ          -1.74932         1.88316         2.53593
LJ          -2.49338         1.69713        -1.71332
LJ          -1.55862        0.914769        -1.73138
LJ         -0.726083         1.05427        -2.48031
LJ         0.0884496         1.78561         2.49231
LJ         -0.732828         1.76304        -1.77066
LJ         0.0873672        0.924713        -1.88869
LJ          0.852771        0.780781         -2.4949
LJ           1.73746         1.84981         2.37829
LJ          0.938981         1.64232        -1.57272
LJ           1.83337        0.784672        -1.75842
LJ          -2.54451         2.43703       -0.733749
LJ          -1.47557        -1.87118       -0.710213
LJ          -2.49484        -1.75929       -0.168248
LJ          -1.68068         2.48924      -0.0645644
LJ          -0.67114        -2.53276       -0.937489
LJ         0.0579331        -1.68037       -0.955737
LJ         -0.570187        -1.80047       0.0452824
LJ         -0.186613         2.31373        0.147302
LJ          0.841428         -2.5019       -0.948856
LJ              1.79        -1.70158       -0.834835
LJ          0.699178        -1.98379        0.123104
LJ           1.64732         -2.4026      -0.0195454
LJ          -2.44163       -0.957553       -0.769079
LJ          -1.94018       0.0407167       -0.651908
LJ            2.3694       0.0212634      -0.0383814
LJ          -1.60503       -0.841864     -0.00121991
LJ         -0.607017       -0.793702       -0.830547
LJ         0.0415305        0.165902       -0.902373
LJ         -0.797538      -0.0689671      -0.0718068
LJ         0.0976233       -0.815685        0.218582
LJ           0.86673       -0.836577        -0.73909
LJ           1.82129       -0.171223       -0.880824
LJ          0.740533     1.45301e-05        -0.10542
LJ           1.72096       -0.912287      -0.0817161
LJ          -2.45246        0.961774       -0.925722
LJ          -1.64395         1.71711        -0.98703
LJ           2.45451         1.64213       0.0320915
LJ          -1.94431        0.887938       0.0949559
LJ         -0.898742        0.734879       -0.866452
LJ        -0.0819571         1.54799       -0.830581
LJ         -0.889074          1.4816      -0.0376147
LJ         0.0683089        0.944267        0.145246
LJ          0.775935         1.03623       -0.711099
LJ           1.70191         1.69696       -0.919004
LJ          0.829507         1.99238      -0.0113218
LJ            1.8044        0.818021      -0.0942412
LJ           2.48433        -2.48987        0.814603
LJ          -1.47429         -1.7383        0.709822
LJ           2.52545        -1.47109         1.66404
LJ          -1.89425         2.51942         1.59112
LJ         -0.794387        -2.48209          1.0465
LJ         0.0806125        -1.58609        0.915244
LJ         -0.854638        -1.65914         1.69765
LJ          0.111134        -2.44109         1.64865
LJ           1.02212         2.53866        0.905709
LJ           1.87483         -1.5112        0.775382
LJ           0.89611         -1.7509         1.75935
LJ           1.61358        -2.54727         1.74571
LJ           2.50662       -0.644941         1.05395
LJ           -1.8279     -0.00412907        0.797394
LJ           2.44884       0.0482338         1.91968
LJ           -1.7146       -0.942456         1.51968
LJ         -0.734234       -0.894226         1.00498
LJ         0.0570052       -0.050789        0.942974
LJ         -0.856023        0.154542         2.11909
LJ          0.115633       -0.975875         1.70645
LJ          0.995082       -0.866214        0.783235
LJ           1.65614       -0.129865        0.589327
LJ           0.72931      -0.0512965         1.83921
LJ            1.6046       -0.835927         1.67399
LJ           2.47999        0.639365        0.857461
LJ           -1.4686         1.95944        0.758604
LJ           2.50119         1.54931         1.53749
LJ           -1.5813        0.912199         1.58544
LJ         -0.909945        0.688978        0.781494
LJ          0.161246          1.5841        0.883289
LJ          -0.73976         1.68009         1.49256
LJ        -0.0300947        0.905804         1.55477
LJ          0.848362        0.616195        0.887404
LJ            1.7545         1.65423        0.740596
LJ           0.85773         1.55192         1.72093
LJ           1.71643        0.710243         1.71603
