108
#Comment!
LJ           2.54337        -2.53061          2.5179
LJ          -1.75565        -1.71191         2.48158
LJ          -2.54152        -1.71971        -1.82798
LJ          -1.77751         2.51671        -1.62393
LJ         -0.854117         2.47525        -2.44001
LJ        0.00585876        -2.00987        -2.45653
LJ          -1.18862        -1.45434        -1.71829
LJ        -0.0407163         2.25022        -1.86726
LJ           0.81255         2.54007         2.46685
LJ           1.73707        -1.73623        -2.52546
LJ             0.792        -1.94817        -1.78021
LJ           1.88072         2.49077        -1.69956
LJ            2.5562       -0.922267         2.55362
LJ          -1.80243       0.0363931          2.5339
LJ            2.4889        0.171723        -1.96952
LJ          -1.75078        -0.55536        -1.64815
LJ          -1.13523       -0.768627        -2.41585
LJ        -0.0260878       -0.273267        -2.41299
LJ         -0.766134       0.0512336         -1.8201
LJ          -0.19383        -1.21496        -1.85214
LJ          0.878598        -1.22446        -2.54813
LJ           1.74724      0.00474854         2.55719
LJ          0.884772       0.0286133        -1.82135
LJ           1.64782        -0.61114        -1.80217
LJ          -2.53616        0.894598         2.46962
LJ          -1.68945         1.94202         2.48445
LJ          -2.36526         1.64586        -1.63746
LJ          -1.62662          0.8071        -1.84059
LJ         -0.629603        0.936465         2.47315
LJ         0.0972707         1.71145          2.4012
LJ          -1.05991         1.66568        -1.75267
LJ         0.0487574         1.10949        -1.79375
LJ          0.934917        0.797834         2.46614
LJ            1.7886         1.90769         2.44864
LJ          0.894872         1.92496        -1.70406
LJ           1.55233        0.956443        -1.66777
LJ           2.52403         2.39143       -0.823885
LJ          -1.44097         -1.6828       -0.758631
LJ          -2.46188        -1.89975       -0.104559
LJ          -1.63217         2.46085      -0.0630768
LJ         -0.811804         2.54883         -1.0449
LJ          0.111177        -1.70982       -0.821546
LJ         -0.652188        -1.90411       0.0174397
LJ         -0.160828         2.30758       0.0339775
LJ          0.812053        -2.45628       -0.906069
LJ           1.86387        -1.75722        -1.00366
LJ          0.758042        -1.97577         0.17686
LJ           1.69207        -2.36694       -0.042965
LJ          -2.46428       -0.977214       -0.727306
LJ          -1.89908        0.122171       -0.829363
LJ          -2.48203       0.0957516     -0.00294069
LJ          -1.79228       -0.913741       0.0907881
LJ         -0.543759       -0.851557       -0.683978
LJ         -0.086015        0.327539       -0.924365
LJ         -0.682712      -0.0359936       0.0610577
LJ        -0.0158315       -0.816884        0.292321
LJ          0.776808       -0.927115       -0.667544
LJ           1.95514      -0.0967339       -0.687097
LJ          0.682238     -0.00430089      -0.0539127
LJ           1.74475        -1.16733       -0.144954
LJ           2.52704        0.943974       -0.853528
LJ           -1.5982         1.84436       -0.804949
LJ           2.41217         1.67174      -0.0238556
LJ          -1.86367         1.08409        0.179475
LJ          -1.10048        0.771718       -0.876223
LJ          0.138398         1.80423       -0.839336
LJ         -0.748858         1.53359      -0.0877104
LJ          0.103868        0.907677      -0.0659655
LJ           0.81545        0.965137       -0.752909
LJ           1.65456          1.6749       -0.901492
LJ          0.745689         2.04448      -0.0719807
LJ           1.75286        0.862282       -0.110273
LJ           2.37669         2.35679        0.771861
LJ          -1.38613        -1.84019        0.696051
LJ           2.51197        -1.55149         1.74603
LJ          -2.04848        -2.33362         1.47681
LJ         -0.627164         2.37914         1.12147
LJ          0.036082        -1.59038        0.955815
LJ         -0.986461        -1.84483         1.79167
LJ         0.0792644        -2.35186         1.76004
LJ          0.853352         2.40743        0.924924
LJ           1.95274        -1.67875        0.766444
LJ          0.972378        -1.73815         1.79631
LJ           1.65367         2.52272         1.65322
LJ           2.49704       -0.695753         1.00371
LJ          -1.74349       0.0853712        0.794607
LJ           2.50345      -0.0292408         1.74211
LJ          -1.88716       -0.731958         1.74423
LJ         -0.711481       -0.949709         1.04235
LJ        -0.0179805        -0.14167         1.07951
LJ         -0.903873        0.164237         1.89869
LJ          0.198949        -1.00502         1.83196
LJ            1.0767       -0.999495        0.698256
LJ           1.57605      -0.0851488        0.724233
LJ          0.869322       -0.018186         1.88787
LJ            1.6061       -0.798338          1.8692
LJ           2.32536        0.847309        0.813926
LJ          -1.52761         1.85751        0.834002
LJ            2.4648          1.5584         1.59299
LJ          -1.78576        0.980802         1.59075
LJ          -0.88395        0.717137        0.902541
LJ          0.161416         1.44829        0.786928
LJ         -0.802921         1.54047         1.55832
LJ         0.0973916        0.736655           1.618
LJ           1.06057        0.747085        0.891939
LJ           1.57439         1.70158         0.55793
LJ          0.842195         1.54353         1.60856
LJ           1.67384        0.860246         1.77493
