108
#Comment!
LJ           2.55202        -2.40699         2.51322
LJ          -1.72602        -1.62784         2.43297
LJ          -2.55413         -1.6976        -1.72064
LJ          -1.78367         -2.4603        -1.69265
LJ         -0.805933         2.53691         2.47673
LJ         0.0563931        -2.00543        -2.47704
LJ          -1.03027        -1.46464        -1.60906
LJ         0.0191367         2.34799        -1.73232
LJ          0.985349         2.43082         2.55041
LJ           1.73631        -1.82055          2.4902
LJ          0.993585        -1.80241         -1.7593
LJ           1.92836        -2.55465        -1.66388
LJ           2.44719       -0.808024         2.54587
LJ          -1.92589     -0.00787909         2.52808
LJ           2.49035        0.110809        -1.97327
LJ          -1.71886       -0.495344        -1.50723
LJ          -1.10651       -0.781118        -2.43448
LJ        0.00157687       -0.195066        -2.47754
LJ         -0.776147      0.00982251        -1.76255
LJ        -0.0999478        -1.14948        -1.91518
LJ          0.905446        -1.10164         -2.5007
LJ           1.62343      -0.0110884        -2.48196
LJ          0.818115        0.107889        -1.71211
LJ           1.66724       -0.666152        -1.72181
LJ          -2.42425        0.997872         2.50454
LJ          -1.69055         1.89958        -2.52997
LJ          -2.51745         1.73667        -1.63369
LJ          -1.55064        0.810091        -1.83662
LJ         -0.667281         1.06462         2.49229
LJ          0.152871         1.80449         2.42657
LJ         -0.839588         1.63328        -1.73385
LJ         0.0170274         1.03979        -1.83363
LJ          0.973594        0.891398        -2.53123
LJ           1.92726         1.81446         2.49944
LJ          0.956496         1.84187         -1.6455
LJ           1.69448        0.901578        -1.68847
LJ           2.38866         2.39704       -0.773436
LJ          -1.49848        -1.77492       -0.779373
LJ           -2.4623        -1.83533      -0.0764368
LJ          -1.59577         2.54171      -0.0275699
LJ         -0.867496         2.56342        -1.10854
LJ          0.162157        -1.72894       -0.930695
LJ         -0.550954        -1.79478      -0.0152173
LJ         -0.268683          2.4116       0.0540894
LJ          0.883591        -2.52425       -0.892249
LJ           1.73067         -1.7184       -0.987193
LJ          0.653249        -1.98822        0.109124
LJ           1.67186        -2.39659      -0.0446021
LJ          -2.48228       -0.905929       -0.677692
LJ          -1.91376       0.0307283       -0.726502
LJ           2.53207       0.0946892        0.056502
LJ          -1.67798       -0.939232     -0.00213903
LJ         -0.568644       -0.866657        -0.72378
LJ        -0.0607917        0.190496        -1.00363
LJ         -0.820587      -0.0788641       -0.116354
LJ         0.0776741       -0.763718         0.26648
LJ          0.865812       -0.976866       -0.641453
LJ           2.04507     -0.00810313       -0.874627
LJ          0.720005       0.0214476      -0.0534679
LJ           1.69019       -0.961798       -0.117258
LJ           -2.4504          1.0053       -0.910931
LJ          -1.52256         1.78306       -0.845522
LJ           2.36531         1.78119       0.0381052
LJ          -1.96171        0.963365          0.1181
LJ          -1.05647        0.687185        -0.97949
LJ         0.0525973         1.83722       -0.827092
LJ         -0.790774         1.47345       -0.085422
LJ        -0.0371085        0.854437       0.0368884
LJ          0.749889        0.959824       -0.676015
LJ            1.6289         1.62153       -0.873789
LJ          0.810949         1.95274      -0.0664906
LJ           1.66469        0.855693       -0.181367
LJ           2.47724         2.36692        0.898176
LJ          -1.40841          -1.779        0.673003
LJ           2.54266        -1.52911         1.82161
LJ          -2.06953        -2.48062         1.69303
LJ         -0.693501         2.52948         1.08996
LJ          0.148788        -1.65891        0.935706
LJ         -0.883491        -1.76415         1.69559
LJ         0.0726462        -2.32841          1.7476
LJ          0.917976         2.32407         0.93045
LJ           1.92947        -1.53323        0.733317
LJ          0.960898         -1.7578         1.72238
LJ           1.72316        -2.53162         1.69667
LJ           2.49375       -0.625205        0.933229
LJ          -1.68809      0.00698515        0.797117
LJ           2.50348       0.0123063          1.7981
LJ          -1.83082       -0.771454         1.67072
LJ         -0.723685       -0.901768         1.07269
LJ        0.00690325     -0.00473444        0.956228
LJ         -0.844632        0.156522         2.04016
LJ          0.214429       -0.947623         1.85792
LJ          0.996094        -1.05226        0.755003
LJ           1.60591       -0.160446        0.765595
LJ          0.892738       0.0693404         1.88031
LJ           1.56079       -0.866139         1.76543
LJ           2.37262        0.795225        0.919815
LJ          -1.50273           1.967        0.785445
LJ           2.43366         1.64776         1.57238
LJ          -1.79845        0.916685         1.52451
LJ          -0.86911        0.621611        0.891238
LJ          0.265938         1.46562         0.77918
LJ         -0.816473         1.67408         1.57174
LJ         -0.022775        0.855533         1.62266
LJ           0.99007        0.762225        0.828457
LJ           1.56746         1.67342        0.580899
LJ           0.84913         1.56114         1.73158
LJ            1.9482        0.823648         1.77286
