108
#Comment!
LJ           2.39888         2.55722          2.5078
LJ          -1.69146        -1.94204        -2.55074
LJ          -2.54337         -1.7221        -1.81927
LJ          -1.80896         2.47887        -1.68582
LJ          -0.90832         2.38354         2.47222
LJ         -0.197205        -1.83833        -2.45445
LJ         -0.832643        -1.62041        -1.60993
LJ         -0.032982         2.51407        -1.69752
LJ          0.868294        -2.56433        -2.53472
LJ           1.64985        -1.80698        -2.55826
LJ          0.805601        -1.49635        -1.58792
LJ           1.87277        -2.46764        -1.67254
LJ           2.50917       -0.908271         2.47404
LJ          -1.63302       0.0500144         2.52923
LJ          -2.48787        0.149587         -1.8176
LJ          -1.76546       -0.968748        -1.70338
LJ          -1.16504       -0.872335         2.53318
LJ        0.00674668      -0.0783353         2.53099
LJ         -0.771173       0.0995181        -1.70653
LJ         0.0446366        -0.80109        -1.67881
LJ          0.868199       -0.888445        -2.53271
LJ             1.813        0.118129        -2.55951
LJ          0.706169        0.179386        -1.62374
LJ           1.67868       -0.798416        -1.69209
LJ          -2.53825        0.881821         2.53168
LJ           -1.8005         1.78018         2.50656
LJ          -2.52104         1.65304         -1.8029
LJ          -1.76018        0.903139        -1.76226
LJ         -0.638362          1.0172         2.31501
LJ          0.176679         1.73425         2.41893
LJ         -0.819444         1.64834        -1.60845
LJ         -0.127759        0.924837        -1.79565
LJ          0.783308        0.878133        -2.33154
LJ           1.82992         1.75785        -2.52935
LJ          0.905443         1.81488        -1.62408
LJ           1.77012        0.826011        -1.72731
LJ           -2.4708        -2.46134       -0.802778
LJ           -1.4884        -1.73313       -0.740216
LJ           2.54692        -1.82802      -0.0414595
LJ          -1.59725          2.4944     -0.00103075
LJ         -0.778911        -2.54595       -0.795265
LJ        -0.0877008        -1.71687       -0.978378
LJ         -0.844426        -1.74662        0.175138
LJ          -0.17061         2.42859       0.0435454
LJ           0.82761         2.50747       -0.818241
LJ           1.57071        -1.79872       -0.797385
LJ          0.717891        -1.77448        0.134282
LJ           1.60533        -2.49817       -0.077194
LJ          -2.48473       -0.930287       -0.802408
LJ          -1.97949          0.2032       -0.827958
LJ           2.47502       0.0135312      -0.0322902
LJ          -1.65621       -0.866232      -0.0952116
LJ          -0.88743       -0.731475       -0.762404
LJ        -0.0328342         0.03547       -0.728052
LJ         -0.873376      0.00982109       -0.062862
LJ        -0.0403168       -0.682632      -0.0333729
LJ           0.96211       -0.810992       -0.743004
LJ           1.75158       -0.135511       -0.823989
LJ          0.913467      -0.0383433      -0.0968746
LJ           1.69869        -1.02061       -0.121179
LJ          -2.55988         1.03676        -0.82485
LJ          -1.70877         1.74064       -0.976178
LJ           2.54884         1.79674        0.152933
LJ          -1.81501        0.905643       0.0729363
LJ         -0.791442        0.679714       -0.868427
LJ         -0.102546         1.69289       -0.937057
LJ         -0.948548          1.7022       -0.176316
LJ         -0.119731         1.02141      -0.0785705
LJ          0.668581        0.957602       -0.826039
LJ           1.78711         1.92999       -0.950202
LJ          0.653279         1.79464      -0.0418026
LJ           1.59035        0.793771       0.0501705
LJ           2.52284         2.50593        0.881621
LJ          -1.61207        -1.70026        0.910272
LJ           2.41102        -1.70474         1.68187
LJ          -1.82946          2.5354         1.66835
LJ         -0.775298          2.4888        0.797703
LJ        0.00236708        -1.69248        0.833732
LJ         -0.846641        -1.68607         1.73989
LJ          0.155594        -2.54574         1.82957
LJ           1.03509         2.51413         1.01966
LJ           1.79205        -1.76438        0.827067
LJ          0.910553        -1.62262         1.62237
LJ             1.714        -2.45677         1.80587
LJ           2.49294       -0.646287         0.88437
LJ          -1.82393       0.0131339        0.892589
LJ          -2.46929      -0.0196694         1.96126
LJ          -1.78855       -0.847433         1.64887
LJ         -0.690037       -0.889339        0.800694
LJ          0.059338       0.0292605        0.777142
LJ         -0.649026       0.0310869         1.75722
LJ         0.0279349       -0.904574         1.57687
LJ          0.738302       -0.880321        0.848958
LJ           1.61922      -0.0145271        0.755432
LJ          0.776085       -0.193602         1.81085
LJ            1.7049       -0.891747         1.70813
LJ           2.39783         0.92297         0.84843
LJ          -1.79852          1.7525        0.808095
LJ          -2.56099         1.69217         1.83723
LJ          -1.79211        0.751432         1.64937
LJ          -0.86632        0.729393        0.839859
LJ        -0.0316849         1.60934        0.889708
LJ         -0.881642         1.69956         1.59132
LJ          0.062153        0.839003         1.59098
LJ          0.823954        0.810737        0.881458
LJ           1.76533         1.80265        0.834244
LJ          0.864843         1.59552         1.70868
LJ             1.679         1.03158         1.63595
