108
#Comment!
LJ           2.50531        -2.51917         2.49325
LJ          -1.72924        -1.83423         2.48352
LJ          -2.50322        -1.67544        -1.54609
LJ          -1.87785         -2.4565        -1.77574
LJ         -0.998393         2.46746         2.46132
LJ         -0.138324        -1.89045         2.55371
LJ         -0.946592        -1.50408        -1.68951
LJ          0.112608         2.36659        -1.75682
LJ          0.918343         2.51078        -2.42724
LJ           1.76127        -1.69794         2.50227
LJ          0.852734        -1.61601        -1.53953
LJ           2.03776        -2.47087        -1.64687
LJ           2.46094       -0.786981        -2.51822
LJ          -1.85116        0.103777         2.50596
LJ          -2.47983          0.1102        -1.72643
LJ          -1.67304       -0.627941        -1.34022
LJ           -1.2273       -0.925794          2.5556
LJ        -0.0849619        -0.22799         2.53554
LJ          -0.85532        0.133137        -1.75604
LJ         0.0455323        -0.93973        -1.78802
LJ           1.02127        -1.02901        -2.52608
LJ           1.71416       0.0523524         2.55811
LJ          0.782927     -0.00121123        -1.55678
LJ            1.7748       -0.819393        -1.71435
LJ          -2.53729         1.07076         2.45758
LJ          -1.79714         1.87203         2.54945
LJ           2.56111         1.64955        -1.73659
LJ          -1.65571        0.951492         -1.8813
LJ         -0.791154         1.04387          2.4876
LJ         0.0592118         1.72678         2.43147
LJ          -0.78926         1.58788        -1.81819
LJ        -0.0706617        0.834543        -1.77983
LJ          0.892272        0.879082        -2.38747
LJ           1.84349         1.87636         2.48241
LJ           1.02647          1.7777        -1.54955
LJ           1.78889        0.837389        -1.76824
LJ          -2.40837         2.54127        -0.68557
LJ          -1.56565        -1.85437       -0.629609
LJ            2.5544         -1.7603       -0.100402
LJ          -1.64746         2.44419     -0.00251523
LJ         -0.782229         2.44183       -0.988108
LJ         0.0674221        -1.74349       -0.918733
LJ         -0.798777        -1.79151       0.0622405
LJ         -0.233574         2.32062      -0.0583065
LJ           0.85684        -2.50892       -0.952124
LJ            1.7064         -1.6138       -0.869229
LJ          0.693902        -1.97506        0.131775
LJ           1.63615        -2.39574        -0.17987
LJ           2.50552       -0.828085       -0.751091
LJ          -1.87936        0.139863       -0.735494
LJ           2.50155      -0.0710206       0.0240375
LJ          -1.72932       -0.776241       -0.014776
LJ         -0.781844       -0.724869       -0.816744
LJ        -0.0171168        0.232278       -0.929803
LJ         -0.811478      -0.0516539      -0.0849223
LJ         0.0339039       -0.780561        0.097334
LJ          0.816554       -0.912057        -0.70655
LJ           1.74054       -0.105101        -0.82083
LJ          0.833596       0.0441101      -0.0689814
LJ           1.59981       -0.927091       -0.102468
LJ          -2.48451         1.01518       -0.853794
LJ          -1.62202          1.7304        -1.10707
LJ          -2.55319         1.73522       0.0737343
LJ          -1.85681        0.811559       0.0549468
LJ          -1.02597        0.793894       -0.830618
LJ        -0.0886338         1.49047       -0.940969
LJ         -0.834764         1.47515      -0.0469953
LJ         0.0379727        0.945671        0.106447
LJ          0.862761         1.00213       -0.734056
LJ           1.87436         1.67776       -0.992889
LJ          0.856808         1.95423      0.00604342
LJ           1.75565         0.85971       -0.128635
LJ           2.39362        -2.54421        0.881132
LJ          -1.47648        -1.65731         0.81536
LJ          -2.56206         -1.4948         1.82347
LJ          -2.03916         2.48602         1.67052
LJ         -0.686278        -2.51651        0.974957
LJ          0.211669        -1.83272         0.94884
LJ         -0.951251         -1.6759         1.75335
LJ         0.0471214        -2.41547          1.7655
LJ           1.14539        -2.55127        0.859061
LJ            1.7774        -1.48428        0.852235
LJ          0.914523        -1.72626         1.66811
LJ           1.54372        -2.45808         1.82941
LJ           2.51892       -0.587778         1.01064
LJ          -1.85942        0.063245        0.895481
LJ           2.51854       0.0526864         1.85343
LJ          -1.63883       -0.870653         1.58913
LJ         -0.722486       -0.891166         0.98248
LJ          0.101326       -0.122416        0.954656
LJ         -0.927193        0.116783         2.04161
LJ          0.127989       -0.915007         1.63262
LJ          0.959855       -0.785196        0.878537
LJ           1.62202       -0.124663        0.553911
LJ          0.724857        -0.15592         1.91528
LJ           1.74602       -0.789284         1.68713
LJ             2.395        0.783939        0.732822
LJ          -1.51198          1.8615        0.802214
LJ          -2.49915         1.57192         1.50497
LJ          -1.51437        0.875917         1.73053
LJ         -0.967443        0.690388        0.715776
LJ         0.0774426         1.67882        0.879737
LJ         -0.799658         1.69308         1.43201
LJ        -0.0194699         0.90618         1.65991
LJ          0.810412        0.664423        0.941156
LJ           1.81131         1.71465        0.791382
LJ           1.04402         1.65058         1.78591
LJ           1.75112        0.767016         1.54862
