108
#Comment!
LJ           2.45769       -0.585281        0.164356
LJ           2.52816        -1.60517         0.37586
LJ         -0.508058       -0.593771         1.50605
LJ           1.86949        0.634877       -0.707952
LJ           2.22572        0.460747         2.40615
LJ         -0.891322        -2.06902        -1.35669
LJ          -2.46729       -0.411338         -2.2164
LJ           2.38969        0.518255        0.300404
LJ           1.15256        -2.55898          2.0663
LJ         -0.463634       -0.123439         2.53059
LJ           1.31662        -0.77608        -2.00909
LJ          0.191591         1.46865         1.88347
LJ         -0.279399       0.0481794        0.795546
LJ          -1.81549         2.51303         2.15532
LJ           1.57045       0.0469112         1.18757
LJ           1.85551       -0.335992       -0.856819
LJ          0.140836        -2.55926         2.11733
LJ         -0.663111        0.398364       -0.154954
LJ          0.304678        -2.42906         1.09403
LJ          0.592316       -0.473597        0.141384
LJ          -2.52622        0.866972         1.31956
LJ        -0.0568382        -2.47003        -1.00011
LJ          0.206597         2.22744      -0.0447544
LJ          0.102226         0.21146       -0.716923
LJ          0.749317         2.00432        -1.64422
LJ          -1.57107        -1.68643       0.0952387
LJ           2.15324         2.32038       -0.584646
LJ            2.2112        -1.14957         -1.4972
LJ           1.57051         2.34645         0.97825
LJ          -1.82015        -1.46975        -2.49108
LJ          -2.20222         1.89989          1.3767
LJ          -1.50287       -0.960677         1.28001
LJ           2.46751        -1.95674        -2.01292
LJ           0.36429       -0.722569        -2.40397
LJ         -0.315867       -0.782906       -0.641516
LJ          -1.44113       -0.581531         2.56437
LJ             2.321         2.53671        0.329798
LJ         -0.255433        0.973621        -2.44202
LJ           0.93977        -1.69702        -2.55143
LJ          -2.32497      -0.0291755         -1.1897
LJ           1.29181        -2.00254        -1.51361
LJ          0.245282        -1.46273        0.244986
LJ           1.34401        0.164084         2.49351
LJ          -2.37667        0.938536        -1.85224
LJ           1.45841        -1.10105         0.87967
LJ         0.0924327         -1.8893        -1.86362
LJ          0.370819        0.229525        -1.85349
LJ           1.57468          1.1303        0.998237
LJ          0.423012       -0.958082         1.09999
LJ           2.27459        -2.44766         2.14099
LJ           2.49342       -0.265484         1.51283
LJ          0.647575         1.68215        0.868663
LJ          -2.31018         2.18494        -2.06635
LJ           1.29892        -2.11111          0.2407
LJ           1.20849       -0.754641         2.03349
LJ          -1.39834         2.05068        -1.47499
LJ          -1.51619         2.30948         0.71769
LJ          0.537821       -0.762245        -1.31992
LJ          -1.34827       -0.981561       -0.585718
LJ          -2.38928         1.51411         2.34399
LJ         -0.879113        -2.35206         1.67952
LJ         -0.599974        -1.66077          1.0219
LJ           -1.8047         1.06266       -0.103813
LJ          -1.92012        -1.15424        -1.49394
LJ          -0.34813       -0.347995        -1.53909
LJ          0.937709        0.746846        -1.15966
LJ          0.951656         0.92374          1.7453
LJ           0.39002      -0.0507668         1.84715
LJ          0.638777        -1.80081       -0.672996
LJ         -0.547125        0.827991        -1.43477
LJ         -0.637135        -1.68138       -0.260698
LJ          0.644446        0.953201       -0.161131
LJ           1.69606         2.28781        -2.00166
LJ          -2.36867         1.57681        -1.10207
LJ          -2.16616        -2.32479        -1.08469
LJ         -0.500845        0.641347         1.69255
LJ          -1.35296         1.25959        -2.32003
LJ          -1.36234        0.139962        -1.81736
LJ          -1.84171       0.0848672         1.02653
LJ          -0.25656         1.28993         0.76757
LJ         -0.788401        -1.31107        -2.07579
LJ          0.179009          1.4616        -0.88395
LJ          -1.80975         2.21173       -0.235077
LJ           1.82434          1.6374         1.78823
LJ          -1.49046         1.06794        -1.20497
LJ         -0.884041         1.82977         2.06717
LJ           2.26307        -1.01694         2.18338
LJ           1.64242        0.164673        -1.63478
LJ           1.39652        0.242694        0.135948
LJ           1.60128        -1.38561       -0.576779
LJ          -1.42537       -0.377286        0.141636
LJ          -1.45404         1.09359        0.919647
LJ          -1.13641        -2.29388        -2.32546
LJ        -0.0305627        -1.56551         2.04492
LJ         -0.631808       -0.882766        0.442893
LJ           2.50437         1.47001        0.383398
LJ           1.01168         2.38633       -0.687418
LJ           1.70795         1.28867        -2.29253
LJ           1.64313        -1.78262         1.62891
LJ          -1.83111        0.701044         2.07921
LJ          0.745936         1.11946        -2.39183
LJ           1.38406         1.67154        0.107229
LJ         -0.834079          2.4408      -0.0358374
LJ         -0.766639         1.42718        -0.38135
LJ           1.63166         1.45319        -1.13126
LJ          0.686837        0.487893        0.860095
LJ          -2.53273        -1.36202       -0.586005
LJ         -0.367841         2.18402        -1.85898
