108
#Comment!
LJ            2.5599        -2.41466         2.53118
LJ          -1.72023        -1.65636         2.41514
LJ           2.55653        -1.69599        -1.71875
LJ          -1.80036        -2.43303        -1.68866
LJ         -0.823686         2.55097         2.49402
LJ         0.0311765        -2.00428         -2.5074
LJ          -1.05735        -1.49414        -1.60519
LJ        -0.0123991         2.33352        -1.73693
LJ          0.941118         2.43939         2.53238
LJ             1.702        -1.83391         2.51195
LJ           0.97262        -1.76866        -1.77536
LJ           1.89424        -2.53505        -1.67775
LJ           2.45186       -0.809413         2.51965
LJ          -1.92154     -0.00617751         2.54908
LJ           2.49998        0.100562        -1.96069
LJ          -1.72391       -0.500024        -1.49349
LJ            -1.118       -0.762364        -2.44081
LJ        0.00279018        -0.18194         -2.4833
LJ         -0.775342       0.0332725        -1.78815
LJ          -0.10694        -1.16097        -1.90641
LJ          0.889041        -1.09695        -2.51284
LJ           1.62277     -0.00126395        -2.49463
LJ          0.794283       0.0676824        -1.70953
LJ             1.688       -0.704215        -1.72829
LJ          -2.43399         1.01232         2.48269
LJ          -1.68096          1.9573        -2.53212
LJ          -2.54298         1.72316        -1.62502
LJ          -1.56668        0.831185        -1.83173
LJ         -0.672297         1.06312         2.48147
LJ          0.133789         1.76667         2.45921
LJ         -0.861771         1.60288        -1.71002
LJ          0.027499         1.03564        -1.85409
LJ          0.987122        0.924566        -2.54915
LJ           1.94806          1.7884         2.48547
LJ          0.949639         1.85715        -1.63729
LJ           1.67886        0.923701        -1.67947
LJ           2.36659         2.40744       -0.763061
LJ          -1.52557        -1.77658       -0.773298
LJ          -2.43718        -1.83663      -0.0799486
LJ          -1.57891         2.53367      -0.0392395
LJ         -0.856119         2.55418        -1.10275
LJ          0.118151        -1.72204       -0.938535
LJ         -0.562579        -1.78756      -0.0277038
LJ         -0.258348         2.40086       0.0413713
LJ          0.904174        -2.53742       -0.891031
LJ           1.74553        -1.73465        -0.98824
LJ          0.664607        -2.01308       0.0984418
LJ            1.7011        -2.37301      -0.0443365
LJ          -2.46504       -0.919882       -0.662449
LJ          -1.91824        0.033374       -0.730541
LJ          -2.56416        0.061451       0.0613866
LJ          -1.68054           -0.93      0.00130822
LJ         -0.550114       -0.886748       -0.726604
LJ         -0.085498        0.222668        -1.04317
LJ         -0.816835      -0.0768714       -0.103141
LJ          0.119728         -0.7585        0.249632
LJ          0.852123       -0.997941       -0.631618
LJ           2.05336      -0.0283172       -0.887551
LJ          0.708902        0.045745      -0.0257988
LJ           1.70072       -0.996924       -0.124433
LJ           -2.4474          1.0311       -0.898917
LJ          -1.53033          1.7655       -0.844217
LJ           2.37253         1.76082       0.0503311
LJ          -1.95532         0.97497         0.11483
LJ          -1.07753        0.675232       -0.970368
LJ         0.0586799         1.85089       -0.851176
LJ         -0.821302         1.47975      -0.0812174
LJ        -0.0405345        0.859117        0.039708
LJ          0.755895        0.946533        -0.66204
LJ           1.62102         1.61333       -0.875178
LJ          0.770845         1.96384      -0.0543117
LJ           1.68208        0.859428       -0.191284
LJ           2.46702          2.3909         0.89592
LJ          -1.40899        -1.79762        0.678463
LJ           2.53155        -1.54349         1.80636
LJ          -2.07985        -2.48273         1.65222
LJ         -0.658544         2.54285         1.09631
LJ          0.149873        -1.61134         0.93361
LJ         -0.868641        -1.78687         1.72756
LJ          0.110637        -2.33943         1.72072
LJ          0.904451         2.30825        0.950568
LJ           1.93344        -1.52506        0.729516
LJ          0.988392        -1.75207         1.73485
LJ           1.71728        -2.49681         1.71085
LJ           2.48295       -0.631885        0.953314
LJ          -1.69819       0.0468619        0.778761
LJ           2.47877      -0.0112136         1.79145
LJ          -1.90531       -0.770767         1.68653
LJ         -0.737825       -0.907566         1.09031
LJ         0.0128479      -0.0328286        0.977208
LJ         -0.870901        0.150092         2.00113
LJ          0.235984       -0.938483         1.88184
LJ           1.03403        -1.02089        0.747208
LJ           1.57295       -0.180851         0.75317
LJ          0.893958       0.0822042         1.88699
LJ           1.55251       -0.880452          1.7619
LJ           2.34948        0.758581        0.879205
LJ          -1.48317          2.0106        0.795505
LJ           2.45717         1.62424         1.55839
LJ          -1.81132        0.910373         1.57085
LJ         -0.859294        0.654896        0.899791
LJ          0.268158         1.45725        0.745236
LJ         -0.822667         1.67721         1.57817
LJ       -0.00463069        0.850477         1.63733
LJ          0.990119        0.793325        0.839599
LJ           1.58783         1.69376        0.565325
LJ          0.834515         1.57288         1.74401
LJ           1.93288        0.830362         1.76165
