108
#Comment!
LJ          0.877242        0.912686        0.660854
LJ          -2.01774         2.21403        -1.66536
LJ         -0.190671       -0.418726         2.28647
LJ         -0.636815        -2.25387      -0.0121186
LJ         -0.758611        -1.90701         1.17658
LJ          -1.53602         1.22829         2.53915
LJ         -0.995418       -0.886463        0.518301
LJ          0.373515       -0.788323         1.14838
LJ         -0.996146         1.52792        0.317466
LJ           1.38967       -0.932331         1.39395
LJ           2.48944         1.36436       -0.712985
LJ           2.36178        -2.13983         1.82304
LJ          -1.89201         -1.5531          1.1679
LJ           1.92648      -0.0271043       -0.238436
LJ          -1.87925       -0.809057        -1.38976
LJ          -2.43603        -2.11002        -1.17321
LJ         -0.538131        -1.60071         2.17904
LJ           1.04707      -0.0311233        -1.13573
LJ          -2.43007       0.0795307         2.22464
LJ         -0.374028        0.858347         2.15297
LJ          -1.48489        0.366022         1.96647
LJ          -1.89853         1.29825        -1.42177
LJ           2.30688         1.08531        0.423505
LJ           2.16242         2.08147        -1.45703
LJ          0.111601      -0.0178556        -2.02001
LJ          -1.12451         2.56378        -1.12003
LJ        -0.0130096       -0.309713       -0.949676
LJ           1.12052      -0.0932317        0.561705
LJ           1.42541           1.675        0.250449
LJ          0.486326        -1.34419         2.46197
LJ           -1.4967        -1.91036        -1.96366
LJ         -0.991982        0.211899        -2.20609
LJ           1.33271        -1.38991        0.383104
LJ          -1.92876        0.338214       -0.807673
LJ          -1.90638         2.14241         1.99281
LJ          -1.50959        -2.44646        0.524301
LJ         -0.688881       -0.585901         1.43303
LJ          -1.02589         2.53754         2.34822
LJ           2.16047        0.552821        -1.53038
LJ          0.047723        0.301684         1.31598
LJ           -1.9238        0.113463        -1.79911
LJ         -0.973426         1.63577       -0.825264
LJ          0.369011         1.59044         1.47407
LJ         -0.260294        -1.02225       -0.260024
LJ          0.915411       -0.270941         1.95645
LJ           1.57992         -1.9968       -0.784424
LJ           1.25674       -0.875663         -2.0528
LJ          -1.17261       -0.744739       -0.699139
LJ          -2.07852        -1.62904        0.121832
LJ         0.0696216        -1.05808        -1.79557
LJ           1.31241        0.108206        -2.35497
LJ            2.2891       -0.783144        0.566165
LJ          -1.99302       -0.486611      -0.0898792
LJ          -0.14978         1.11543        0.645467
LJ          -1.84277         1.12793       -0.133015
LJ            2.5046         2.15126         0.31881
LJ          0.907466         1.99328        -2.08589
LJ          0.289389        0.653899        -0.30338
LJ           1.82366         0.81603          2.2389
LJ          0.348521        0.828606        -1.40202
LJ          -1.35129        -1.69833       -0.486172
LJ           1.65022         1.30118         1.14719
LJ           0.95408        -2.04735        -1.80432
LJ          -1.56969         1.66077         1.10926
LJ          -1.26393        -0.75831         2.30515
LJ           1.94967         -1.6357        -2.14945
LJ          -2.48279        -2.25578        -2.33255
LJ           2.56368         1.48804        -2.26887
LJ           1.46023        -1.60491         2.03003
LJ           1.25315        -2.36916        0.249909
LJ           1.77302         2.18365        -2.35044
LJ         -0.057644        -2.21304        -2.01569
LJ          0.443945        -2.21321       -0.420508
LJ          -1.77197        -1.60789         2.19267
LJ          0.743781        -1.11921        -0.59742
LJ         -0.298468         1.72594        -2.54513
LJ          -1.98039         2.17955       -0.533724
LJ          0.461108        -1.81386         1.49794
LJ           1.04366         1.82234         2.13225
LJ         -0.104334         2.50292         1.84963
LJ          -1.77834       -0.509698         1.07615
LJ           1.24994         1.02296       -0.707978
LJ           2.33979        -1.10632         1.43326
LJ          -2.00656        0.564153        0.856806
LJ           1.51246         1.25852        -1.70949
LJ         0.0752269         2.22602        0.670915
LJ          0.937805        0.657056         1.70511
LJ           2.06531          1.9269         1.89363
LJ           1.77909       0.0898563         1.36603
LJ         -0.299013      -0.0892987        0.177821
LJ         -0.777825        0.515006       -0.749134
LJ          0.735153        -2.40378         2.35139
LJ           1.83715         2.26176       -0.475725
LJ          0.278815        -1.85898        0.490535
LJ         -0.117076         2.13381        -1.36784
LJ          -1.21275         0.26376        0.227339
LJ         -0.955721        -0.68346        -1.69848
LJ           1.94126       -0.516554         -1.3148
LJ           1.25677        -2.46202         1.40106
LJ          0.626632        0.980452        -2.50469
LJ           2.10522        -2.02016        0.717902
LJ          -2.25806         1.11322         1.75494
LJ          0.189409         1.70549       -0.201818
LJ         -0.437987        -1.78631        -1.08914
LJ          -1.02771         0.59748         1.11711
LJ          -2.55807       -0.875429        -2.19527
LJ           2.32661        -1.24549       -0.567376
LJ          0.996761         1.97488        -1.03348
