108
#Comment!
LJ          -2.53708        -2.52041          2.4222
LJ          -1.75037        -1.63869         2.47995
LJ          -2.40849        -1.57625        -1.80341
LJ          -1.73732        -2.55883        -1.62234
LJ         -0.813258         2.54451        -2.49653
LJ        -0.0333139        -1.95454        -2.47578
LJ          -1.13969        -1.47637        -1.80634
LJ        -0.0780668         2.22704        -1.78264
LJ          0.828979        -2.56232          2.4049
LJ            1.7819        -1.72937        -2.53171
LJ          0.693523        -1.87246        -1.78589
LJ           1.97099         2.46129        -1.68819
LJ           2.44199       -0.856171         2.54569
LJ          -1.77947       0.0560157        -2.54192
LJ           2.44657        0.122967        -1.85706
LJ          -1.72993       -0.621696        -1.61364
LJ          -1.10825       -0.762613         -2.4719
LJ         -0.120934       -0.232949        -2.51963
LJ         -0.842379       0.0534815        -1.89015
LJ        -0.0899687        -1.18829        -1.90468
LJ          0.915621        -1.15036        -2.53424
LJ           1.69387      -0.0400408         2.52198
LJ          0.893384        0.063651        -1.85178
LJ           1.68189       -0.660977        -1.78012
LJ          -2.56094        0.905079         2.51271
LJ          -1.71146         1.89782         2.47566
LJ          -2.34418         1.62517        -1.63218
LJ          -1.64672        0.782308        -1.85013
LJ         -0.585971        0.972737         2.48132
LJ          0.137328         1.76758         2.31105
LJ          -1.05281         1.70266        -1.76584
LJ          0.170959         1.10703        -1.81368
LJ          0.822938        0.896907         2.47341
LJ           1.80574         1.83397         2.35248
LJ           0.96931         1.92978        -1.91133
LJ           1.57835         1.02607        -1.67202
LJ           2.46423         2.41914       -0.716852
LJ          -1.37042        -1.73043       -0.832698
LJ          -2.34591        -1.91129       -0.160329
LJ          -1.78287         2.39958      -0.0671428
LJ         -0.812046         -2.5387        -1.08111
LJ          0.165731        -1.65662       -0.820027
LJ         -0.655367        -1.94866       -0.160747
LJ          -0.15269          2.3468       0.0200549
LJ          0.814259        -2.45572        -0.93944
LJ           1.89734        -1.83083        -1.03143
LJ          0.715934        -1.89789          0.2382
LJ           1.69997        -2.49492      -0.0565112
LJ          -2.51242       -0.854357       -0.799215
LJ          -1.94221         0.11257       -0.813503
LJ          -2.50104        0.141596      -0.0433017
LJ          -1.80121       -0.855919        0.120395
LJ         -0.608023       -0.845429       -0.625661
LJ         -0.128491        0.214734       -0.984352
LJ         -0.665937        0.099034         0.06919
LJ        -0.0319275       -0.732238        0.222363
LJ          0.857718       -0.934159         -0.6801
LJ           1.85763      -0.0379682       -0.646353
LJ          0.667078       0.0591626       0.0717436
LJ           1.81338        -1.23598       -0.176146
LJ          -2.54501         1.01658       -0.779162
LJ           -1.5542          1.7601       -0.778671
LJ           2.51504         1.68356      -0.0572993
LJ          -1.85808         1.15912        0.260413
LJ           -1.0691        0.806569       -0.797695
LJ         0.0708007         1.71694       -0.986251
LJ         -0.781997         1.54893      -0.0774543
LJ          0.160709        0.910859       -0.155653
LJ          0.957006        0.974198       -0.759808
LJ            1.7208         1.72717       -0.796448
LJ           0.77735         1.92204      -0.0630202
LJ           1.63398         0.82445       -0.113613
LJ           2.41901         2.30929         0.74589
LJ          -1.39212        -1.77864        0.702384
LJ           2.51556        -1.56407         1.76193
LJ          -2.07872        -2.41433         1.41198
LJ         -0.763414         2.47082         1.07538
LJ          0.120724        -1.53052        0.963134
LJ         -0.985873        -1.82017         1.83798
LJ          0.110588        -2.35586         1.69985
LJ          0.834035         2.32239         1.00908
LJ           1.96977        -1.58372        0.861079
LJ           1.04346        -1.81389         1.69306
LJ           1.74223        -2.51373         1.60147
LJ           2.51923       -0.670512        0.871266
LJ          -1.66629        0.065792        0.770601
LJ           2.47231       0.0843582         1.69939
LJ           -1.6852       -0.718405           1.817
LJ         -0.734301        -1.06845        0.979509
LJ         0.0442394      -0.0575434         1.12325
LJ         -0.905697        0.166294         2.01123
LJ           0.13763       -0.935167         1.88242
LJ           1.11714        -1.07394        0.751816
LJ           1.56953      -0.0825217        0.585827
LJ           0.76536      -0.0406796         2.01894
LJ           1.60971       -0.782454         1.78587
LJ           2.26797        0.855873          0.7643
LJ          -1.63589          1.8574        0.906508
LJ            2.4223         1.55037         1.51319
LJ          -1.83422        0.975778         1.55034
LJ         -0.813181        0.723086        0.877449
LJ          0.193682         1.44099        0.788622
LJ         -0.866652         1.46836          1.5643
LJ          0.192501        0.890418         1.63261
LJ           1.07868        0.784164         1.01029
LJ           1.55723         1.64274        0.595455
LJ          0.861221         1.57616          1.6815
LJ            1.6313        0.910855         1.84888
