108
#Comment!
LJ            2.5488        -2.42029         -2.5577
LJ          -1.72655        -1.67419         2.48761
LJ           2.49902        -1.68848        -1.70849
LJ          -1.71226        -2.36746        -1.74363
LJ         -0.831551         2.54047         2.53401
LJ         0.0321556         -2.0232        -2.51316
LJ          -1.08167         -1.4292        -1.59443
LJ         0.0470209         2.25342        -1.66373
LJ          0.959461         2.33124        -2.48433
LJ           1.79533        -1.78188         2.53906
LJ           1.02275        -1.73363        -1.69218
LJ           1.92598         2.48463        -1.56563
LJ           2.42333       -0.801816         2.51185
LJ          -1.81334        0.127334         2.51631
LJ           2.55655        0.160233        -1.88183
LJ           -1.6343       -0.569665        -1.56783
LJ          -1.10725       -0.866809        -2.43318
LJ         0.0069884       -0.220045        -2.45664
LJ         -0.835413      -0.0480587        -1.66723
LJ         -0.112342          -1.033        -1.87782
LJ           1.02898        -1.04969        -2.46875
LJ           1.70066       0.0314179        -2.47534
LJ          0.783297       0.0179724        -1.76648
LJ            1.6351       -0.712293        -1.73448
LJ          -2.44796         1.08934         2.46717
LJ           -1.7791         1.87448        -2.56281
LJ          -2.49941          1.6379        -1.63937
LJ          -1.51451        0.883832        -1.79873
LJ         -0.661675         1.07603        -2.56377
LJ          0.105796         1.77367         2.48946
LJ         -0.809136         1.72884        -1.66964
LJ         0.0409537          1.0606        -1.72312
LJ           1.03192         0.84875        -2.53063
LJ           1.82617         1.81895         2.51015
LJ          0.891113         1.74313        -1.63797
LJ           1.76281         0.89241         -1.8228
LJ           2.46326         2.38176       -0.661173
LJ          -1.48384         -1.9211       -0.760612
LJ          -2.46726        -1.79331      -0.0970632
LJ          -1.79446         2.40157      -0.0394674
LJ         -0.650489        -2.47138        -1.02806
LJ          0.107836        -1.67374       -0.894533
LJ         -0.446905        -1.74243      -0.0342546
LJ         -0.275129         2.40941        0.127675
LJ           0.82081        -2.53044       -0.972054
LJ           1.75681        -1.68807       -0.962661
LJ          0.619577        -2.11099      0.00742805
LJ           1.74741        -2.35004      -0.0546379
LJ          -2.40867       -0.909317       -0.646264
LJ          -1.83349       0.0821677       -0.658724
LJ           2.48587       0.0671152     -0.00406967
LJ          -1.52413       -0.958947      -0.0189757
LJ         -0.617436       -0.889538       -0.756929
LJ        -0.0656011        0.262006       -0.972435
LJ          -0.92869       -0.102814       -0.108757
LJ         0.0181524       -0.769428        0.241877
LJ          0.885115        -1.04518       -0.737784
LJ           1.93311       -0.176435       -0.881167
LJ          0.762206     -0.00701324      -0.0679301
LJ           1.63566       -0.918892        -0.12285
LJ          -2.40516        0.889931       -0.974195
LJ          -1.58314         1.70859       -0.827201
LJ           2.42702         1.68781        0.117525
LJ          -1.94117         1.00503      0.00754072
LJ          -1.08579        0.701591       -0.859332
LJ         0.0106454         1.67746       -0.789233
LJ         -0.793642         1.54407       -0.160272
LJ         -0.039063        0.871179       0.0569888
LJ          0.763085        0.995309       -0.631481
LJ           1.57078         1.64147       -0.978965
LJ          0.890213         2.05623      -0.0316918
LJ           1.71287        0.818709       -0.238819
LJ           2.45311         2.50638        0.848109
LJ          -1.41666        -1.74307        0.632857
LJ           2.47952        -1.58083         1.81062
LJ          -2.02264         2.53504         1.68395
LJ         -0.715597        -2.45801         1.09942
LJ          0.112702        -1.66187        0.928129
LJ         -0.913633        -1.69866         1.68802
LJ         0.0833609        -2.34896         1.75096
LJ          0.911595         2.46095        0.889873
LJ           1.93675        -1.51422        0.702812
LJ          0.977042        -1.86335         1.65561
LJ           1.70622         2.51786         1.72567
LJ           2.52805       -0.635889         1.02114
LJ          -1.69319      -0.0773058        0.891481
LJ           2.53605       0.0130289         1.88282
LJ          -1.67468       -0.940516         1.59751
LJ         -0.717521       -0.845412        0.947178
LJ         0.0606655     -0.00835253         1.00385
LJ         -0.871945        0.229898         1.98756
LJ           0.13526       -0.864684         1.88227
LJ           1.04494       -0.993309        0.673698
LJ           1.69746       -0.173728        0.753093
LJ          0.794634      -0.0109953         1.94144
LJ           1.67862       -0.858932         1.67991
LJ            2.5123        0.848653        0.908271
LJ          -1.47035         1.86958        0.772546
LJ           2.40912         1.72659         1.57802
LJ          -1.70964        0.971283         1.55159
LJ         -0.880937        0.671613        0.847657
LJ          0.254267         1.45641        0.878718
LJ         -0.877695         1.58114         1.57712
LJ         0.0112145        0.864157         1.62827
LJ           1.01876         0.68875        0.820765
LJ            1.6228          1.7011        0.657859
LJ          0.894178         1.53763          1.8324
LJ           1.72584        0.831119         1.79506
