108
#Comment!
LJ           2.54507        -2.23771         2.30494
LJ          -1.66992        -1.58925         2.42952
LJ          -2.22782        -1.56536        -1.71962
LJ          -1.67519        -2.41529        -1.74685
LJ         -0.783667         2.33886         2.50441
LJ        -0.0251109        -1.82832        -2.48529
LJ          -1.17629        -1.52512        -1.87884
LJ         0.0487675         2.34596        -1.85217
LJ          0.891286        -2.47889         2.50561
LJ           1.75107        -1.65528         2.47016
LJ          0.904332          -1.895        -1.69626
LJ           1.97307         2.42379        -1.83192
LJ          -2.49111       -0.851732         2.37339
LJ          -1.83396       0.0242399         2.53349
LJ           2.55191       0.0559506        -1.79565
LJ          -1.81833       -0.578954         -1.6465
LJ          -1.16934       -0.765347        -2.44149
LJ        -0.0647957       -0.188462        -2.36024
LJ           -1.0213      -0.0235814        -1.72058
LJ         0.0204528        -1.05875        -1.73265
LJ          0.959604        -1.00269        -2.53376
LJ           1.66455       0.0262737        -2.50961
LJ           1.01035        0.143417        -1.71017
LJ           1.57031        -0.62508        -1.70822
LJ          -2.44384         1.03747        -2.51058
LJ          -1.69435         1.93204         2.32139
LJ           2.55328         1.55331        -1.57659
LJ          -1.66736        0.759426        -1.83618
LJ         -0.548237        0.842202         2.44621
LJ          0.245161         1.65067          2.3978
LJ          -1.19342         1.63123        -1.81991
LJ         0.0561204         1.18301        -1.87263
LJ          0.923757        0.988157         2.54897
LJ           1.80801         1.72617         2.51591
LJ          0.965974         1.76868        -1.89353
LJ           1.68202        0.949547        -1.66628
LJ           2.56168         2.33908         -0.7853
LJ          -1.45808        -1.74357        -0.80831
LJ          -2.23957        -1.74085       -0.116482
LJ          -1.70458         2.50637        0.128148
LJ         -0.558765          -2.487        -1.01513
LJ         0.0704582        -1.59733       -0.819649
LJ         -0.734074        -2.03091       -0.103373
LJ         -0.142863         2.33126       0.0211449
LJ          0.825429        -2.51529       -0.847636
LJ           2.05501        -1.76328       -0.957017
LJ          0.815572        -1.72809        0.337252
LJ           1.68368        -2.56086      -0.0582559
LJ          -2.28588        -0.97089       -0.781156
LJ          -1.96576      0.00218181       -0.783322
LJ          -2.42181       0.0398201        0.120938
LJ          -1.62825       -0.753334       0.0292959
LJ         -0.717043       -0.818322       -0.825148
LJ         -0.139311       0.0692792        -1.10687
LJ         -0.746757      -0.0507585      -0.0535422
LJ         0.0947664        -0.72702       0.0472354
LJ           1.03739          -1.177       -0.898559
LJ           1.87728      -0.0634277       -0.588351
LJ          0.909255       0.0487243        0.131976
LJ           2.03287        -0.98068        -0.10051
LJ           2.45741        0.975714       -0.782391
LJ          -1.60921         1.75386       -0.837318
LJ            2.3358         1.66718      -0.0152517
LJ          -1.81884         1.02076        0.278022
LJ          -1.07762        0.693469       -0.892255
LJ          0.023974         1.64233       -0.943771
LJ         -0.848738         1.54255       -0.267691
LJ        -0.0602297        0.749495       -0.160238
LJ           1.11274        0.762078       -0.880171
LJ           1.63409         1.68687       -0.739106
LJ          0.804846         1.80702       -0.164969
LJ           1.71953        0.855906       -0.070004
LJ           2.46446         2.38715        0.744214
LJ          -1.34045        -1.82527        0.702063
LJ           2.53729        -1.51107         1.51549
LJ           -1.9154         -2.3396         1.52459
LJ         -0.743827         2.49676         0.94167
LJ        -0.0592142        -1.53572        0.933106
LJ         -0.843071         -1.7535         1.89791
LJ         0.0826832        -2.33076         1.75162
LJ          0.797064         2.49436         1.00454
LJ           1.74215        -1.58585        0.897233
LJ          0.964644        -1.69559         1.67508
LJ           1.81683         -2.5087         1.61208
LJ          -2.47336       -0.846344         0.72228
LJ          -1.48252      -0.0713278        0.824876
LJ           2.45722      -0.0323448          1.7439
LJ          -1.77415       -0.716173         1.54688
LJ         -0.861665       -0.905432         1.04979
LJ          0.231068       -0.124398        0.984923
LJ          -0.97626         0.13277         1.81661
LJ          0.189754       -0.887221          1.7204
LJ          0.886571       -0.854615        0.777561
LJ           1.72569       -0.201765        0.671802
LJ          0.690237        0.030459         1.96858
LJ           1.52836       -0.852294         1.60612
LJ           2.17992         0.84368        0.932106
LJ          -1.72021         1.92652         1.03393
LJ           2.42528         1.73387         1.59401
LJ           -1.8445        0.724626         1.42881
LJ         -0.815011        0.851772        0.649574
LJ          0.369009         1.53083        0.813862
LJ         -0.911307         1.42322         1.58695
LJ         0.0691219        0.833947         1.56997
LJ           1.14364        0.698951         1.07809
LJ           1.42351         1.74604        0.634822
LJ           1.11056         1.61987         1.67474
LJ           1.77119        0.917136         1.87823
