108
#Comment!
LJ           2.50421       -0.174668        0.840109
LJ           2.53405        -1.43113        0.603523
LJ          -0.73473        -1.67459         1.13582
LJ          -2.37854        0.598789        0.196451
LJ           2.34091        0.756907         2.12804
LJ         -0.932552        -1.67539        -1.23194
LJ           2.29274       -0.412288        -2.35066
LJ          -1.24854       0.0828111        0.375064
LJ          0.908836         2.45027         1.76073
LJ          -1.28215       0.0528784         2.23975
LJ           1.44972       -0.225328        -1.76943
LJ          0.351689         1.59203          1.8354
LJ        -0.0256577        0.133011        0.617812
LJ          -1.04362         2.51148         1.68898
LJ             1.641        0.391962         1.36951
LJ           2.03884       -0.386366       -0.141889
LJ          0.404535        -1.94649         2.34831
LJ         -0.831252        0.842857      -0.0791818
LJ          0.514714         2.38532        0.746221
LJ          0.192799       -0.367368       -0.359198
LJ           -2.2497        0.756145         1.16679
LJ         -0.270813        -2.55158       -0.938841
LJ        -0.0842501         1.49093       -0.602854
LJ            1.1105       -0.021854       -0.751076
LJ          0.801421        -2.39736         -1.6341
LJ          -1.48179        -1.77169        -0.25913
LJ           1.90533         2.43182       -0.353901
LJ           2.16211        -1.13494        -1.52648
LJ            1.6883         2.40362         1.09604
LJ           -1.6416        -2.14486        -2.52945
LJ          -1.87044         1.73948         1.69578
LJ          -1.69243        -1.54936         1.13637
LJ           2.42595        -1.59233        -2.43928
LJ          0.653296        -0.87633        -2.25371
LJ          0.160852       -0.353957        -1.50004
LJ          -1.73026        -1.10616         2.24338
LJ          -2.34529         2.40755        0.769421
LJ         -0.130676         1.16088        -2.46352
LJ           1.50766        -1.36386        -2.24319
LJ          -2.16203       -0.972546       -0.741831
LJ           1.83674        -2.01291         -1.2951
LJ          0.369155       -0.957285        0.493617
LJ           1.17524        0.729101         2.38624
LJ          -2.54001        0.603128        -1.82685
LJ           1.60212       -0.864504        0.788917
LJ          0.195284        -1.49433        -1.70372
LJ          0.424673        0.171102        -2.39574
LJ           1.60305        0.750095        0.336786
LJ          0.831951       -0.427195         1.42326
LJ            2.4846         -2.3417         1.75349
LJ          -2.38557      -0.0909382          1.8024
LJ           1.14823         1.79885         0.29533
LJ           2.46759         2.45177        -2.16702
LJ           1.26523        -2.01992        0.223716
LJ           1.58767       -0.463385         2.09878
LJ          -2.50304         2.06913        -1.16239
LJ         -0.573339         1.92037        0.783712
LJ           1.22523         -1.2538        -1.30583
LJ         -0.963856       -0.707305       -0.441851
LJ          -1.75105         1.17293         2.56074
LJ        -0.0904177         2.55795         1.43656
LJ          -1.40206        -2.56249        0.508448
LJ          -1.96526         1.49397       -0.417848
LJ          -2.01611       -0.922587        -1.90385
LJ         -0.729737       -0.830263        -1.88741
LJ           1.23883        0.833071        -1.41386
LJ           1.22691         1.41084         1.36076
LJ         -0.302679       -0.878245         2.06709
LJ           1.15925        -1.06232       -0.246554
LJ         -0.790713        0.626097        -1.99123
LJ          0.150743        -1.35571        -0.59826
LJ          0.560358         0.66279       -0.115511
LJ            1.4383        -2.27566         2.52308
LJ           2.02912         1.11222       -0.846394
LJ          -1.99768        -2.04478        -1.41186
LJ         -0.301894        0.345665         2.04756
LJ          -1.69533          2.0076        -2.06899
LJ          -1.55155      -0.0157242        -1.90242
LJ          -1.22358       -0.499031         1.35773
LJ          0.302051         1.38085        0.604537
LJ         -0.739677        -1.64492         2.46637
LJ         -0.238733        0.637734        -1.10394
LJ          -2.13263        -2.54474       -0.304622
LJ           2.05497         1.86007         2.12633
LJ          -1.83209         1.18421        -1.37687
LJ         -0.869151         1.69262        -1.73339
LJ           2.53352         -1.1293         1.75151
LJ           2.20408      -0.0950677        -1.13723
LJ           1.14756      -0.0872366        0.394998
LJ           2.07015        -1.70498       -0.239106
LJ          -1.76731        0.438285        -0.57468
LJ          -1.89833         1.47288        0.585509
LJ         -0.205656        -2.52305        -2.17269
LJ          0.532717        -1.78688         1.20605
LJ         -0.511599        -1.45575        0.201453
LJ           2.24674         1.65313        0.249253
LJ          0.762541        -2.36383       -0.569335
LJ           1.80479         1.39595        -2.13944
LJ           1.51564        -1.61331         1.80816
LJ          -0.70463         1.33336         1.77338
LJ          0.838649         1.94567        -2.45096
LJ           1.00805         1.68323        -0.65269
LJ         -0.254357         -2.4076        0.122662
LJ          -1.05874         2.01652       -0.382361
LJ            1.5153          2.1431        -1.35291
LJ           0.52605        0.611645         1.54393
LJ           -1.5935       -0.829395        0.393332
LJ          0.434945         1.50721        -1.60178
