108
#Comment!
LJ           2.55493        -2.44723         2.56188
LJ          -1.74179        -1.64002         2.43593
LJ           2.51947         -1.7412        -1.70909
LJ          -1.81192        -2.42642        -1.66552
LJ         -0.815538         2.55094         2.48458
LJ         0.0167416         -2.0483        -2.50031
LJ          -1.07104        -1.47642        -1.58979
LJ         0.0250259         2.30209        -1.72797
LJ            0.9314         2.45669         2.51835
LJ           1.72339        -1.81449         2.50404
LJ          0.924212        -1.78918        -1.78453
LJ           1.88679         -2.5389        -1.70551
LJ           2.47333       -0.836485         2.53972
LJ          -1.90659      -0.0260437         2.55803
LJ           2.48921        0.147763        -1.98657
LJ          -1.72556       -0.524258        -1.50031
LJ          -1.14167       -0.805106        -2.44195
LJ         0.0196289       -0.190535         -2.5072
LJ         -0.751232        0.073592         -1.8055
LJ         -0.121408        -1.15484        -1.92989
LJ          0.871842        -1.11574        -2.54702
LJ           1.60902       0.0171548        -2.51929
LJ          0.821543       0.0688829        -1.78148
LJ           1.67466       -0.736958        -1.68738
LJ          -2.42286        0.996873         2.48186
LJ           -1.6842          1.9382        -2.54298
LJ          -2.52742           1.712        -1.65659
LJ          -1.59351        0.818264        -1.85772
LJ         -0.641001         1.05958         2.49419
LJ          0.148251         1.79104         2.47112
LJ         -0.868058         1.65182        -1.74042
LJ         0.0454026         1.03173         -1.8417
LJ          0.982383        0.938422        -2.54635
LJ           1.93994         1.82497         2.49813
LJ          0.906058         1.85338         -1.6526
LJ           1.69214        0.907057        -1.68612
LJ           2.34183         2.40199       -0.771099
LJ          -1.51252        -1.77088       -0.760777
LJ          -2.43833        -1.85389       -0.103038
LJ          -1.58446         2.52503      -0.0444041
LJ         -0.833548         2.56428        -1.10166
LJ          0.138801        -1.73486       -0.903743
LJ         -0.534741          -1.769      -0.0325558
LJ         -0.241785         2.37875       0.0542987
LJ          0.894319        -2.51954       -0.923262
LJ           1.75726        -1.71024       -0.959262
LJ          0.634677        -1.97522       0.0893406
LJ           1.69151         -2.3673      -0.0337113
LJ          -2.50241        -0.95386       -0.677305
LJ          -1.91644        0.111319       -0.730047
LJ          -2.55624       0.0946105       0.0653515
LJ          -1.70002       -0.942166      -0.0242411
LJ         -0.622427         -0.9044       -0.662484
LJ        -0.0871113        0.271095        -1.01751
LJ         -0.796463      -0.0958731      -0.0661813
LJ          0.130194         -0.7436        0.231412
LJ          0.810036       -0.958163       -0.632417
LJ           2.04539      -0.0618993       -0.865893
LJ          0.654409       0.0851389      -0.0400688
LJ           1.73093       -0.999763       -0.132352
LJ           -2.4618         1.03597       -0.885742
LJ          -1.55018         1.78476       -0.831445
LJ           2.35894         1.77496       0.0772381
LJ          -1.99565        0.992204        0.123608
LJ          -1.05446        0.650393       -0.968184
LJ         0.0704705         1.83734       -0.874609
LJ         -0.811769           1.524      -0.0812227
LJ         -0.030457        0.874959      0.00134262
LJ          0.751881        0.963204       -0.659567
LJ           1.60943          1.6375       -0.912699
LJ          0.787876         2.00839       -0.109657
LJ           1.67127        0.829045       -0.212206
LJ           2.46352         2.36998         0.86491
LJ          -1.40255        -1.84825        0.709292
LJ           2.53423        -1.57422         1.79606
LJ          -2.05088        -2.45633         1.66066
LJ         -0.681581         2.53853         1.11794
LJ          0.164493        -1.62306         0.90365
LJ         -0.900865        -1.77288         1.74544
LJ          0.121146        -2.34943         1.70969
LJ          0.874917         2.31728        0.923442
LJ           1.98662        -1.54554         0.70394
LJ           0.96979        -1.75426         1.72706
LJ           1.69187        -2.51448         1.69098
LJ           2.46777        -0.61776        0.927338
LJ          -1.74515       0.0514438        0.807859
LJ           2.51799      -0.0214508         1.79467
LJ          -1.89244       -0.806248          1.7254
LJ         -0.730608       -0.885161         1.04944
LJ        0.00234445      -0.0306168        0.990256
LJ         -0.839089        0.174108         1.95068
LJ          0.234428        -0.95236         1.85687
LJ           1.03758        -1.02016        0.747283
LJ           1.61611       -0.192354        0.743343
LJ          0.856859       0.0734459          1.9108
LJ           1.56112       -0.879363         1.78079
LJ            2.3626         0.69321        0.816795
LJ          -1.47182         2.01584        0.809093
LJ           2.47572          1.6606         1.57268
LJ          -1.78513         0.94175         1.59442
LJ         -0.836518        0.659391        0.868669
LJ          0.254829         1.48283        0.730449
LJ          -0.82957         1.63745         1.58111
LJ        -0.0110935        0.836049         1.58952
LJ          0.995687        0.792503        0.857999
LJ           1.57203           1.697        0.571234
LJ          0.862817         1.58555          1.7434
LJ           1.90871        0.825523         1.77502
