108
#Comment!
LJ          -2.43595        -2.42317         2.53272
LJ           -1.7695        -1.46657         2.50468
LJ           -2.2578        -1.53695        -1.77888
LJ          -1.63054         -2.3759        -1.85322
LJ         -0.825993         2.26387        -2.40235
LJ         -0.115343        -1.56305         2.40362
LJ          -0.89931        -1.52316        -1.95627
LJ         0.0307702         2.50605        -1.92002
LJ           1.02901        -2.37852        -2.43597
LJ           1.68743        -1.60425          2.4349
LJ           1.20177        -1.69093        -1.64811
LJ           1.90368         2.46922        -1.54249
LJ           2.39555       -0.621085        -2.54699
LJ          -1.84395      -0.0356391         2.29723
LJ          -2.47073      -0.0740324        -1.74022
LJ          -1.50655       -0.637503        -1.70756
LJ         -0.938593       -0.695929        -2.52926
LJ         0.0425738       -0.188174        -2.48466
LJ         -0.821921       0.0902661        -1.72788
LJ          0.162583       -0.926525        -1.62738
LJ          0.766975       -0.920002        -2.50585
LJ           1.62556      -0.0145518        -2.42946
LJ          0.762381        0.144174        -1.68464
LJ           1.60588       -0.605882        -1.53895
LJ          -2.52256        0.867631        -2.39226
LJ          -1.78042         1.96634         2.42178
LJ          -2.47699         1.68673        -1.55304
LJ          -1.59683        0.760094        -2.05936
LJ         -0.522575        0.718358         2.52912
LJ          0.103478         1.75501         2.33954
LJ          -1.30413         1.78662        -1.70035
LJ         0.0298365         1.01496        -1.70338
LJ           1.09581        0.999839        -2.45087
LJ           1.71456         1.87349         2.48901
LJ          0.967029          1.8988         -1.9072
LJ           1.80051        0.851927        -1.79019
LJ          -2.56488        -2.56227       -0.741958
LJ          -1.45999        -1.69318       -0.896031
LJ          -2.29575        -1.62683        -0.13234
LJ          -1.65311         2.39281        0.105934
LJ         -0.664144        -2.44719        -1.01144
LJ         0.0226837        -1.76827       -0.657576
LJ         -0.751263        -1.75257      -0.0236342
LJ         0.0526043         2.35734        0.135548
LJ          0.779938         2.46853       -0.895488
LJ           1.94071        -1.61218        -0.92096
LJ          0.800538         -1.8744        0.187362
LJ           1.70251        -2.46286       0.0352724
LJ          -2.35999        -0.81433       -0.897269
LJ          -1.80143        0.104664       -0.935062
LJ          -2.37953      0.00556178     -0.00277816
LJ           -1.6167        -0.67735      -0.0346577
LJ         -0.769218       -0.772433       -0.703026
LJ         -0.055893        0.107963       -0.988929
LJ         -0.625034      -0.0373756        0.088954
LJ        -0.0310426       -0.862287        0.139286
LJ           1.00271        -1.09175       -0.783547
LJ           1.83217       -0.223413       -0.585605
LJ          0.778211       0.0497499        0.164483
LJ           1.97363        -1.04399       0.0343114
LJ           2.41548        0.777923       -0.769394
LJ          -1.84228         1.67651       -0.735953
LJ           2.55628         1.66937      -0.0707111
LJ          -1.83919        0.941094        0.111711
LJ          -1.05688        0.840482       -0.951742
LJ         0.0886542         1.74935       -0.818807
LJ          -0.78974         1.65621       -0.136986
LJ         0.0616317        0.873594       -0.146137
LJ          0.902705        0.919333       -0.903249
LJ           1.60176         1.73384       -0.850589
LJ          0.889051          1.7185      -0.0813073
LJ           1.59185         0.80622        0.105748
LJ           2.50193          2.4851        0.694353
LJ          -1.47325        -1.84849        0.781691
LJ           2.56415        -1.44033          1.5609
LJ          -1.95886        -2.39581         1.66123
LJ         -0.895543         2.40806         1.00945
LJ         0.0305827        -1.47156         1.08759
LJ          -1.01409        -1.65295         1.79605
LJ         0.0127411        -2.30033         1.74931
LJ          0.715591         2.40071        0.900141
LJ           1.67974        -1.52021         1.07583
LJ          0.820849        -1.70589         1.82291
LJ           1.74946        -2.54557         1.44923
LJ          -2.37197       -0.777916         0.72076
LJ          -1.63895       0.0738062         0.80782
LJ           2.39616      -0.0147018         1.63831
LJ          -1.68454       -0.892487         1.59017
LJ         -0.840113        -0.84317         1.02519
LJ          0.131063       -0.153546        0.865093
LJ         -0.916265       0.0554487         1.86669
LJ          0.215579        -0.75397         1.77576
LJ          0.981069       -0.907516        0.574434
LJ            1.7576       -0.353433        0.800073
LJ          0.851154       0.0773772         1.73915
LJ           1.51783       -0.799259         1.77155
LJ           2.39271        0.982219           1.051
LJ          -1.85907         1.66047        0.967702
LJ           2.46162         1.89131         1.53598
LJ          -1.73757        0.851939         1.70693
LJ         -0.843164        0.925034        0.806619
LJ          0.353672         1.39245        0.790338
LJ         -0.695493         1.39723          1.7356
LJ          0.064548        0.831472         1.66321
LJ           1.16203        0.631507         1.05603
LJ           1.56801         1.77207         0.69194
LJ          0.949427         1.70903         1.67964
LJ           1.81727         1.08396         1.94386
