108
#Comment!
LJ           2.44601        -2.55424         2.52993
LJ          -1.70347        -1.89301        -2.54914
LJ          -2.49217        -1.68202        -1.79735
LJ          -1.79692         2.52641        -1.69895
LJ         -0.932612         2.34202         2.45887
LJ         -0.173493        -1.82163        -2.47523
LJ         -0.828026        -1.62064        -1.58023
LJ         0.0131776         2.56432        -1.67728
LJ          0.909124         2.55116        -2.53489
LJ           1.63075        -1.82425        -2.51093
LJ          0.850803        -1.49433        -1.62759
LJ           1.86394        -2.41747          -1.724
LJ           2.42879       -0.877874         2.51257
LJ          -1.59114        0.059732         2.52568
LJ          -2.56411        0.151277        -1.81265
LJ          -1.83393        -0.95936        -1.72881
LJ           -1.1465       -0.819694         2.53828
LJ         0.0288052        -0.11213         2.47488
LJ         -0.845072       0.0544131        -1.74472
LJ         0.0431682       -0.820712        -1.67365
LJ          0.868848       -0.958456        -2.55163
LJ           1.81165        0.135493         -2.5299
LJ          0.723377        0.207654        -1.62981
LJ            1.7038       -0.803814        -1.67941
LJ          -2.55993          0.8359         2.54299
LJ           -1.7698         1.78738         2.52054
LJ           -2.5585         1.57641        -1.75767
LJ          -1.74967         0.93427         -1.6848
LJ         -0.688405         0.98857         2.30225
LJ          0.170381         1.76068         2.40592
LJ         -0.906112          1.6169        -1.64999
LJ        -0.0990339        0.909276        -1.86736
LJ          0.772451        0.918208        -2.37342
LJ            1.7482         1.67543        -2.48425
LJ          0.924986         1.78673        -1.61034
LJ            1.7621        0.869141        -1.70754
LJ          -2.48505        -2.41555       -0.836718
LJ          -1.48828        -1.70171       -0.743321
LJ            2.4787        -1.77808      -0.0262202
LJ          -1.58783         2.53169     -0.00923379
LJ         -0.793672        -2.52661       -0.810816
LJ        -0.0836216        -1.72776       -0.944868
LJ         -0.860394        -1.77579        0.125849
LJ         -0.121739         2.43247      -0.0382792
LJ          0.844936         2.52414       -0.871578
LJ           1.56904        -1.81947        -0.83263
LJ          0.734814        -1.79444        0.158053
LJ           1.63388        -2.51199      -0.0636505
LJ          -2.44768       -0.937338         -0.7991
LJ          -1.95313        0.189314       -0.807466
LJ           2.47002       0.0455753      -0.0371002
LJ          -1.63962       -0.868787      -0.0473006
LJ         -0.900322       -0.718834       -0.817435
LJ        -0.0378005      -0.0041534       -0.758409
LJ         -0.848381     -0.00616612      -0.0701587
LJ        -0.0260829        -0.69239      -0.0245416
LJ          0.983684       -0.840483        -0.76065
LJ           1.74485       -0.185763       -0.824609
LJ          0.864879      -0.0550931      -0.0786095
LJ           1.73059        -1.04782       -0.141887
LJ          -2.50862         1.08359       -0.866814
LJ          -1.72219         1.76434        -1.01054
LJ          -2.55939         1.81225        0.138489
LJ          -1.77421        0.923675       0.0952166
LJ         -0.813645         0.74734       -0.803561
LJ         -0.106913         1.66426       -0.983388
LJ         -0.876313          1.7316       -0.158035
LJ         -0.133826         0.95908      -0.0457325
LJ          0.677901        0.943483       -0.843533
LJ           1.74623         1.91131       -0.898824
LJ          0.679515         1.77895      -0.0523078
LJ           1.63441        0.784712       0.0791257
LJ           2.52725         2.51166        0.900544
LJ          -1.57613        -1.69662        0.934171
LJ           2.36344        -1.71129         1.70893
LJ          -1.84079         2.48521          1.6286
LJ         -0.832938         2.50868        0.745911
LJ         0.0259334        -1.74327        0.857995
LJ         -0.909531        -1.74216         1.72977
LJ          0.111844        -2.46309         1.90856
LJ             1.095         2.50524        0.967309
LJ           1.72374        -1.80211        0.865404
LJ          0.934625        -1.57885         1.62782
LJ           1.67709        -2.52398         1.81664
LJ           2.50488        -0.58948        0.908123
LJ          -1.79175       0.0256878        0.870456
LJ          -2.44108      -0.0275357         1.96896
LJ          -1.78243        -0.82153         1.69148
LJ         -0.673034       -0.871928         0.79776
LJ         0.0339029     -0.00567504        0.811248
LJ         -0.641444       0.0886992         1.73631
LJ         0.0227526       -0.841173         1.59615
LJ          0.795274       -0.944071        0.787724
LJ           1.58918      -0.0204258        0.720855
LJ          0.825351       -0.166897         1.78155
LJ           1.65031        -0.88545         1.69804
LJ           2.39223        0.952368        0.849649
LJ          -1.78315         1.72451        0.781904
LJ          -2.52801         1.68399         1.80044
LJ          -1.78209        0.807561         1.66135
LJ         -0.858434        0.681202        0.865608
LJ        -0.0204379         1.64402        0.911117
LJ         -0.819537         1.74009         1.64499
LJ         0.0580363        0.817264         1.56968
LJ          0.846114        0.755129        0.818235
LJ           1.76732         1.77159        0.793193
LJ          0.867113         1.61384         1.70441
LJ           1.66044         1.04377         1.61297
