108
#Comment!
LJ          0.212878        0.113807        -1.88716
LJ          0.825054        -1.58223       -0.801991
LJ           2.18782         1.01139        0.711623
LJ          -1.82845        -2.17985        -2.11014
LJ          0.336526        -2.51161       -0.209652
LJ           1.05347          2.2441        -1.90847
LJ           1.41499       -0.726035         1.13453
LJ          -2.50404       -0.742462       -0.330355
LJ          0.468631        0.536993        -1.05539
LJ          0.262457        -2.20231        0.745388
LJ           1.56054       -0.888574       0.0598858
LJ           1.87199         1.91293         1.20726
LJ           0.34246        -1.03425        0.405274
LJ          -1.04313         1.98746        -2.43312
LJ          -2.18854         2.04852          1.0731
LJ          0.110203          2.4693        -1.50484
LJ         -0.859183        -1.97503       -0.197781
LJ          0.935787       -0.276167       -0.517764
LJ           2.41974          1.5134       -0.299695
LJ          -2.43114      -0.0140607        0.432344
LJ           2.38686       -0.225892        -1.48376
LJ          -0.61401         2.22735        0.494353
LJ          -0.08751        -0.77061       -0.708639
LJ          -1.66209         2.13321        0.181683
LJ           -1.2667        0.130712         0.69196
LJ           1.08398      -0.0534103         1.78497
LJ            2.0415        -1.62828        0.870526
LJ         -0.866411        -1.09956          1.9488
LJ           1.58142        0.939596       -0.376296
LJ           2.01799        -1.64035       -0.685002
LJ           2.13462       -0.763377         2.13421
LJ          0.758591           1.157        -1.95194
LJ         -0.560224        0.467485        -1.31577
LJ           2.22711        -1.78304         2.49682
LJ           1.27946         -2.4303       -0.968552
LJ          -1.14724         2.38938         1.37721
LJ           1.02963         2.08845         1.80062
LJ            0.1653         2.20985         2.54131
LJ          0.119586         1.87017         1.19107
LJ          0.479081         1.71682        0.200125
LJ           0.57324         1.65866       -0.993008
LJ          0.811909        0.664717         0.15654
LJ         -0.229297        0.451192         1.69357
LJ          -2.49418        0.628592        -2.04657
LJ           1.68199        0.161369        0.348567
LJ            2.0288        0.222242           1.431
LJ           -1.7401        -2.11996        0.788524
LJ          0.389724         1.36568          2.0858
LJ          0.229974      0.00989272        0.613668
LJ          -1.94914         2.13038         2.18667
LJ         -0.804087        -0.67335        -1.83368
LJ            2.5623        0.787004        -1.02762
LJ         -0.456043        -0.61469         1.18616
LJ           -0.7244         -1.7804         0.80405
LJ           1.75944         1.89108         -1.2871
LJ          -2.31127         1.97755        -1.91849
LJ          -1.99477        0.840178         1.08149
LJ         -0.699123        -2.07873        -1.29944
LJ          -1.53817       -0.145923       -0.217582
LJ           1.21593       -0.794381        -2.52032
LJ           1.11716        -1.95777        0.227107
LJ           1.96012        -1.10181        -1.75029
LJ         -0.208814         1.42519        -1.62291
LJ           2.37143        -2.38833         1.62682
LJ         -0.490376         1.44085        -0.28976
LJ          -1.87483        -1.23889        0.295532
LJ           1.77177        0.183587        -2.29416
LJ           -1.7357        0.209873        -1.17021
LJ         -0.585751        0.966735        -2.47713
LJ         -0.700153        -1.56585        -2.24896
LJ          -1.65612        -1.09525        -2.44809
LJ          -2.30349       0.0655025         2.14445
LJ           2.12572        -2.24248        -1.61855
LJ          -1.15026        0.294397         1.82243
LJ          -1.61522       -0.123031        -2.26907
LJ          -1.13209        -1.14067       -0.889516
LJ          0.258686       -0.379639         2.21613
LJ           1.31784        0.991797         2.17348
LJ           1.45969        0.425078        -1.43669
LJ          -2.52659         2.47459       -0.675846
LJ          -2.55404       -0.723743         1.09521
LJ           2.03902       0.0164918       -0.598058
LJ           2.02419         1.36593        -2.07432
LJ         0.0571313         0.99289        0.760708
LJ           -1.8582        0.887759       -0.267736
LJ         -0.827027         1.46222         1.71975
LJ         -0.461672        0.165484        -0.33649
LJ          -1.56542        -1.92838         1.87932
LJ           1.05079         1.17287         1.18816
LJ          -1.61979         2.37268        -1.20142
LJ            2.4843        -2.42196        0.298926
LJ         -0.804825       -0.833877        0.238442
LJ            1.9526         2.16348          2.4073
LJ          0.972787       -0.752994        -1.46972
LJ          0.518087        -1.37603          1.4581
LJ          -1.67102        0.933201         2.42759
LJ          -1.57209         1.25593         -1.6514
LJ         -0.472686        -2.08239         1.79143
LJ          0.418325        -1.82401         2.34627
LJ           1.19111        -1.77072        -1.96245
LJ           1.44407        -1.58122         1.77419
LJ          -1.75715        -1.89113       -0.668179
LJ          -1.05305         1.20379         0.58611
LJ          -2.00843        -1.05949        -1.33246
LJ           2.53462         1.35451         1.93737
LJ          -1.56591       -0.677521         1.19799
LJ            1.5446         2.03918        0.334612
LJ          0.187762       -0.965284        -1.99625
