108
#Comment!
LJ          -2.52522        -2.36566          2.4157
LJ          -1.72331        -1.69346         2.48004
LJ          -2.37108        -1.51563        -1.67739
LJ          -1.73437         2.52918        -1.70783
LJ         -0.804123          2.4192        -2.46184
LJ        -0.0422976        -1.89661        -2.46137
LJ          -1.05501         -1.5437        -1.76111
LJ        -0.0276855         2.23699        -1.81087
LJ          0.824809         2.52511           2.486
LJ            1.7513        -1.67225          2.5569
LJ          0.747125        -1.86732        -1.75004
LJ           2.03103         2.43304        -1.75361
LJ           2.52188       -0.848613         2.50807
LJ          -1.74841       0.0736045        -2.55405
LJ           2.49231       0.0897508         -1.7871
LJ          -1.77722       -0.536154        -1.67996
LJ          -1.03854       -0.763525        -2.43256
LJ         -0.104427       -0.176108        -2.48481
LJ         -0.951595       0.0945336        -1.82376
LJ          -0.11905        -1.10103        -1.86634
LJ          0.871711        -1.12573        -2.55564
LJ           1.70057      -0.0123123         2.49718
LJ          0.977188       0.0350177        -1.87529
LJ           1.61974       -0.654163        -1.78775
LJ          -2.55623        0.927182         2.52177
LJ          -1.66518         1.91462         2.39629
LJ          -2.39991         1.59944        -1.62572
LJ          -1.65418         0.74231         -1.7841
LJ         -0.490848        0.909123         2.54904
LJ         0.0842618         1.72528         2.28665
LJ          -1.13553         1.72672        -1.75477
LJ         0.0861899         1.09747        -1.79691
LJ          0.821505        0.863498         2.51989
LJ           1.71335         1.72098         2.39294
LJ          0.943092         1.88941        -1.89439
LJ           1.67197         1.05513        -1.64715
LJ          -2.56129         2.47626       -0.705348
LJ          -1.49181        -1.68704       -0.850012
LJ          -2.38584        -1.79706       -0.157746
LJ          -1.75959         2.44329      -0.0539406
LJ         -0.692539         2.54653       -0.990112
LJ          0.174594        -1.68504       -0.797999
LJ         -0.715942        -1.94823       -0.181178
LJ         -0.193248         2.26584       0.0556079
LJ          0.810484         2.55293       -0.965347
LJ           1.82195        -1.83458        -1.03574
LJ          0.772127        -1.93791        0.290285
LJ            1.7068        -2.51327        -0.11593
LJ          -2.43419       -0.937711       -0.706796
LJ           -1.9493      -0.0115826       -0.738972
LJ          -2.54937        0.222301       0.0328365
LJ          -1.82105       -0.729077        0.117279
LJ         -0.654699       -0.846004       -0.732002
LJ          -0.12893        0.269115        -1.02577
LJ         -0.610113        0.119757       -0.114135
LJ        -0.0693745       -0.682332        0.142696
LJ          0.937051        -1.03829        -0.78726
LJ           1.85991       -0.143893       -0.579647
LJ          0.753139       0.0446196        0.123476
LJ           1.89326        -1.14398      -0.0783713
LJ          -2.55675        0.974635       -0.803539
LJ          -1.65929         1.81767       -0.847315
LJ           2.45216         1.69911      -0.0409599
LJ          -1.91757         1.16477        0.361401
LJ          -1.10976        0.720067       -0.887511
LJ         0.0927855         1.64111       -0.963527
LJ          -0.79886         1.43409       -0.127843
LJ       -0.00395216         0.91474       -0.189906
LJ          0.974767        0.898613       -0.750098
LJ           1.63828         1.76054       -0.735111
LJ          0.816248         2.02038       -0.021568
LJ           1.72267        0.851325      -0.0833243
LJ           2.42306         2.37523        0.738012
LJ          -1.34385        -1.74274        0.717636
LJ           2.47778        -1.48777         1.70721
LJ          -2.02155        -2.35675         1.39806
LJ         -0.794332         2.51511        0.974187
LJ           0.11393         -1.4632        0.964805
LJ         -0.946694        -1.85146         1.86636
LJ         0.0320114        -2.34344         1.71125
LJ          0.754208         2.39706        0.982384
LJ            1.8189        -1.67483        0.860547
LJ           0.95714        -1.78934         1.79841
LJ           1.75663        -2.44723         1.67743
LJ           2.47094        -0.63947        0.870627
LJ          -1.58162       0.0262352        0.858063
LJ           2.48234       0.0431209         1.75375
LJ          -1.73689       -0.786088         1.76776
LJ         -0.775378        -1.04795         1.06328
LJ          0.211657       -0.102928         1.07053
LJ         -0.968866        0.156895         1.97462
LJ          0.116086        -0.92519         1.87436
LJ           1.04099        -1.03727        0.807468
LJ           1.60843       -0.166666        0.608571
LJ          0.702121       0.0118174         1.97746
LJ           1.55495       -0.782544         1.76955
LJ           2.25076        0.832394        0.857164
LJ          -1.58625         1.94232         1.03453
LJ            2.4847         1.65699         1.51903
LJ          -1.84983        0.892563         1.52266
LJ         -0.785947        0.744466        0.783816
LJ          0.249856         1.42915        0.791743
LJ           -0.8467         1.44297         1.55288
LJ          0.141291         0.86785         1.69301
LJ           1.15842        0.754726        0.989022
LJ            1.4696         1.73535        0.651334
LJ          0.916067         1.52342          1.5993
LJ           1.64847        0.761897         1.88696
