108
#Comment!
LJ           1.60731         2.51374        0.766022
LJ          -1.89768        -1.37748        0.636438
LJ         -0.430545        -2.36682       -0.163386
LJ           -1.6764         2.22961        0.609582
LJ          -1.31145        0.172463         1.49448
LJ            1.2813       -0.795519        0.456307
LJ           1.74952       -0.691903         1.37407
LJ          0.839328         1.01552         1.73814
LJ          -1.16686         2.37136        -2.53381
LJ           -1.2897         1.10873        -2.11543
LJ          -2.35835         2.22397        -2.23872
LJ           1.95714        -2.32287         2.10206
LJ          0.484514         1.73269         2.43609
LJ          0.195396          1.3151        0.985709
LJ           1.53299         1.59456         -2.5582
LJ          0.903074        -2.42148       -0.542191
LJ          0.403044        -1.14184         2.29085
LJ          0.637413       0.0881591         2.37977
LJ          0.489057         2.50947        0.418943
LJ           2.45658        0.906043       -0.566374
LJ           -1.4055       -0.303784        0.446086
LJ          -1.20833         2.33497        -0.61395
LJ           1.80321        -2.27324       -0.841337
LJ          -1.15764       -0.811565       -0.464247
LJ           1.21811        -1.83666         1.17038
LJ         -0.200201        -2.31578            2.42
LJ           2.03218        -1.11935       -0.908272
LJ           2.26151        -1.31945         2.08653
LJ          -2.47353        -2.54969        0.996014
LJ          0.588944       -0.872571         1.25358
LJ          -2.02405        -1.93595        -2.39612
LJ           1.49966       -0.196845       -0.488414
LJ           2.48985        -1.50639      -0.0782168
LJ           1.58796        0.489945         2.22588
LJ          0.756513        -1.16791        -0.57458
LJ         -0.953886        -1.69311         2.04833
LJ         -0.480075         2.26497        0.819863
LJ          0.915865        -1.95893        -1.55193
LJ        -0.0352655         -1.7514         1.27412
LJ          -1.71062         1.43955       -0.102578
LJ          -1.54144         1.97323        -1.57198
LJ          -2.32219         1.87527        -0.78817
LJ          -2.28589         1.72775         1.84293
LJ         -0.468517       -0.393203        -2.55514
LJ         -0.853648       -0.924104        -1.76185
LJ           2.50414       -0.314362        -1.39142
LJ            1.5069       -0.750232           2.424
LJ          -0.71062        0.107033        -1.06672
LJ           1.56276        -1.78164        0.120682
LJ          -1.38034         2.23949         1.50252
LJ            -1.341          1.2951         1.98328
LJ          -2.34564        0.425286        0.429307
LJ          -1.06348        -1.71829        0.928522
LJ           2.45541       -0.136999        -2.52744
LJ          -2.51509       -0.234913       -0.359731
LJ          -1.64285       -0.129401        -1.51546
LJ         -0.345403         2.56197         -1.2214
LJ           2.37868        -2.55501      -0.0767922
LJ           0.92987         1.07088         -1.8271
LJ         -0.494762         1.78977         -1.9141
LJ           1.61667         1.82611       -0.600469
LJ         -0.462632         1.60288       -0.136969
LJ           1.55742         2.33237        -1.71372
LJ          -1.20245        -2.05146        -1.47859
LJ           1.02551     -0.00889277        -1.36786
LJ           2.45731        0.924006         2.55418
LJ         -0.454656         1.94522         1.89667
LJ         -0.124641        0.667954         1.88629
LJ           1.05048        0.891628        -0.71713
LJ          -1.68478        0.436909       -0.453174
LJ           1.88385        0.311449        -1.78957
LJ            1.9166         1.36364          -1.489
LJ          -1.99555        -1.91009         1.66631
LJ          -1.61803       -0.629714        -2.44908
LJ          -2.17289        0.890603        -1.46067
LJ          0.954986        -2.30355         2.55099
LJ        -0.0334595          -1.493        -2.04839
LJ         -0.386373        -1.36578        -0.56561
LJ           2.49295       -0.638029        0.592042
LJ           1.72363         1.23508         1.23245
LJ           1.25391       -0.960889        -1.58235
LJ          0.442846       -0.383406      -0.0811824
LJ          -1.33732        -1.75162       -0.176016
LJ         -0.166833        0.677355        -2.15616
LJ           2.41502         1.61693        0.371368
LJ            1.2259        0.130949         1.24281
LJ           2.42906        0.235037         1.59025
LJ          -1.81484         0.31464         2.44493
LJ          0.480942         1.72067       -0.477258
LJ           2.13887        -1.54827        -2.00625
LJ          0.441987        -1.51131        0.281669
LJ          -1.74601        0.980784         1.12743
LJ          0.429207         2.45043         1.57535
LJ           2.26719        -1.51183        0.987392
LJ        -0.0189783       -0.062348         1.02098
LJ          -2.43515        -2.27113         -1.3926
LJ           -1.0165         1.24233       -0.994676
LJ          0.513757         2.08613        -1.69415
LJ         -0.652834       -0.862439         1.49589
LJ          0.186164        -0.59471        -1.49579
LJ           0.11424        0.922547         -1.2162
LJ           1.22953         1.66972        0.405291
LJ          -2.14893        -1.36159        -1.02403
LJ         0.0416418        0.623735        -0.13805
LJ          -1.70835       -0.798236         1.56331
LJ           1.64354        0.659614        0.212326
LJ         -0.507841        -1.07243        0.414439
LJ         -0.826837         1.24522        0.755963
