108
#Comment!
LJ           2.49338        -2.52581         2.49714
LJ          -1.73407        -1.83624          2.4828
LJ          -2.49011        -1.67353        -1.53437
LJ          -1.86487        -2.45834        -1.78813
LJ         -0.996524         2.47102         2.46508
LJ         -0.131691        -1.89141         2.54856
LJ         -0.949392        -1.49575        -1.69312
LJ          0.110765         2.35591         -1.7499
LJ          0.920733         2.51266        -2.43372
LJ           1.75529        -1.70108         2.50558
LJ           0.85702        -1.62868        -1.55188
LJ           2.03573        -2.45803        -1.63979
LJ           2.44361       -0.800714        -2.51156
LJ          -1.83761        0.096183         2.51704
LJ          -2.46857        0.115923        -1.73145
LJ          -1.66444       -0.632126        -1.35512
LJ          -1.23153       -0.924441         2.53896
LJ        -0.0955444       -0.228742          2.5441
LJ         -0.853646        0.124244        -1.74418
LJ         0.0389956       -0.949578        -1.78521
LJ           1.01761        -1.02571        -2.53081
LJ           1.70624       0.0545885         2.54559
LJ          0.777323      0.00120166        -1.55655
LJ           1.77947       -0.822798        -1.72753
LJ          -2.53423         1.08478         2.45929
LJ           -1.7972         1.86733         2.56053
LJ          -2.55741         1.64654        -1.73929
LJ            -1.658        0.949609        -1.88871
LJ         -0.789721         1.03369          2.4913
LJ         0.0606001         1.72275         2.43761
LJ         -0.801245         1.58556        -1.82165
LJ          -0.07686        0.830598        -1.77364
LJ          0.901335        0.882902        -2.39332
LJ           1.83981         1.87743         2.48022
LJ           1.02199         1.78496        -1.54233
LJ           1.79255        0.834789        -1.75995
LJ          -2.41352         2.53493        -0.69743
LJ          -1.56303        -1.84889       -0.639773
LJ           2.53297        -1.75704       -0.110376
LJ          -1.65678         2.44391      -0.0116879
LJ         -0.777675         2.44074       -0.981428
LJ         0.0723771        -1.74514        -0.90224
LJ         -0.790007        -1.79954       0.0523417
LJ          -0.21992         2.32745      -0.0469283
LJ          0.855668        -2.51242       -0.950983
LJ           1.71054        -1.60081       -0.876001
LJ          0.681745        -1.98854        0.133758
LJ           1.63649         -2.3866       -0.168743
LJ            2.4932       -0.816073       -0.745454
LJ          -1.86842         0.14025       -0.741396
LJ           2.51163      -0.0666503       0.0398038
LJ          -1.71714       -0.767788      -0.0310277
LJ         -0.762781       -0.712877       -0.805431
LJ        -0.0140337        0.241164       -0.943083
LJ          -0.81541      -0.0470374      -0.0859095
LJ         0.0435727       -0.787909       0.0962546
LJ          0.814524       -0.910148       -0.702886
LJ           1.73005      -0.0957974        -0.82537
LJ          0.846437        0.046116      -0.0648857
LJ           1.60592       -0.921285       -0.103223
LJ          -2.48643          1.0113       -0.858044
LJ          -1.61176         1.72179        -1.09963
LJ          -2.54721         1.72967       0.0801127
LJ          -1.84827         0.81568       0.0511897
LJ          -1.02847         0.80133         -0.8385
LJ        -0.0869314         1.48421       -0.941986
LJ         -0.839846         1.47693       -0.059148
LJ         0.0385038        0.934935        0.108992
LJ          0.842556        0.999676       -0.746516
LJ           1.86527         1.67775       -0.992766
LJ          0.850133         1.95454        -0.01848
LJ           1.75593        0.874002       -0.133388
LJ           2.40523        -2.54399        0.890724
LJ          -1.47398        -1.66108        0.810782
LJ          -2.56312        -1.49663         1.82362
LJ            -2.041          2.4832         1.68656
LJ         -0.700358        -2.50664        0.970696
LJ          0.198903         -1.8321        0.942315
LJ         -0.962326        -1.68118         1.75556
LJ         0.0693483        -2.41239         1.77816
LJ           1.14611        -2.55077        0.865833
LJ           1.77219        -1.47479        0.846683
LJ          0.906809        -1.72639         1.67196
LJ           1.55327        -2.44958         1.84495
LJ           2.52309       -0.580312         1.00768
LJ          -1.84877        0.063424         0.89592
LJ           2.52007       0.0494156         1.84634
LJ           -1.6514       -0.877244         1.58455
LJ         -0.723374       -0.900162        0.999888
LJ          0.104696       -0.111247        0.949973
LJ         -0.931418       0.0829897         2.02269
LJ          0.114415       -0.915963         1.63367
LJ          0.949408       -0.786209        0.856898
LJ           1.62368       -0.126132        0.548933
LJ          0.728239       -0.176307         1.93088
LJ           1.75869       -0.792331         1.70587
LJ           2.39692        0.772434        0.728138
LJ          -1.51214         1.86306         0.79874
LJ          -2.50841         1.55778         1.49829
LJ          -1.51516        0.886392         1.72188
LJ         -0.949855        0.687684        0.716836
LJ         0.0749683         1.66879        0.891024
LJ         -0.814363         1.68803         1.43811
LJ        -0.0201801        0.916034         1.66008
LJ          0.800776        0.665187        0.952758
LJ           1.81307         1.70997         0.79913
LJ           1.03913         1.63408          1.7699
LJ           1.76755        0.755285         1.55161
