108
#Comment!
LJ          -2.49129        -2.41851         2.54499
LJ          -1.68659        -1.48831         2.50759
LJ          -2.26224        -1.53368        -1.76014
LJ           -1.6275        -2.45395        -1.77646
LJ         -0.778959         2.30083        -2.44669
LJ          -0.10414         -1.5218         2.50179
LJ         -0.963757        -1.55212        -1.95494
LJ         0.0931574        -2.53401        -1.91742
LJ           1.02132        -2.37609        -2.41617
LJ           1.69536        -1.52606         2.43888
LJ            1.1735        -1.65997        -1.70509
LJ           1.86802          2.5216        -1.65207
LJ           2.42849       -0.655852        -2.54473
LJ          -1.80289      -0.0101561         2.31225
LJ          -2.52321      -0.0423883        -1.74528
LJ          -1.53578       -0.586668        -1.73788
LJ         -0.871389       -0.732947         2.54082
LJ         0.0668327       -0.098722        -2.39205
LJ         -0.826967       0.0450317        -1.69823
LJ            0.1492       -0.956277         -1.6914
LJ          0.727399       -0.984117        -2.50784
LJ           1.64831       0.0518664        -2.40564
LJ          0.849322        0.141872        -1.71384
LJ           1.55411       -0.562196         -1.5292
LJ           -2.5247        0.826086        -2.39785
LJ          -1.82876         1.93635         2.37853
LJ          -2.47783         1.70427        -1.57793
LJ          -1.54053        0.710317        -2.03594
LJ          -0.55465         0.74831          -2.559
LJ         0.0338558         1.72804         2.27053
LJ          -1.28268         1.72059        -1.74364
LJ         0.0624662          1.0039        -1.70639
LJ           1.05461         1.03584         -2.5019
LJ           1.72867         1.89517         2.49418
LJ           0.92909         1.95091        -1.80817
LJ             1.836        0.932198        -1.78949
LJ          -2.51613          2.5191       -0.736289
LJ          -1.42403        -1.69158       -0.909515
LJ          -2.32797        -1.61736       -0.105418
LJ          -1.57671         2.40299        0.153517
LJ          -0.65861         -2.4607       -0.986401
LJ         0.0632865        -1.76768       -0.690428
LJ         -0.765481        -1.72937      -0.0012576
LJ       -0.00759114          2.3088        0.170876
LJ          0.811613         2.55982        -1.03101
LJ            1.8909        -1.60362       -0.917146
LJ          0.936167        -1.86567        0.251043
LJ           1.74203        -2.47691       0.0968329
LJ          -2.38249       -0.774929       -0.860406
LJ          -1.80695        0.174117       -0.927263
LJ          -2.34547       0.0830837      -0.0459656
LJ          -1.60674       -0.679273      -0.0485389
LJ         -0.753816       -0.808376       -0.698327
LJ        -0.0288195       0.0726487        -1.02127
LJ         -0.654008      -0.0676808       0.0822037
LJ       -0.00513068       -0.908379         0.19286
LJ           1.00949        -1.11229       -0.672472
LJ            1.7729       -0.240028       -0.672566
LJ          0.811882       0.0721466        0.104308
LJ           1.96013        -1.05493        0.020288
LJ           2.46697        0.749244       -0.719462
LJ          -1.87787         1.72846        -0.68209
LJ           2.51903         1.68454      -0.0319955
LJ          -1.78134        0.871168        0.187114
LJ         -0.991493         0.73513       -0.943424
LJ         0.0243181         1.71953       -0.832558
LJ         -0.697624         1.67716      -0.0589057
LJ         0.0401409        0.847908       -0.136229
LJ          0.837766         1.07091       -0.971767
LJ           1.66894         1.72603       -0.814374
LJ          0.946145         1.66931       -0.152092
LJ           1.65886        0.801553       0.0576611
LJ           2.47874         2.43696        0.758743
LJ          -1.49356         -1.8325        0.794228
LJ           2.49572         -1.3951         1.59106
LJ          -1.90626        -2.33676         1.63548
LJ         -0.894267         2.47022        0.936757
LJ        0.00802681        -1.46152         1.10412
LJ          -0.88399        -1.68991         1.75582
LJ        0.00598163        -2.29901         1.75859
LJ          0.817777         2.33058        0.911489
LJ           1.68795        -1.56448         1.01833
LJ          0.774595        -1.64068         1.76381
LJ           1.70863          -2.479         1.52283
LJ          -2.32576       -0.792186        0.752862
LJ          -1.71198        0.069109        0.816216
LJ            2.4676       0.0412459         1.63239
LJ          -1.64138       -0.907752         1.56264
LJ         -0.867955       -0.837543         1.01237
LJ           0.14518       -0.195181        0.826698
LJ         -0.920214       0.0190806         1.80628
LJ           0.18107       -0.784148         1.80203
LJ           1.05307       -0.875025         0.58158
LJ           1.81033       -0.283931        0.864825
LJ          0.812153      0.00322274         1.71222
LJ           1.45676       -0.771226         1.71244
LJ           2.35278        0.894139         1.08816
LJ          -1.85148         1.68139        0.949466
LJ           2.45444         1.84483         1.59827
LJ          -1.74987        0.853962          1.6987
LJ         -0.878827        0.979172        0.832764
LJ          0.368458         1.34813        0.732293
LJ         -0.730522         1.47595         1.70392
LJ           0.12875        0.747881         1.70184
LJ           1.17815        0.570294        0.976988
LJ           1.58901         1.81016        0.681667
LJ           0.96353         1.70941         1.68376
LJ           1.82259         1.02814         1.91416
