108
#Comment!
LJ           2.49332        -2.55424         2.45546
LJ          -1.80637        -1.77993         2.44732
LJ          -2.51844        -1.70679        -1.52406
LJ          -1.77898        -2.51349        -1.82893
LJ          -1.00906         2.43408         2.49039
LJ        -0.0530496        -2.00054          -2.469
LJ         -0.894554        -1.49841        -1.62375
LJ         0.0770961          2.3345        -1.63049
LJ           1.00592         2.47449        -2.36228
LJ           1.78491        -1.65323         2.54209
LJ          0.921597        -1.69479        -1.60117
LJ           2.02144        -2.52298        -1.51302
LJ           2.50656         -0.8026        -2.48572
LJ          -1.81304       0.0333633         2.49457
LJ          -2.48863         0.12886        -1.73039
LJ          -1.65081       -0.655107        -1.32149
LJ          -1.18851       -0.923595        -2.50642
LJ         -0.108232       -0.210687        -2.50673
LJ         -0.817962       0.0864409        -1.81806
LJ         -0.031478       -0.937688         -1.7454
LJ           1.00542        -1.05769        -2.45353
LJ           1.66945       0.0708648         2.55103
LJ          0.753509      -0.0131093        -1.53994
LJ           1.73728       -0.840279         -1.7091
LJ          -2.51537         1.03218         2.34047
LJ          -1.77062         1.86099          2.5562
LJ          -2.53443         1.68216        -1.77875
LJ          -1.70189        0.928826        -1.90887
LJ         -0.718449         1.07199         2.54122
LJ         0.0776981         1.81556         2.52097
LJ         -0.753379         1.67986        -1.77032
LJ         0.0521598        0.838174         -1.8967
LJ           0.85367        0.805262        -2.46365
LJ           1.82417         1.86826          2.4488
LJ          0.913086         1.73382        -1.56049
LJ           1.83813        0.805427        -1.77073
LJ          -2.45148         2.43672       -0.661008
LJ          -1.50722        -1.84799       -0.597536
LJ           2.52139        -1.74308       -0.124619
LJ          -1.60124         2.37595       -0.107657
LJ         -0.760822          2.4845       -0.943028
LJ         0.0361544        -1.73756       -0.881732
LJ           -0.6302        -1.80521       0.0550032
LJ         -0.232393         2.34975       0.0202443
LJ          0.837515        -2.45444       -0.854813
LJ           1.76424        -1.64712       -0.886542
LJ          0.724313        -1.98977       0.0896793
LJ           1.64185        -2.37696       -0.120688
LJ          -2.51938       -0.872511       -0.763298
LJ           -1.8429        0.177236       -0.720382
LJ           2.40097      -0.0341304       0.0241036
LJ           -1.7118       -0.895802      0.00406998
LJ          -0.67317       -0.806151       -0.831408
LJ         0.0199478        0.267991       -0.941721
LJ          -0.73956       -0.132361      -0.0759019
LJ           0.03326       -0.789605        0.167034
LJ          0.823924       -0.786616        -0.76941
LJ           1.80136       -0.109204       -0.856704
LJ          0.748282       0.0449256      -0.0589256
LJ           1.60821        -0.96323      -0.0785146
LJ          -2.40925        0.992128       -0.886684
LJ          -1.63887         1.71278        -1.07338
LJ          -2.55675         1.60537       0.0657695
LJ          -1.93152        0.827532       0.0470399
LJ         -0.993549        0.730062        -0.81799
LJ         -0.106192         1.54323        -0.82812
LJ         -0.817713         1.51166      -0.0532758
LJ         0.0842546         1.02136        0.042093
LJ          0.868844         1.06491       -0.722082
LJ           1.80263         1.64464       -0.956633
LJ          0.852325         1.91496       0.0605573
LJ           1.76474        0.846103       -0.139814
LJ           2.41974        -2.48101        0.847315
LJ          -1.50266        -1.66498        0.748149
LJ          -2.52714        -1.43658         1.76915
LJ          -1.97997         2.49992         1.55255
LJ         -0.689898        -2.49222        0.998694
LJ          0.138255        -1.80677        0.942254
LJ         -0.960587        -1.65592          1.7385
LJ         0.0428586        -2.39565         1.70761
LJ           1.04596        -2.54167        0.925451
LJ           1.74033        -1.47145         0.76312
LJ          0.868406        -1.65089         1.68101
LJ           1.53672        -2.46005         1.84789
LJ           2.55998       -0.572617         1.06568
LJ          -1.80784     -0.00869405        0.835891
LJ           2.51352        0.129809         1.82997
LJ          -1.66321       -0.893207         1.48992
LJ         -0.762462       -0.908466         0.87413
LJ          0.105268       -0.106806         1.05479
LJ         -0.867926        0.203016         2.08591
LJ           0.13718       -0.945824         1.65201
LJ           1.00888        -0.81404        0.831765
LJ           1.59606       -0.122603        0.556175
LJ          0.743506       -0.121517         1.86543
LJ           1.67041       -0.809692         1.69177
LJ           2.44646        0.676767        0.704751
LJ          -1.47024         1.94529        0.798435
LJ          -2.55976         1.60605         1.45822
LJ          -1.48538        0.880367         1.60682
LJ         -0.853849        0.788048        0.658817
LJ          0.129515         1.66794        0.970204
LJ         -0.790395         1.68805         1.47219
LJ         0.0141382        0.903747          1.6559
LJ          0.804917        0.615939        0.943854
LJ           1.82375         1.69289        0.745674
LJ          0.972694         1.69432         1.71985
LJ           1.67959        0.730217         1.61761
