108
#Comment!
LJ          -1.35204        -1.79653         2.36717
LJ         -0.550151        0.413436        -2.21863
LJ           2.26553         1.45214         -2.3229
LJ           1.51305         2.52871        -2.22112
LJ        -0.0595574         1.11353       -0.688951
LJ           2.52011        0.473969        -2.13798
LJ         -0.792861       -0.755053        -2.30607
LJ           1.36728        -0.96783        -1.02437
LJ            1.5859        0.933712         1.29352
LJ           2.00497        -2.25024       -0.068221
LJ         0.0206683        -2.29971        0.156011
LJ          0.564627        -0.30848        -1.64365
LJ         -0.778861         2.38604         2.29388
LJ           -1.4755         -1.0405        0.983712
LJ          0.826293         -2.5543       -0.460223
LJ          -2.42539         1.86808        0.926516
LJ          -1.84638       -0.436657        -2.06447
LJ          0.596159        0.332546         1.31318
LJ         -0.659895       -0.746381         -1.2323
LJ            0.7737         2.41741        0.894201
LJ          -2.30341        -1.31381        -2.53365
LJ          0.435171        0.371813        0.327238
LJ           1.77575       0.0121805        -1.14087
LJ          0.178535         1.69978        0.247751
LJ          -1.59212       -0.637775         1.84019
LJ           1.02923        -1.84261        0.471079
LJ           1.73844         1.94306         0.62485
LJ           -1.5929          2.3601         1.65074
LJ           1.56032         2.52959         1.63997
LJ          -1.51218         1.92804        -1.04229
LJ          -0.93168         1.77798      -0.0353603
LJ           -1.9671       0.0625097      -0.0432368
LJ            1.8088         1.64594          2.0112
LJ          0.291859       -0.985279        -2.51183
LJ          0.340904         0.20087         2.48183
LJ           2.48739        0.998959       -0.507017
LJ         -0.459344        -1.77024        -2.09085
LJ           0.70422         2.03716         1.93489
LJ           2.05803       0.0514914       0.0659136
LJ         -0.799778         1.34785         -1.4546
LJ           0.25119         1.03173        -1.76902
LJ           1.82798         1.50591        -1.37773
LJ          -2.56175            2.16         -1.4979
LJ         -0.648717         1.45746        -2.52426
LJ          -2.31648       -0.387399         1.01445
LJ          0.339302         1.04987         2.08398
LJ          -1.79394         2.53625        -2.14657
LJ          -1.90925          1.3588         2.43981
LJ           2.14855       -0.552188        -1.98641
LJ         -0.574922        -1.08995          1.8751
LJ          0.119948        -1.51264        0.898207
LJ         -0.270682         2.14864          1.1755
LJ          0.647941        -1.34903       -0.227049
LJ          0.764527       -0.232297        -0.51581
LJ           1.96144         1.96008       -0.378118
LJ          -2.04143         1.93768        -0.19864
LJ           -1.2384        -2.10913        -1.03256
LJ           1.93249       -0.684034         1.30962
LJ           -2.4415        -1.38366         1.51235
LJ          -1.47375        0.564578        -1.77633
LJ            1.7693        -1.52111         2.31793
LJ         -0.396233        0.692276         1.16433
LJ            1.0735         2.19672        -1.34606
LJ          -1.64948        0.358533        0.930609
LJ          -1.02204        -1.96329       0.0245229
LJ          -1.52738        0.946584       -0.715341
LJ           1.18998         1.52341        -2.29995
LJ          -1.84132        -1.36431        -1.51237
LJ          0.487504         -1.4704        -1.32215
LJ          -2.22463         1.16339        -1.54985
LJ          -1.67128         1.16169          0.3608
LJ          -1.90291        -1.32747         0.13192
LJ           2.03254       -0.997643        0.158012
LJ          0.890174         1.32677       -0.914993
LJ           2.04326        -2.08296        0.919157
LJ           1.29227         0.49864        -2.04374
LJ           1.23661         1.05491        0.272301
LJ          -2.12743        -2.36872        0.486476
LJ            2.4728        0.754807        0.701595
LJ           1.21539        -1.12653        -2.06929
LJ          -1.58728        0.304131         2.43338
LJ          -2.37692        0.622797         1.71236
LJ         -0.335298        0.255022        -1.07957
LJ         -0.305324       -0.198924        0.751825
LJ          -0.28749        -1.70348       -0.811785
LJ         -0.841449         2.35713        -1.80793
LJ          0.600169         -1.9877         -2.2571
LJ          0.948364        -1.43347         1.73612
LJ         -0.681741       -0.978037       -0.181944
LJ           2.50649       -0.714177       -0.825099
LJ         -0.883133        -2.10883         1.07551
LJ          -1.00046        0.367294        0.119514
LJ          0.239511       -0.561604         1.58709
LJ          -2.20595       0.0959572        -1.21639
LJ         -0.146562         2.30427       -0.934173
LJ          0.894721       -0.621795        0.603089
LJ           1.65363        -1.98516        -1.02896
LJ           2.26177        -1.61818        -1.71681
LJ          0.540655         1.40783         1.15009
LJ         -0.590232        0.108936         1.94725
LJ          -2.51979       -0.301634         2.28435
LJ        -0.0653108        -2.12355         1.81806
LJ          -1.59104       -0.656819       -0.828262
LJ          -2.53979         2.42846         2.22811
LJ          -1.18095         1.43637         1.41454
LJ          -2.24834         -2.2668       -0.630928
LJ          0.288974          2.0001        -2.20912
LJ           1.37877       -0.251597         2.22491
