108
#Comment!
LJ           2.53809         -2.5418         2.50737
LJ          -1.78332        -1.74201         2.50068
LJ           -2.5111        -1.65108         -1.8474
LJ          -1.78517         2.50922        -1.61505
LJ         -0.866933         2.51533        -2.45224
LJ         0.0296589        -1.99532         -2.4572
LJ           -1.1748        -1.49276        -1.76517
LJ        -0.0530413         2.31477        -1.86511
LJ          0.785591         2.54834         2.45329
LJ           1.77782         -1.6985        -2.54071
LJ          0.800671        -1.95281        -1.76614
LJ           1.88501         2.52293        -1.71068
LJ           2.54469        -0.93666         2.55611
LJ          -1.81654       0.0107943          2.5614
LJ           2.49375         0.17132        -1.96432
LJ          -1.73686       -0.587541        -1.68175
LJ          -1.10899       -0.762438        -2.43887
LJ        -0.0475514       -0.258854        -2.45417
LJ          -0.81623       0.0287064        -1.80961
LJ         -0.149944        -1.20153        -1.89376
LJ          0.847915        -1.18522        -2.47453
LJ           1.69436     -0.00360959         2.54846
LJ          0.872639       0.0490827        -1.79878
LJ           1.71072       -0.569948        -1.79546
LJ           2.56314        0.937648         2.46626
LJ          -1.68971         1.93158          2.4477
LJ          -2.37058         1.64171         -1.6159
LJ          -1.65469        0.796875        -1.85775
LJ         -0.613242        0.931164         2.47589
LJ         0.0959139         1.66824         2.35796
LJ          -1.09297         1.64155        -1.78576
LJ         0.0812227         1.05481        -1.74292
LJ          0.917693        0.810175         2.44244
LJ           1.82243         1.91568         2.42395
LJ          0.965997         1.94651        -1.73151
LJ           1.59944          0.9518        -1.63932
LJ           2.53186         2.44078       -0.773299
LJ          -1.40197         -1.6792       -0.800856
LJ          -2.42381        -1.89427       -0.141113
LJ          -1.65398         2.50173      -0.0276096
LJ         -0.877209        -2.55593        -1.10936
LJ         0.0906327        -1.68189       -0.768923
LJ         -0.636773        -1.91637      -0.0199965
LJ         -0.125972         2.33507       0.0140032
LJ          0.768458        -2.45958        -0.92211
LJ           1.89471        -1.80386       -0.996643
LJ          0.806626        -1.98367           0.254
LJ           1.69821        -2.41554       -0.144813
LJ          -2.44381        -0.91859       -0.734636
LJ          -1.89313        0.170059        -0.81507
LJ          -2.50692        0.106194     -0.00376069
LJ          -1.79392       -0.903108       0.0992503
LJ          -0.53867       -0.789049       -0.681219
LJ         -0.152512         0.32038       -0.933103
LJ         -0.666112       0.0342557       0.0622254
LJ        -0.0470765       -0.798563        0.282808
LJ          0.789859       -0.889009       -0.680222
LJ            1.9772       -0.105519       -0.745776
LJ          0.614427       0.0161622      -0.0251171
LJ           1.77296        -1.18485       -0.181203
LJ           2.55386        0.949147       -0.810861
LJ          -1.60263         1.77903       -0.777787
LJ           2.43218         1.70021      -0.0299344
LJ          -1.94013         1.06004        0.268506
LJ          -1.12025        0.790223        -0.84434
LJ          0.152605         1.76104       -0.897886
LJ         -0.735675         1.53616      -0.0862672
LJ          0.125794        0.947852      -0.0359282
LJ          0.868736        0.928947        -0.75592
LJ           1.70855         1.76198       -0.873455
LJ          0.807742         2.02875      -0.0796941
LJ           1.73502        0.858235      -0.0519338
LJ            2.4511          2.3407        0.740944
LJ          -1.40474        -1.78204        0.689421
LJ           2.47869        -1.52384         1.69522
LJ          -2.10341        -2.31516         1.44707
LJ          -0.65007         2.43197         1.13966
LJ         0.0793552        -1.57841        0.931229
LJ          -1.03282        -1.77651         1.80259
LJ         0.0483562        -2.35392         1.76228
LJ          0.863132         2.40438        0.970753
LJ           1.98918        -1.60159        0.788161
LJ           1.00655        -1.75268         1.77089
LJ           1.65316         2.53672         1.64384
LJ           2.50545       -0.683776        0.979073
LJ           -1.7261        0.107993        0.772069
LJ           2.51462      -0.0216475         1.75514
LJ          -1.87891       -0.736809         1.79114
LJ         -0.702605        -0.95465         1.00516
LJ      -0.000918072       -0.105341         1.10397
LJ         -0.882906        0.169831         1.91617
LJ          0.206676        -1.05614         1.85352
LJ           1.07639       -0.998857        0.680059
LJ           1.58494       -0.138596        0.684653
LJ            0.8303      0.00686262         1.90437
LJ           1.62416       -0.789305         1.85598
LJ           2.35517        0.842122        0.782843
LJ          -1.61876         1.89703        0.858255
LJ           2.49832         1.56976         1.56316
LJ          -1.77929         1.00164         1.62416
LJ         -0.926628        0.712522        0.890573
LJ           0.14102         1.48886        0.791563
LJ         -0.772269         1.53157         1.55179
LJ         0.0800238        0.794954         1.57546
LJ             1.057        0.765421        0.958678
LJ           1.55342         1.71791         0.54011
LJ          0.858222         1.58703         1.65042
LJ           1.70706        0.834412         1.77256
