108
#Comment!
LJ          -2.51632        -2.30514         2.55833
LJ          -1.69338        -1.49198        -2.56339
LJ          -2.44338        -1.54412         -1.7501
LJ          -1.73817        -2.44098        -1.81018
LJ         -0.753357          2.3423         -2.4574
LJ         -0.146454         -1.4651           2.446
LJ           -0.8575        -1.44176        -1.93024
LJ          0.109982        -2.41593          -1.913
LJ           1.03371        -2.46686        -2.52874
LJ           1.64117        -1.53798         2.44305
LJ           1.10137        -1.81929         -1.7063
LJ           1.93986        -2.55856        -1.60714
LJ           2.50208       -0.807621        -2.46513
LJ          -1.81624     -0.00789294         2.26779
LJ           2.54137       0.0897885          -1.599
LJ          -1.57571       -0.579905        -1.57791
LJ         -0.736388       -0.671478         2.54135
LJ         0.0773895      -0.0292101        -2.35764
LJ         -0.748183       0.0749675        -1.74141
LJ         0.0978117       -0.946914         -1.5421
LJ          0.715261       -0.942026         -2.5196
LJ           1.73203       0.0911403        -2.45747
LJ          0.863619        0.239442        -1.63537
LJ           1.48764       -0.696512        -1.56753
LJ           2.55999        0.882666         -2.3819
LJ          -1.80206         1.94538         2.47239
LJ          -2.45763         1.71377        -1.56491
LJ          -1.59516        0.678459        -2.07705
LJ          -0.49425        0.874207          2.5251
LJ         0.0567601         1.83927         2.42294
LJ          -1.24246         1.62824        -1.71598
LJ         -0.102048        0.991204        -1.59699
LJ          0.985022         1.02802        -2.49394
LJ            1.7753         1.96302        -2.55162
LJ           0.96941         1.85602        -1.85522
LJ           1.71689          1.1237         -1.8001
LJ          -2.56051        -2.47462       -0.654186
LJ          -1.38125        -1.57372       -0.815956
LJ          -2.23169        -1.61935       0.0349578
LJ           -1.6713         2.48288        0.270809
LJ         -0.738982        -2.51027        -1.06135
LJ         0.0350095        -1.90016       -0.734447
LJ         -0.702631        -1.87579       0.0294657
LJ         0.0314771         2.42855        0.139783
LJ          0.985509        -2.46565       -0.940459
LJ            1.8516        -1.55589       -0.922975
LJ          0.734892        -1.95332        0.187515
LJ           1.68173        -2.51153      -0.0226809
LJ          -2.30285       -0.815298       -0.764916
LJ          -1.84086        0.260401       -0.965357
LJ          -2.40801      -0.0571138     -0.00959681
LJ          -1.57804       -0.591207       -0.123822
LJ         -0.730665       -0.752015       -0.833922
LJ         0.0346643      -0.0861719       -0.892561
LJ          -0.63967      -0.0138057      -0.0311184
LJ        0.00816595        -1.08299       0.0969766
LJ          0.983811        -1.15092       -0.571771
LJ           1.91833       -0.303441       -0.613776
LJ          0.785196        0.065839       0.0394005
LJ           1.92112       -0.979805        0.137957
LJ           2.31182        0.797004       -0.716642
LJ          -1.76774         1.66768       -0.681032
LJ            2.4228         1.61641     -0.00357813
LJ          -1.75286        0.973922        0.126172
LJ         -0.901687        0.822747       -0.957798
LJ        -0.0264516         1.75253       -0.871827
LJ         -0.796586         1.69629       -0.135922
LJ          0.149992        0.949954        -0.14726
LJ          0.849789         1.00797        -1.01891
LJ           1.68109         1.73162       -0.841563
LJ          0.841127         1.82854       -0.172302
LJ           1.71769        0.788719       0.0753743
LJ           2.46856           2.396        0.752159
LJ          -1.44972        -1.80041        0.870509
LJ           2.43954        -1.46981         1.63735
LJ             -1.89        -2.41187         1.60654
LJ         -0.759024         2.38516        0.993194
LJ         -0.109869        -1.53504         1.09867
LJ         -0.882264        -1.65153         1.77308
LJ       -0.00973008        -2.32265         1.81495
LJ          0.759968         2.43761        0.893813
LJ           1.62436        -1.66643         0.93481
LJ          0.728632        -1.53927         1.68501
LJ           1.66492        -2.53092         1.53289
LJ           -2.3635       -0.772507        0.872981
LJ          -1.81903        0.214805        0.790371
LJ           2.37139       0.0557194         1.69008
LJ           -1.6186       -0.791348         1.62534
LJ          -0.92451       -0.913671        0.895901
LJ         0.0646825      -0.0878742        0.926161
LJ          -1.01446      -0.0689357         1.59221
LJ         0.0679916       -0.656041         1.83212
LJ           0.94142       -0.881283        0.477486
LJ           1.70479       -0.180242        0.882237
LJ          0.876409      -0.0333843         1.74427
LJ           1.52724       -0.820833         1.73233
LJ           2.28731        0.941675         1.07364
LJ          -1.89398         1.59842        0.983203
LJ            2.4131         1.95211         1.62453
LJ          -1.69856        0.839341         1.61212
LJ          -0.96129        0.882946        0.863219
LJ          0.310109         1.45404        0.715869
LJ         -0.727044         1.46539         1.67511
LJ          0.145707        0.678481         1.63498
LJ           1.15737        0.718477         1.10597
LJ            1.5745          1.7726        0.788681
LJ           0.86525         1.83686         1.64117
LJ           1.77021        0.969447         1.92565
