108
#Comment!
LJ          -1.30427        -2.36229         0.90985
LJ          -2.17653         -1.0071       -0.711122
LJ         -0.628211         -1.5718        0.726663
LJ         -0.440878        -2.39383       0.0465016
LJ         -0.883949        -2.43276         2.26214
LJ           2.42345       -0.219276       -0.404836
LJ           1.28536        0.450925        0.502664
LJ           1.04623       -0.702558          1.9521
LJ           1.26813         1.98722          1.6882
LJ          0.824138        -1.61692       -0.713177
LJ          -2.20062       -0.337471         1.51955
LJ          -1.94691        0.709041         1.87914
LJ           0.17854        0.782484         2.49113
LJ           2.30084         1.52312        0.968263
LJ           2.39796         2.16564       -0.246614
LJ          -1.97111          1.9702        -1.05182
LJ          -2.37886        -1.33286         1.22805
LJ           1.58784         1.96676       -0.829224
LJ         0.0939189       -0.984698         1.30923
LJ          -0.74779         1.93378        -0.62931
LJ           1.39682        -1.54779         0.66544
LJ        -0.0936929         1.18774        -1.72554
LJ         0.0400607        -2.41235       -0.932234
LJ          -2.07743        -1.34966        -2.27521
LJ         -0.319495        -2.54859         1.32619
LJ          -1.16013        -1.41404         1.63972
LJ           1.33352        -2.44948        -2.55677
LJ         -0.430505        0.230451        -1.31038
LJ          -1.29936        0.797304       -0.475442
LJ          0.127619        -1.13662        0.121713
LJ         -0.887994        0.336768        -2.27526
LJ             2.291        0.535105        0.849539
LJ          -1.84265        -2.13723         2.20732
LJ           2.37379         1.36009          1.9602
LJ           1.75583        -2.23391         1.44104
LJ           -1.2508         1.74418        0.461099
LJ          0.527907         2.12713        0.958435
LJ          0.659412        -1.93586         1.69104
LJ           1.73747        -1.54688        -1.15088
LJ          0.296112        0.138387         1.23946
LJ         -0.199085        0.857318       -0.286365
LJ          0.777138          2.0992       -0.238961
LJ         -0.728554        -2.02008        -1.81753
LJ          0.338469        -1.90385        -2.46822
LJ           2.27042        -1.61172         2.25013
LJ          0.944502         0.77461        -1.83191
LJ           1.78913       -0.656002         1.19025
LJ          -2.55534        -1.86505      -0.0565952
LJ          -2.11021        0.387908         -1.2757
LJ         -0.367105         -1.6454         2.12365
LJ          -1.30207       -0.958776        -1.46587
LJ           2.45589       -0.737344        0.401497
LJ          0.152188       -0.494506       -0.665597
LJ           2.38913         2.38167         2.17555
LJ         -0.322834         2.27671        -2.12066
LJ          0.233003         1.99178          2.0764
LJ           1.70551        -2.25404       -0.290606
LJ          -1.52223       -0.884567        0.645774
LJ           1.80051        0.569386       -0.401623
LJ          0.664625         1.78293        -1.37342
LJ           1.10741         1.53749        -2.49497
LJ           1.66852        -1.03477       -0.222471
LJ          -1.91213        -1.94988         -1.0848
LJ         -0.839781         1.55205         1.58167
LJ           1.55297        -1.46794        -2.14527
LJ          -1.21721         1.77789        -2.31978
LJ           1.72377         1.49907       0.0888016
LJ          -1.73783        0.733309        0.627131
LJ           -2.4417         1.03806       -0.122308
LJ          -1.35269        -1.36633       -0.186366
LJ          -1.85761     -0.00332662       0.0041741
LJ          -1.82026        -2.53993        -1.95954
LJ          -1.91686         1.74606         1.56152
LJ         0.0917549         1.18585         1.40965
LJ         -0.738065       -0.370154       -0.154096
LJ           2.06832       -0.590423         2.39685
LJ            2.0094         2.09393        -2.00501
LJ           1.36304        -0.34904        -1.98279
LJ           2.47258        -0.70587        -1.68157
LJ         -0.259868         1.74744         0.48632
LJ           1.15231        0.252563          2.4254
LJ          -1.12347         1.09308        -1.50991
LJ         -0.549585       -0.935988        -2.24933
LJ          0.914146        0.773788       -0.801393
LJ          -1.59565         2.55701       -0.136428
LJ           2.38748        -2.43377        -1.29435
LJ          -1.99799      -0.0129891        -2.40387
LJ           2.11874        0.788706        -2.33855
LJ          0.625161        -2.06774        0.271577
LJ          -1.44515       -0.754956           2.297
LJ           1.23421         0.81689          1.4617
LJ         -0.679947        0.470171         1.64203
LJ           -2.4544         -2.5104        0.942153
LJ           2.21194        0.280606         1.91997
LJ          0.634193         1.25596        0.206198
LJ          -0.50931        -1.41177       -0.713139
LJ          0.381596       -0.278038         -1.9532
LJ          0.249073         -1.2511         -1.5977
LJ          0.909749       -0.474471        0.143323
LJ           -2.1221         1.26945        -2.22539
LJ           2.37002         1.36233        -1.21265
LJ           1.49516         2.29748        0.622199
LJ         -0.173587        -0.26379         2.25012
LJ           1.28053        -2.51271         -1.4086
LJ          -0.82218       -0.289467        0.993218
LJ         -0.638574        0.835271        0.635331
LJ           1.29201       -0.274097       -0.908601
LJ            1.8367        0.447868        -1.49697
