108
#Comment!
LJ          -1.12894         -2.4547         1.42198
LJ           2.23128        -1.12218       0.0416042
LJ          -1.16637        -1.33788        0.761057
LJ         -0.171616        -1.66894        0.187064
LJ         -0.479417         2.40285         2.20307
LJ           1.39917       -0.522176        0.252137
LJ           1.11846        0.454953        0.707831
LJ          0.688786        0.441496        -2.44846
LJ          0.467962         1.13452         1.65613
LJ         -0.591475        -2.44622         -0.6484
LJ          -1.98343       -0.594624        0.551907
LJ          -1.69365         1.28262         1.87338
LJ         0.0611045         1.22787        -2.34318
LJ           1.12231         1.77242        0.949777
LJ            1.9368         1.00385         1.08819
LJ           2.46336          2.5351        0.555038
LJ          -2.02064        -2.03366         1.63138
LJ          0.153941        0.415761       -0.602892
LJ          0.690166        -1.77808         1.85428
LJ          -1.22631         1.58694       0.0966917
LJ          -2.19142        -1.66404        0.749761
LJ         -0.150245         2.03919        -1.42227
LJ          -2.32245         2.22423       -0.838812
LJ          -1.31288        -1.80451          2.4164
LJ           1.64803        -2.10152         1.58062
LJ         -0.069761        -1.11282         2.12548
LJ           1.24672        -1.56371        -1.42214
LJ          -2.31571        0.397429         2.20021
LJ         -0.843164          1.4143         1.13203
LJ         -0.206209       -0.743186         1.08108
LJ          -1.19335         0.46212         1.75021
LJ           2.32398     -0.00224098        0.317255
LJ           2.10811        -1.00275        -1.80448
LJ            1.4188         1.70551         1.99417
LJ           2.03318        -1.17349         1.42032
LJ         -0.988674        -2.53222         0.25166
LJ          0.169721         2.12004         1.21544
LJ           1.19633       -0.865951         2.16795
LJ           1.17767        -1.61209       -0.193958
LJ         -0.721999        0.656578      -0.0836596
LJ          -0.13477         1.97046        0.150651
LJ          0.410803        -2.56245       -0.361903
LJ         -0.956866         2.44662        -2.02996
LJ         -0.149727        -1.04519        -1.80753
LJ           1.33794        -2.15337        -2.40074
LJ          -1.65558       0.0405649        -2.12302
LJ           2.12786       -0.436053         2.33334
LJ           1.86079        -1.79216        0.670448
LJ          -2.08556       -0.951064         1.66536
LJ          0.554317         2.22207         2.21442
LJ          -2.23472         -2.1431        -1.66741
LJ           2.12992      0.00440471         1.30064
LJ          -1.37102         -1.5923       -0.181734
LJ           1.85849         1.61574        -2.15416
LJ          -1.28245          2.0444        -1.02185
LJ          0.272735        -2.14586        -2.24171
LJ           1.81955         1.30631         -1.1595
LJ             -2.28        -2.04466       -0.172132
LJ           1.17304        0.545716       -0.594816
LJ          0.794024         1.84881        -1.90678
LJ          0.915363        -2.50153        -1.28948
LJ          0.782676        -1.45392        0.807437
LJ          -2.07948         1.97001        -1.97442
LJ          -0.26373        -1.92001         1.27307
LJ           1.20674       -0.483337        -2.05139
LJ          -1.32118         1.18887         -1.8379
LJ          0.366986         1.15645        0.627812
LJ           -1.9735        0.302336       -0.123533
LJ          -2.50293         1.63047        0.309923
LJ          -2.03897       -0.580047        -0.56893
LJ          -2.38485       -0.163392        -1.45274
LJ          -1.99001          1.3047       -0.644258
LJ          -1.78527         2.07985        0.935019
LJ          0.299017       0.0561508          1.6815
LJ          -1.27135       -0.329383        -1.22168
LJ           1.92027        0.345057        -1.53482
LJ           1.88227         2.44522        -1.54452
LJ          0.239153        -1.57353        -0.93446
LJ           1.87121       -0.504163       -0.840751
LJ         -0.756711         1.32213         2.20615
LJ           1.38681        0.160298         1.99843
LJ           2.38378        0.605061       -0.606012
LJ          -2.02491       -0.905586        -2.14486
LJ         -0.488169         1.12086        -1.13224
LJ           2.06419        -1.76815        -1.05482
LJ           1.58457         1.27478       0.0242615
LJ          -1.96531        0.356682         1.03576
LJ         -0.661521        0.282868        -2.45944
LJ           1.17301         -2.4412        0.556063
LJ           2.32276        -1.69028         2.45543
LJ           1.05533       -0.520828          1.3445
LJ         -0.371897        0.362243         0.86656
LJ           2.41167         2.00436         1.30827
LJ           2.30482         1.33328         2.15946
LJ          0.359573       -0.205611        0.424327
LJ          -2.04497        -1.41546        -1.08935
LJ         -0.863877       -0.711714        -2.40816
LJ         -0.931474        -1.63528        -1.40557
LJ         -0.388835       -0.853309       -0.536777
LJ          -2.29063        0.873451        -1.89933
LJ          0.666714        0.891091        -1.47233
LJ           1.95449        -2.55193       -0.434785
LJ          -1.09212       -0.669677         1.57409
LJ           0.31435         1.44378       -0.550629
LJ          -1.06221       -0.383363         0.12208
LJ          -1.43251        0.539505       -0.963555
LJ          0.777515       -0.748902       -0.509051
LJ         -0.102865      -0.0307412        -1.54952
