108
#Comment!
LJ           1.77425       0.0659812        -1.66608
LJ          -2.00774        -1.15651        -1.35609
LJ         -0.283624        -2.50528         2.13941
LJ          -1.17309           -1.94        -2.37982
LJ          -1.54029        0.718017        -2.05702
LJ          -2.36888       -0.207247        -1.83717
LJ            2.2297        -1.24296        -1.92231
LJ           1.97772        0.432433        0.390036
LJ          0.952296         1.13377        -1.87138
LJ           2.00257         2.45404        0.164015
LJ           -2.1839         2.50503       -0.382146
LJ         -0.534321        -1.48718         1.73745
LJ           1.54881        -1.60512      -0.0879525
LJ          -0.80713        0.500951         1.69538
LJ          0.955152         1.97002        0.506077
LJ           2.42543         1.91558        -2.06342
LJ            1.3437        -1.37012        -1.08816
LJ          0.375733        -1.00007        0.110929
LJ         -0.942702          1.4442        -1.55202
LJ          -1.58269         1.96441        0.554104
LJ          -1.62119         1.07536          1.0063
LJ         -0.660648         1.55561         1.13282
LJ          0.847093       -0.218429       -0.830312
LJ          0.481956         2.20118        -1.53756
LJ            1.8137        -1.14998         2.18632
LJ          0.149897        -2.22622          1.2383
LJ          -2.24123        -2.30914        0.837208
LJ          0.531743        -1.67897         1.94933
LJ           1.34803        -2.51957         1.38739
LJ           2.20528          1.4032       -0.193864
LJ          -2.14858        0.127986         1.09042
LJ           2.07027        0.825888        -2.39512
LJ           1.70876         1.92202         2.32789
LJ          -1.63308         2.43119        -1.36152
LJ          0.451869        -1.12409        -1.53264
LJ          0.446969         1.87965         1.47738
LJ          -1.62782         1.85217        -2.38902
LJ         -0.357345         -2.5382        -1.02749
LJ           2.05382        -0.59098         1.43008
LJ           1.87622         1.05874        -1.41197
LJ          -2.49385        0.214245        -0.78317
LJ         0.0827311         1.00386        -1.03814
LJ           1.11257         1.01467         0.39408
LJ          -1.79791        0.765822         2.14155
LJ           2.01321        0.450387         1.54327
LJ           -1.1637       -0.143654        -1.53253
LJ           1.72845        -2.10456        -2.55981
LJ           1.46816         2.03918        -1.65656
LJ          0.633604         0.16121        0.144398
LJ         -0.514403        -1.43582        0.373803
LJ         -0.828907        -1.13123        -1.59331
LJ          -0.78813         1.32874        -2.54579
LJ          0.799247        -2.00896        0.431861
LJ         -0.268754        -0.28043        0.499049
LJ           1.31935        0.657263       -0.539441
LJ          0.755273         2.39419         2.28573
LJ           1.52312         1.39375         1.43963
LJ          -1.96545        -1.25686       -0.360961
LJ          -1.13828       -0.522139       -0.468015
LJ           1.51118       0.0789367         2.42733
LJ          0.757963        0.115176        -1.84928
LJ          -1.56823         1.90244         1.67374
LJ         -0.201991       -0.325899        -1.31785
LJ         -0.699783         2.31863        -2.02118
LJ           2.49803         1.52898        0.850619
LJ          -1.36824        0.512316       -0.811486
LJ         -0.371674        0.409084        -2.31393
LJ           2.04148       -0.776255       -0.630668
LJ          0.132889          1.7466        -2.35531
LJ        -0.0806915         1.13258         1.88865
LJ         -0.992543         1.16091       0.0583791
LJ          -1.74861       -0.940803        0.919425
LJ           2.42448        -1.77104       -0.963189
LJ         -0.348124        0.416512       -0.296984
LJ           2.36431         -1.8134         1.64455
LJ         -0.160311       -0.887053        -2.47254
LJ          0.158589       -0.944853         1.24565
LJ           -2.4655         2.37605         1.87569
LJ           -2.5619       -0.199161         2.21084
LJ          0.614059        -2.14069       -0.684938
LJ          -2.02132         -1.2291         2.37974
LJ          -2.43893       -0.409739        0.168306
LJ          -2.41514        -2.16755        -1.91889
LJ         0.0823525        0.891706        0.801051
LJ          -1.06036         1.97077       -0.653403
LJ            0.2239        -2.03319        -2.15026
LJ         -0.079521         2.28826        0.386048
LJ          0.180581       -0.169404          2.0985
LJ           2.42234        -1.41456        0.507796
LJ           1.18092         1.77607        -0.47015
LJ          -1.68392        -1.71164         1.45629
LJ          -1.20344        0.156176        0.338953
LJ         -0.881746        -2.40146         1.36273
LJ           1.53087        -0.46242        0.216451
LJ           1.55813        -2.51423        -0.74547
LJ          0.997782         1.02871          2.2775
LJ          0.209084         1.52095       -0.169194
LJ          0.993614        -1.01428        -2.34337
LJ         -0.754589       -0.458833         1.51785
LJ          -1.37451       -0.341874        -2.50526
LJ          0.916766        0.502665         1.36761
LJ          -0.97706        -2.43483        0.183904
LJ          -2.00745        0.985532       -0.135785
LJ          -1.35524        -1.79724       -0.889769
LJ          -2.47968         1.38377           1.825
LJ         -0.373814        -1.24753       -0.603617
LJ          -2.27699         1.66808         -1.0817
LJ            1.0646        -0.46203         1.06942
