108
#Comment!
LJ          -2.54393        -2.35037         2.38607
LJ           -1.7589        -1.55618         2.46763
LJ          -2.36581        -1.52907        -1.68315
LJ          -1.72092        -2.51922        -1.62043
LJ         -0.793024         2.36932        -2.56363
LJ        0.00943067        -1.85849        -2.44059
LJ          -1.12451        -1.54685        -1.79965
LJ         -0.060123         2.19709         -1.8518
LJ          0.784657         2.53973         2.52537
LJ           1.78338         -1.6503         2.49924
LJ          0.792092        -1.93096        -1.70737
LJ            1.9762          2.3409        -1.85992
LJ            2.5242       -0.830423         2.50053
LJ          -1.69119        0.104355        -2.53586
LJ           2.50885        0.134103        -1.82181
LJ          -1.83875       -0.523606         -1.6607
LJ          -1.01874       -0.763415        -2.36705
LJ        -0.0416867       -0.160724        -2.48573
LJ         -0.991587       0.0556451        -1.76249
LJ         -0.122972        -1.14309        -1.78937
LJ          0.780619        -1.07942         2.55752
LJ             1.701        0.025794         2.48479
LJ          0.927235       0.0351903        -1.85679
LJ           1.69621       -0.687939        -1.72619
LJ          -2.52602        0.927425         -2.4979
LJ          -1.68308         1.80684         2.38091
LJ          -2.39489         1.57276        -1.64837
LJ          -1.73839        0.894444        -1.76939
LJ         -0.476945        0.900581          2.5527
LJ          0.122097         1.69073         2.38599
LJ          -1.18101          1.7407        -1.78504
LJ          0.146259         1.05135        -1.76967
LJ          0.877441        0.943128         2.53116
LJ            1.6942         1.76292         2.39704
LJ          0.892918         1.93226        -1.86637
LJ           1.68078         1.08749        -1.64825
LJ           2.50112         2.39073       -0.756107
LJ          -1.54917        -1.65575       -0.773974
LJ          -2.38416        -1.81377       -0.142228
LJ          -1.79108          2.3691      -0.0226496
LJ         -0.702728         2.55238        -1.05347
LJ          0.164148         -1.6977       -0.767227
LJ          -0.71125        -1.95155       -0.206399
LJ         -0.242632         2.30121       0.0756396
LJ          0.865429        -2.56077       -0.921251
LJ           1.79153         -1.7619        -1.03056
LJ          0.790901         -1.9117        0.266412
LJ           1.68943        -2.49805       -0.130161
LJ          -2.45366       -0.942422       -0.740619
LJ          -1.93392      -0.0794436       -0.716359
LJ          -2.51563        0.204817       0.0620041
LJ          -1.67863       -0.662606        0.146583
LJ         -0.721795       -0.838764       -0.708579
LJ        -0.0944046         0.18538        -1.02252
LJ         -0.646739        0.100032      -0.0729758
LJ       -0.00629595       -0.692796        0.125366
LJ          0.986988        -1.10634       -0.858768
LJ           1.87387       -0.225655       -0.584709
LJ          0.742117       0.0017536       0.0859309
LJ           1.93034        -1.09063      -0.0947831
LJ           2.55544        0.896536       -0.788569
LJ          -1.66602         1.85582       -0.845352
LJ            2.4271          1.7047      -0.0382475
LJ          -1.95574         1.08653        0.386883
LJ          -1.09286        0.743551       -0.912255
LJ          0.105684         1.66146       -0.928069
LJ         -0.812741         1.49289       -0.187918
LJ      -0.000455519        0.873054       -0.168807
LJ          0.981636         0.91496       -0.737015
LJ            1.6484         1.74666       -0.684214
LJ          0.778335         1.95554      -0.0672394
LJ           1.73201        0.817958      -0.0851591
LJ           2.46935          2.4115        0.651886
LJ          -1.35741        -1.79174        0.673299
LJ           2.49091        -1.36973         1.65879
LJ          -1.97901        -2.35798         1.46686
LJ         -0.748451        -2.54143        0.996367
LJ           0.14727        -1.48401        0.988564
LJ         -0.905126        -1.78919         1.87003
LJ         0.0137457        -2.35031         1.71249
LJ          0.690663         2.34655         1.02099
LJ           1.81178        -1.65026        0.921501
LJ          0.938919        -1.83367         1.75489
LJ           1.83249        -2.41761         1.66462
LJ           2.50234       -0.625778        0.801059
LJ           -1.5789       0.0824761        0.831424
LJ           2.49985       0.0451826         1.75083
LJ          -1.78987       -0.774083          1.7691
LJ         -0.825567        -1.04304         1.07107
LJ          0.169326       -0.203844         1.08594
LJ         -0.939646        0.194286         1.95333
LJ          0.127938       -0.866759         1.85208
LJ           1.03476       -0.946319        0.840781
LJ           1.67215       -0.147238        0.612818
LJ          0.561447       0.0286643         1.93666
LJ            1.5607       -0.861775         1.78686
LJ           2.22338        0.817345        0.855104
LJ          -1.56263         1.94826          1.0306
LJ           2.39746         1.66112         1.51249
LJ          -1.83637         0.84635          1.5338
LJ         -0.815553        0.749124        0.790035
LJ          0.263394         1.38765        0.845183
LJ         -0.796952         1.40071         1.60179
LJ          0.120826        0.869843         1.67488
LJ           1.19458        0.741341        0.971726
LJ            1.4878         1.76531        0.647551
LJ          0.973103         1.55509         1.54256
LJ           1.69376        0.768059         1.86849
