108
#Comment!
LJ          -2.56289        0.506549         1.37543
LJ         -0.330463         1.12919       -0.290526
LJ          -1.67847      -0.0790188         1.55708
LJ          0.396307        -1.79737        -2.23919
LJ          0.138041         2.34483       -0.467255
LJ          -2.54036        -2.07889        -1.62063
LJ          0.583762        -1.15892         1.21334
LJ          -1.11514        -0.14828        0.729923
LJ           1.00263        -1.82567       -0.441451
LJ           2.40803       -0.888237        0.361742
LJ           2.38877         2.17995       -0.967886
LJ         -0.405794        -2.25251         1.24352
LJ          -1.41914      -0.0357928        -2.22928
LJ           1.99049        -1.54008       -0.367531
LJ          -1.12487        0.441032       -0.401589
LJ         -0.597956         2.36577         2.37586
LJ         -0.204768        -1.01851         2.01686
LJ          0.685856         1.28931       -0.690647
LJ           2.02415        -0.99606        -2.09232
LJ          -1.05129        0.478504         1.95172
LJ          -2.13592        0.868333         2.38209
LJ           1.60888       -0.363037         2.26122
LJ           2.16382       0.0371005        -1.53231
LJ           1.68207         -2.0132        -1.22589
LJ          0.834391      -0.0302833        -2.08688
LJ         -0.210404        -2.27597        -1.49094
LJ         -0.479918         1.74291        -1.20884
LJ           1.44046        0.506892       -0.340526
LJ           2.55344          1.0723        0.499149
LJ         -0.191304        0.117736         1.53133
LJ         -0.969914       -0.394476        -1.35814
LJ          0.492375         2.20146         2.17655
LJ           2.45007        -1.83153         1.15388
LJ          -2.12619        0.187038        0.325696
LJ           1.06904         1.26367         1.60331
LJ          0.049777        -1.70371       -0.616596
LJ           2.39417         1.54415         1.65137
LJ          -1.58081         2.43505       -0.739035
LJ           1.63193         1.80607        -1.82935
LJ           1.62003       -0.819702        0.987577
LJ          -2.50314        -0.17911        -2.43669
LJ         -0.999466         1.86789      -0.0997988
LJ          0.269951         1.01807        0.640235
LJ           1.45013       -0.449353       0.0111568
LJ         -0.217458         1.87852        0.569959
LJ           1.95508        -2.36588        0.322498
LJ           2.50549        -1.09913        -1.19511
LJ         -0.124839       -0.108026        0.532848
LJ       -0.00948181       -0.883262        -1.79462
LJ           1.11093        -0.64247       -0.972942
LJ          -2.51237       -0.688082         1.35586
LJ          -1.80769        -1.08261        0.760717
LJ          -1.27322       -0.739108         2.19359
LJ           2.50399       -0.310007       -0.536662
LJ          -0.79257         -2.0199       -0.115366
LJ         -0.881352        0.926101         0.60017
LJ           1.74011         2.52557         1.39935
LJ          0.157756        0.719629        -1.63117
LJ           1.90217         0.84802         2.53707
LJ          0.644596       -0.922529         2.47532
LJ         -0.399518       0.0720294        -2.30368
LJ          -1.18387        -1.96985         1.98024
LJ         -0.795297        -1.25517        -2.26912
LJ          -1.15589         2.06969        0.933936
LJ         -0.932598         1.02157        -1.76099
LJ          -2.20441        -1.37978         1.96207
LJ          -1.99036        -1.16747        -1.91484
LJ           -1.2445         1.98182        -1.88491
LJ          0.913221         2.36405        0.186155
LJ          -1.36861         1.51082          2.1065
LJ           2.31225        -2.24533         2.49506
LJ           1.19693        -1.93566        0.820073
LJ           1.01114         1.10603        -2.33655
LJ          -1.41398         -2.0787        0.769432
LJ           1.16502        -1.29744        -1.80793
LJ          -1.73957         1.13114        -0.16826
LJ          -1.17238        -1.77197       -0.998209
LJ          0.358095        -1.96279          1.8471
LJ           1.70871         1.61088        0.839132
LJ          0.690138        0.428196         2.00138
LJ          -1.94488        -1.06012       -0.318349
LJ           1.53667        0.896085        -1.45428
LJ          -1.81577         1.49433        -1.13045
LJ           2.35077          1.0856       -0.582091
LJ           -2.5179         1.86906         -2.3284
LJ          -1.76504         1.29713         1.04691
LJ           1.84589        0.328736        0.579144
LJ         -0.429988         1.72239         1.59013
LJ         -0.587948       -0.818289       -0.189741
LJ          0.306011       -0.841075        0.106329
LJ           1.81927         1.77077       -0.114663
LJ           0.69196         2.21043         1.18344
LJ          0.178725        -1.89641         0.51567
LJ           1.78319        -1.45984         1.71292
LJ          0.649144         1.93005        -1.65986
LJ          0.870052       0.0810178         0.95406
LJ          -1.87442        0.478564        -1.02781
LJ           2.51299         1.07902        -1.58914
LJ          -2.24477         2.07281        0.549155
LJ         0.0290728         1.32746         2.53001
LJ          -1.82189        -2.43615         -2.3303
LJ          -2.24819          2.4413         1.56806
LJ           1.12669         2.29492       -0.808659
LJ           1.59268         1.84778         2.21944
LJ           0.39941       0.0114933       -0.546947
LJ          -2.17553        -2.04427       0.0552426
LJ          -0.75534        -1.14497         1.13248
LJ            1.2515        -2.28876         2.54154
