108
#Comment!
LJ          -2.48803        -2.38787         2.54489
LJ          -1.80329        -1.48295         2.47048
LJ           -2.2526        -1.60041        -1.78485
LJ          -1.56263        -2.38483        -1.84371
LJ         -0.819452         2.31732        -2.42516
LJ         -0.134503        -1.55041         2.44371
LJ         -0.950084         -1.5005         -1.9188
LJ         0.0708701          2.4911        -1.89253
LJ           1.03639        -2.39576        -2.41099
LJ           1.69992        -1.64041         2.45552
LJ           1.21381        -1.70305        -1.65357
LJ           1.91153         2.45276        -1.52504
LJ           2.40384       -0.632486        -2.54933
LJ          -1.83243      -0.0238933          2.3187
LJ          -2.46347      -0.0797473        -1.79693
LJ          -1.53925       -0.588234        -1.69202
LJ         -0.963134       -0.739694        -2.53626
LJ         0.0286699       -0.183493         -2.4584
LJ         -0.818832        0.130135        -1.73061
LJ          0.142024       -0.867192        -1.67504
LJ          0.792748       -0.916705        -2.54575
LJ            1.6422       0.0139285        -2.40962
LJ           0.77178        0.151209         -1.6764
LJ           1.58173       -0.664024        -1.55635
LJ           2.54984        0.929461        -2.42478
LJ          -1.76835         1.96495         2.39612
LJ          -2.55092         1.68907         -1.5508
LJ          -1.59414        0.801257        -2.07582
LJ         -0.499816        0.755845         2.52725
LJ          0.110266         1.75071         2.34581
LJ          -1.27781         1.75343        -1.67422
LJ          0.012516         1.03124        -1.73482
LJ           1.06836          1.0812        -2.44825
LJ           1.74532         1.85992           2.503
LJ          0.995745          1.8843        -1.87547
LJ           1.83538        0.854323        -1.76249
LJ           2.51046        -2.50622       -0.723234
LJ          -1.42118        -1.71429       -0.904779
LJ          -2.30373        -1.64097       -0.204064
LJ          -1.63643         2.43251       0.0866041
LJ         -0.683431         -2.4931        -1.01802
LJ         0.0622814        -1.80789        -0.71907
LJ         -0.716858        -1.78289      -0.0370147
LJ        -0.0268328         2.33205        0.198263
LJ           0.69868          2.5258       -0.821443
LJ           1.91967        -1.53756        -0.88757
LJ          0.776584        -1.88734        0.155699
LJ           1.69503        -2.48065      -0.0117834
LJ           -2.3595       -0.797475       -0.917618
LJ          -1.78535        0.115773       -0.963911
LJ          -2.38335        0.071857      -0.0285544
LJ          -1.62554       -0.739498     -0.00428515
LJ         -0.835401       -0.790241       -0.691235
LJ         -0.146745        0.165552       -0.998086
LJ         -0.658328      -0.0346774       0.0796316
LJ        -0.0607926       -0.885636         0.11493
LJ          0.922685         -1.1317       -0.759006
LJ           1.83236       -0.192996       -0.622208
LJ          0.764509       0.0954218        0.134449
LJ           1.94772        -1.03249       0.0254694
LJ           2.44126        0.793189       -0.749264
LJ          -1.82296         1.66042       -0.731747
LJ           2.52896         1.59435      -0.0638259
LJ           -1.8848        0.938183        0.135862
LJ             -1.07        0.796214       -0.953934
LJ          0.135464         1.73553       -0.813778
LJ         -0.753512         1.69878        -0.13177
LJ         0.0646877        0.839921       -0.165933
LJ           0.88227        0.893853       -0.913068
LJ           1.63622         1.70366       -0.865792
LJ          0.846953          1.7526       -0.080032
LJ           1.59999        0.829907        0.142762
LJ           2.45237         2.44382         0.67373
LJ          -1.50906        -1.82434        0.786977
LJ          -2.55365         -1.4479         1.58794
LJ          -2.00085        -2.43805         1.66515
LJ         -0.881186         2.42782         1.02078
LJ        0.00795401        -1.45878         1.10493
LJ          -1.06869        -1.69662          1.8621
LJ        0.00971872        -2.25269         1.69428
LJ          0.780265         2.37148        0.865473
LJ           1.65745         -1.5415         1.03812
LJ          0.814284        -1.71419         1.79553
LJ           1.72447         -2.4977         1.48944
LJ          -2.40933       -0.748006        0.653948
LJ          -1.61839       0.0858358        0.888928
LJ           2.37027       0.0142931         1.66463
LJ          -1.71154       -0.887235         1.60832
LJ         -0.839354       -0.927057         1.07182
LJ          0.153542        -0.12431        0.916052
LJ         -0.956602       0.0372784         1.83402
LJ          0.215203        -0.77214         1.76028
LJ          0.916185       -0.832193        0.584619
LJ           1.74941       -0.343862        0.829109
LJ          0.847941       0.0443229         1.72565
LJ            1.5088       -0.792096         1.77195
LJ           2.33636        0.977104         1.04097
LJ          -1.80712         1.69881        0.997088
LJ           2.49441         1.88392         1.61525
LJ          -1.79484          0.8715         1.63466
LJ         -0.830175         1.00501        0.762555
LJ          0.364299         1.38291        0.772314
LJ         -0.701089         1.36577          1.7326
LJ         0.0774054        0.791608          1.6792
LJ           1.18413        0.648346         1.01387
LJ           1.53595         1.74339        0.703935
LJ          0.964993         1.71248         1.68316
LJ           1.81484         1.08364         1.92327
