108
#Comment!
LJ           2.46737        -2.47417         2.46943
LJ          -1.67248         -1.8649         2.48242
LJ           2.56097         -1.6447        -1.51336
LJ          -1.90139         -2.5256        -1.81547
LJ         -0.957279         2.46988         2.44397
LJ         -0.192399         -1.8127        -2.56124
LJ         -0.889419        -1.54513        -1.74265
LJ         0.0507995          2.4057        -1.74684
LJ          0.880383         2.50164        -2.38706
LJ           1.80464        -1.71848         2.51682
LJ          0.776667        -1.61028        -1.59925
LJ           1.97744        -2.54123        -1.59971
LJ           2.42894       -0.815193        -2.50516
LJ          -1.78752       0.0941169         2.52921
LJ          -2.50786        0.189026        -1.74551
LJ          -1.78855       -0.674896        -1.38775
LJ          -1.19648       -0.890979         2.50672
LJ         0.0211905       -0.153584         2.51511
LJ         -0.806468        0.110453        -1.76954
LJ         0.0482726       -0.909525        -1.73624
LJ          0.924991        -1.02635        -2.54818
LJ           1.72459        0.100143         2.51788
LJ          0.837995       0.0202001        -1.48073
LJ           1.68953       -0.873939        -1.74495
LJ          -2.52407         1.05237         2.43069
LJ          -1.70129         1.89527         2.49285
LJ           -2.5211         1.70229        -1.73875
LJ          -1.61219        0.967878        -1.91825
LJ         -0.695479         1.07009         2.43061
LJ         0.0230154         1.69731           2.395
LJ         -0.758229         1.60928        -1.77311
LJ        -0.0841138        0.796682         -1.8044
LJ           0.82533        0.856399        -2.46397
LJ           1.84016         1.94983          2.4599
LJ             1.012          1.7394        -1.54956
LJ           1.79598        0.831893        -1.81139
LJ          -2.43613         2.51233       -0.792363
LJ          -1.53203        -1.83723       -0.581507
LJ           2.52091        -1.72003      -0.0658969
LJ          -1.69301         2.44558      -0.0185507
LJ         -0.813416         2.44106       -0.957641
LJ         0.0609408        -1.66233        -0.92447
LJ         -0.823047        -1.80872       0.0832114
LJ         -0.232298         2.28562       0.0350614
LJ           0.83077        -2.53911       -0.961757
LJ           1.77017        -1.62277       -0.788929
LJ          0.711497        -1.91084      -0.0228311
LJ           1.55432        -2.48082        -0.19581
LJ           2.53071        -0.93137        -0.76963
LJ           -1.8081        0.161469       -0.802899
LJ           2.54221      -0.0153776      -0.0445303
LJ          -1.71454       -0.732537      -0.0367484
LJ         -0.816562         -0.7507       -0.851283
LJ        -0.0558509        0.181661       -0.861187
LJ         -0.824106      0.00671276      -0.0561023
LJ         0.0217033       -0.743901      0.00765799
LJ          0.747174       -0.953378       -0.718356
LJ           1.70354       -0.117046       -0.823157
LJ          0.828339     -0.00319865       -0.099425
LJ           1.65169       -0.924276      -0.0311873
LJ          -2.50177         1.01549       -0.816579
LJ          -1.55195         1.71332        -1.06631
LJ           -2.4987         1.69143       0.0335748
LJ          -1.91543        0.777515        0.102751
LJ          -1.00178        0.736611       -0.852447
LJ         -0.046722         1.63361       -0.918845
LJ         -0.822788         1.48662      -0.0752503
LJ         0.0684139         1.02381       0.0915144
LJ          0.824402         1.02805       -0.774878
LJ           1.84832         1.68035       -0.941595
LJ           0.79494         1.92101      0.00675434
LJ           1.75707        0.847149       -0.103843
LJ           2.39015        -2.47956         1.01176
LJ          -1.49328        -1.69043        0.972237
LJ          -2.50519        -1.52502         1.77118
LJ          -1.95128         2.49897         1.68611
LJ         -0.648632        -2.52625        0.950796
LJ          0.225448        -1.72397          0.9435
LJ         -0.905579        -1.66634         1.77217
LJ         0.0833185        -2.47946         1.78839
LJ           1.15453        -2.50017        0.886262
LJ           1.76515        -1.49099        0.903016
LJ          0.955848        -1.69284         1.70721
LJ           1.59705        -2.38692         1.84161
LJ           2.52892       -0.608871        0.935462
LJ          -1.88216       0.0972678        0.792055
LJ           2.55725     0.000538595         1.89333
LJ          -1.65171       -0.919122         1.61339
LJ         -0.721757       -0.836984        0.866092
LJ         0.0822476       -0.123586        0.865271
LJ         -0.817836        0.102947         1.96468
LJ          0.136119       -0.899973         1.67173
LJ          0.921511       -0.830303         0.93341
LJ            1.6011      -0.0704481        0.625064
LJ           0.79002      -0.0945428         1.91604
LJ           1.72132       -0.873191         1.75663
LJ           2.46034        0.740105        0.721993
LJ          -1.54353         1.90786        0.827203
LJ          -2.54457         1.61086         1.53928
LJ          -1.58655         0.89148         1.65722
LJ          -1.02766        0.696658        0.816158
LJ          0.141132         1.64046        0.826739
LJ         -0.744534         1.75511         1.46642
LJ        -0.0375625        0.869058         1.69369
LJ          0.791168         0.73408         1.00123
LJ           1.76816         1.73353        0.828985
LJ          0.992845         1.62242         1.82987
LJ           1.72052        0.900987          1.6685
