108
#Comment!
LJ          -2.48936        -2.38864         2.54418
LJ          -1.81166          -1.481         2.46957
LJ          -2.25361        -1.60049        -1.78927
LJ           -1.5594        -2.38559        -1.84147
LJ         -0.806371         2.32305        -2.42667
LJ          -0.14261        -1.54104         2.44163
LJ         -0.938706        -1.50084        -1.91822
LJ         0.0728119         2.50307        -1.88116
LJ            1.0322        -2.39715        -2.42562
LJ           1.70789        -1.63423          2.4535
LJ           1.22549        -1.71052        -1.65387
LJ           1.90794         2.44437        -1.53409
LJ           2.39592       -0.621357        -2.55401
LJ          -1.82545      -0.0129523         2.33366
LJ          -2.45767      -0.0756332         -1.7975
LJ          -1.54155       -0.602119        -1.68866
LJ         -0.963034        -0.74167        -2.53045
LJ         0.0303635       -0.178529        -2.45389
LJ         -0.825544        0.138274        -1.72107
LJ          0.133801       -0.862257        -1.67664
LJ          0.792537       -0.919171        -2.56481
LJ           1.63677       0.0142523        -2.41113
LJ          0.774733        0.149322        -1.66738
LJ           1.56738        -0.66028        -1.55817
LJ           2.55225        0.930703        -2.42971
LJ          -1.76023         1.97409         2.40513
LJ          -2.54706         1.68606        -1.53972
LJ           -1.5944        0.801648        -2.08604
LJ         -0.499142        0.756466         2.52131
LJ           0.11443         1.75616         2.34576
LJ          -1.27791         1.74216         -1.6741
LJ            0.0284         1.02171        -1.73648
LJ            1.0854         1.07351        -2.44238
LJ            1.7532         1.88007         2.49359
LJ           1.00286         1.87754        -1.87505
LJ           1.83217        0.853851        -1.76897
LJ           2.50875        -2.50768       -0.731242
LJ           -1.4227         -1.7174       -0.903918
LJ          -2.30726        -1.63899       -0.212658
LJ          -1.63815         2.42546       0.0961059
LJ         -0.695911        -2.48593        -1.01769
LJ         0.0583522         -1.8067       -0.711472
LJ         -0.716371        -1.77518      -0.0418635
LJ        -0.0251801         2.33248        0.206293
LJ          0.690062         2.52735       -0.823186
LJ           1.93698        -1.53871       -0.880096
LJ          0.790963        -1.87742        0.158981
LJ           1.70721        -2.46975      -0.0113122
LJ          -2.37085       -0.812374        -0.91234
LJ          -1.78719        0.117269       -0.964408
LJ          -2.40208       0.0743881      -0.0310817
LJ           -1.6261       -0.738399      -0.0121901
LJ         -0.828641       -0.779466       -0.690168
LJ         -0.150702        0.166804        -1.00438
LJ         -0.658191      -0.0379785       0.0771682
LJ        -0.0424561       -0.874571         0.11521
LJ          0.922293        -1.13552       -0.754288
LJ           1.84318       -0.189743       -0.628558
LJ          0.769604        0.107361        0.121672
LJ           1.96314        -1.03624       0.0221266
LJ           2.43988        0.791291       -0.755395
LJ          -1.82983         1.66398       -0.720339
LJ           2.53705         1.59627      -0.0587078
LJ          -1.88345        0.944702        0.139852
LJ          -1.06671         0.80403        -0.95744
LJ          0.145168         1.74469       -0.821959
LJ         -0.756712         1.70378       -0.122513
LJ         0.0692717        0.850069       -0.168763
LJ          0.868282        0.894038       -0.909773
LJ           1.64065         1.70607       -0.872794
LJ          0.861402         1.75149      -0.0765955
LJ           1.61163        0.831822        0.142042
LJ           2.44663          2.4476        0.669667
LJ          -1.50531        -1.81496        0.778875
LJ          -2.55002        -1.44994         1.58095
LJ          -1.99529        -2.42888         1.67029
LJ         -0.886316         2.42719          1.0242
LJ      -0.000142403        -1.46485         1.09467
LJ          -1.05525        -1.70147         1.86067
LJ        0.00438314        -2.25164         1.69488
LJ          0.783723         2.36338        0.866684
LJ           1.66514        -1.52444         1.04665
LJ          0.822013        -1.71005         1.79064
LJ           1.73482         -2.5066         1.49132
LJ          -2.41903       -0.751386        0.655895
LJ          -1.64345       0.0887497        0.884734
LJ           2.36758       0.0187289         1.65186
LJ          -1.70273       -0.887348         1.60509
LJ         -0.829708       -0.922681         1.07347
LJ          0.165422       -0.118726         0.91261
LJ         -0.956546       0.0412687         1.83947
LJ          0.221265       -0.783308          1.7607
LJ          0.929868       -0.826813        0.592649
LJ           1.75075       -0.327907        0.835956
LJ          0.848487       0.0468017         1.72531
LJ           1.50947       -0.780705         1.77382
LJ           2.32381        0.967663         1.03422
LJ          -1.79153         1.68745          1.0058
LJ           2.49653         1.88142         1.62132
LJ          -1.79179        0.877982         1.63541
LJ         -0.823068         1.00351        0.750366
LJ          0.373046         1.39093        0.773526
LJ         -0.706768         1.35539         1.73029
LJ         0.0790691        0.784014         1.68003
LJ           1.18068         0.64141         1.01076
LJ           1.53515          1.7417        0.708562
LJ          0.976899         1.71067         1.66561
LJ           1.80699         1.08483         1.92625
