108
#Comment!
LJ         0.0207712        -2.01203        -2.00095
LJ           1.94756       0.0192235        0.649419
LJ          0.154948         1.37936       -0.282262
LJ          -2.01699        -2.22386          2.1475
LJ          -2.29625        -1.64173        -2.22673
LJ           1.29895        -2.48541         1.50672
LJ          -1.35838         0.56038       -0.249188
LJ         -0.880675       0.0815405         2.25219
LJ          -1.16448        -1.28613        -1.33281
LJ          0.692896         2.39733        -2.25111
LJ          -1.26511        -2.27353       -0.270388
LJ         -0.856097        0.995028        -2.25379
LJ         -0.623966         2.00605       -0.897694
LJ          -1.95643        0.905866          -2.515
LJ           2.20228        -0.40705        -2.36323
LJ           1.29389       -0.568871      -0.0850423
LJ           1.04997         1.44925        -1.09194
LJ          0.143046        0.218318        -1.88455
LJ          -1.92704         1.86005         1.79148
LJ           1.06985        0.759525        -2.01168
LJ           0.51254       -0.873827        -2.12428
LJ          -1.17781         1.97051         2.51064
LJ          -1.04305       0.0112478        -1.88526
LJ          0.148022        0.531112         1.19236
LJ           1.86224        0.864478        -1.15504
LJ          -2.27532         2.08116        0.249165
LJ             1.894        -1.93099         2.34537
LJ         -0.858474       -0.425334      -0.0961174
LJ          0.184281         1.84467         1.59507
LJ          0.859839        -1.67874        0.237788
LJ          -1.42476        0.625113         1.53716
LJ         -0.877402         1.77075       0.0664398
LJ          -0.28549        -2.05589       -0.841627
LJ           -2.2785       -0.341128      -0.0302225
LJ          -1.37842        -1.52795         1.38208
LJ          -2.36909        0.936228         1.75975
LJ          -1.57235         -2.3756        0.740645
LJ           2.29202        -0.16222         1.63779
LJ          -1.21237        -2.37493        -1.31284
LJ         -0.378712       -0.245991        0.803767
LJ         -0.757912        -1.41784        0.491376
LJ          -1.98292       -0.556462         1.33213
LJ          -1.94438         2.30503       -0.746478
LJ           2.19804         2.33775        -0.59174
LJ           1.78705        -2.20318        0.453236
LJ          0.670482        -1.36775       -0.802132
LJ         -0.542952       -0.906053        -2.18185
LJ           2.36844         2.17479         1.21942
LJ           1.79254        -1.57416       -0.654328
LJ          -1.75876        0.617881        -1.46806
LJ           1.22055       0.0870781         1.55256
LJ          -1.88569        -1.20225        0.487099
LJ         -0.604937          1.2999         1.83603
LJ          -2.01793         2.41453        -2.09318
LJ         -0.312648        -2.47771        0.298934
LJ          -1.23788         -1.9541         -2.2652
LJ          -2.47039          1.5155        -1.59611
LJ         -0.603566        0.542494       -0.982281
LJ          -1.08061        -0.93817         2.13415
LJ          -2.02915        0.426178        0.666499
LJ          -2.51547        -1.78284          1.1825
LJ           -2.5562        -1.20023         1.93324
LJ          0.944876         1.28532         1.31053
LJ           1.67425        0.290506        -0.30285
LJ          -1.53771         1.45489        0.801677
LJ          0.811874        -1.82472         2.15428
LJ         -0.485737        -1.74175         1.82757
LJ          0.311043         1.34805         2.54747
LJ          -2.39357        -2.01397      -0.0122185
LJ           0.70183        0.424821       -0.680362
LJ           2.49482        0.455535         -1.9859
LJ           1.40254        -1.45558         1.23463
LJ           1.82294          1.0459        0.852482
LJ          0.768053         2.33309       -0.141905
LJ          -1.34715         1.73425        -1.48292
LJ           1.42447         1.48265       -0.198871
LJ         0.0622682        0.434582         2.20417
LJ          0.271027       -0.887624        0.138533
LJ          -1.98985       -0.722517        -1.86237
LJ           -1.9518       -0.246275         2.42302
LJ           2.07421        -1.22577        0.227932
LJ         -0.099544       -0.682795         1.78983
LJ          -1.93355         1.27675         -0.6795
LJ           1.20788       -0.140511        -2.55862
LJ         0.0277426         1.16783        -1.51804
LJ         -0.103373        -2.54818         2.25086
LJ           -1.4065       -0.209496       -0.981034
LJ           1.62417        -1.00239         2.17567
LJ           2.00249        -2.47141        -1.71358
LJ        -0.0439591        0.419692     -0.00946935
LJ           0.20232        -1.91738         1.07598
LJ            1.3983          1.7819        -1.96707
LJ           1.21829        -1.64795        -2.07407
LJ           1.37982         2.06776        0.756263
LJ           1.16548       -0.546922        -1.21726
LJ          -0.69963        0.817669        0.693656
LJ         -0.203457         2.12358        -1.85443
LJ          0.868253        0.319652        0.493486
LJ         -0.093331       -0.692648       -0.950509
LJ            2.2686       -0.331584        -1.05097
LJ         -0.768645         2.24718         1.13191
LJ           2.40125         1.13675       0.0692303
LJ          0.285256         1.78702        0.618493
LJ           1.86552        0.742133         2.31361
LJ          -2.00579        -1.06633       -0.768546
LJ           2.27754         1.74768         2.45314
LJ          0.764019        -2.45504        -1.30138
LJ          -2.23908        -2.09962         -1.3229
