108
#Comment!
LJ           2.56043        -2.44321        -2.55634
LJ          -1.73805          -1.659         2.48671
LJ           2.52721        -1.68037        -1.71024
LJ          -1.74227        -2.36284        -1.75426
LJ         -0.832678         2.51655         2.51891
LJ         0.0504844        -2.03557        -2.50267
LJ          -1.09659        -1.42548        -1.61104
LJ         0.0283477         2.25323        -1.66937
LJ          0.964306          2.3289        -2.49678
LJ           1.80323        -1.77136         2.55897
LJ           1.02896         -1.8051        -1.66191
LJ           1.93957         2.49446        -1.57405
LJ            2.4554       -0.797576         2.52228
LJ          -1.76924        0.116275         2.50612
LJ           2.54592         0.16226        -1.85598
LJ           -1.6393       -0.536166        -1.54916
LJ          -1.11891       -0.857592        -2.42693
LJ         0.0128044       -0.210208        -2.42607
LJ         -0.839018      -0.0523381        -1.67941
LJ         -0.108485        -1.03815        -1.88339
LJ          0.978952        -1.07013        -2.45528
LJ           1.70614      0.00172095        -2.48069
LJ          0.769764       0.0269152        -1.72372
LJ           1.62321       -0.725674        -1.69746
LJ          -2.45092         1.10145          2.4843
LJ          -1.74884         1.85076         2.55778
LJ          -2.51156         1.65336        -1.61903
LJ          -1.53918        0.886776        -1.76706
LJ         -0.651947         1.04811        -2.55446
LJ          0.118325         1.79037         2.53227
LJ         -0.803978         1.73884        -1.68863
LJ         0.0538595         1.07474        -1.72057
LJ          0.987932         0.83473        -2.56284
LJ           1.83927         1.83694         2.52369
LJ          0.887303         1.75333        -1.64753
LJ           1.77814        0.903824        -1.81142
LJ           2.51471         2.34617       -0.649532
LJ          -1.50475        -1.94071       -0.755677
LJ          -2.43532        -1.78034      -0.0792374
LJ           -1.7691         2.41931     -0.00178423
LJ          -0.68789        -2.48722        -1.03915
LJ          0.119846        -1.70511       -0.911201
LJ         -0.454153        -1.75368     -0.00682565
LJ          -0.31851         2.37394        0.169143
LJ            0.8048        -2.52894       -0.970218
LJ           1.76348        -1.68118       -0.989258
LJ          0.612872        -2.09787       0.0268384
LJ           1.69668        -2.31949      -0.0121336
LJ           -2.4027       -0.901436        -0.68621
LJ          -1.82718       0.0425691       -0.632017
LJ           2.46921       0.0665572       0.0177003
LJ          -1.55126       -0.932862        0.020534
LJ         -0.605172       -0.868157       -0.796208
LJ        -0.0759155        0.283571       -0.989188
LJ         -0.922115      -0.0713058      -0.0997167
LJ       -0.00804613       -0.769743         0.23978
LJ          0.868258        -1.05084       -0.723519
LJ           1.89843       -0.141889       -0.857342
LJ          0.767391      0.00544419      -0.0582784
LJ            1.6548       -0.918671       -0.152674
LJ           -2.3993        0.911525       -0.954952
LJ          -1.59995         1.72423       -0.840904
LJ           2.44679         1.67098        0.124704
LJ           -1.9735        0.985245     -0.00236643
LJ          -1.06114         0.65768       -0.838053
LJ         0.0343288           1.672       -0.790425
LJ         -0.831894         1.56342       -0.158086
LJ        -0.0165848        0.863779       0.0605781
LJ          0.762361        0.918787       -0.660546
LJ           1.58589         1.62983       -0.998101
LJ          0.877724         2.04448      -0.0314478
LJ           1.74444        0.801397       -0.253155
LJ           2.44809         2.49712        0.838929
LJ          -1.39854        -1.72804        0.617135
LJ           2.49908        -1.54756         1.79058
LJ          -2.02144         2.52793         1.67046
LJ         -0.691512        -2.44567         1.09072
LJ          0.130569         -1.6585        0.877737
LJ         -0.899305        -1.70349          1.6904
LJ         0.0725418        -2.35655         1.77124
LJ          0.895606         2.48297        0.903025
LJ           1.97407        -1.50086        0.697482
LJ          0.965979        -1.88381         1.64965
LJ           1.70062         2.53596         1.71477
LJ           2.51496       -0.631746         1.00514
LJ           -1.7097      -0.0714104        0.889993
LJ           2.51555      -0.0122169         1.85425
LJ          -1.68867        -0.91404         1.60637
LJ         -0.698338       -0.874754        0.976382
LJ         0.0572298       0.0460641         1.03221
LJ         -0.877251        0.211206         2.00423
LJ          0.142509       -0.855224         1.86743
LJ           1.03206         -1.0264        0.672935
LJ           1.67643       -0.186851        0.717369
LJ          0.768091     -0.00557746         1.91961
LJ           1.67442       -0.859783         1.69455
LJ           2.52514        0.826113        0.941445
LJ          -1.42359           1.892          0.7688
LJ           2.38604         1.71306         1.58132
LJ          -1.70639        0.964039          1.5625
LJ         -0.893713        0.665531        0.865769
LJ          0.241558         1.44054        0.885545
LJ         -0.888251         1.56958         1.56382
LJ         0.0141078        0.842569         1.60878
LJ          0.997687        0.688899        0.832533
LJ             1.607         1.73467        0.672667
LJ           0.91312         1.53614         1.85497
LJ           1.74871         0.83599         1.80346
