108
#Comment!
LJ           2.54379        -2.53957         2.46068
LJ          -1.78867        -1.71185         2.47623
LJ          -2.52385        -1.67484        -1.63864
LJ          -1.75973        -2.39345        -1.75079
LJ         -0.876218         2.48383         2.52575
LJ         0.0519987        -1.97048        -2.54444
LJ         -0.907292        -1.52264        -1.54412
LJ          0.104574         2.28393        -1.67909
LJ          0.988149         2.34569         -2.3906
LJ           1.79939         -1.6891        -2.55653
LJ            1.0156         -1.8167        -1.68492
LJ           1.97377        -2.52693        -1.51693
LJ           2.51091       -0.834133         2.55475
LJ          -1.78921       0.0761352         -2.5268
LJ          -2.46694        0.191509         -1.7839
LJ          -1.62709       -0.499808        -1.40501
LJ           -1.1478       -0.919726        -2.49297
LJ         -0.107787       -0.218074        -2.44738
LJ         -0.808421       0.0997774        -1.75029
LJ         -0.103272        -1.00268        -1.80259
LJ           0.98567        -1.06559        -2.45917
LJ           1.69713       0.0784294         2.56281
LJ          0.790221      -0.0896604        -1.57476
LJ           1.72501       -0.844082        -1.70428
LJ          -2.43579         1.03949         2.37226
LJ          -1.78351         1.81616          2.5549
LJ          -2.51613         1.72531        -1.65363
LJ          -1.50318        0.867867         -1.7148
LJ         -0.700631         1.08017         -2.5176
LJ          0.122453         1.84966         2.52197
LJ         -0.748141         1.78348        -1.74101
LJ         0.0787605        0.883731        -1.82539
LJ          0.913555        0.815196         -2.4828
LJ           1.78386         1.81189          2.4194
LJ          0.927332         1.67889        -1.57305
LJ           1.81879        0.817484         -1.7705
LJ          -2.56202         2.43194       -0.728721
LJ          -1.49152        -1.87683       -0.689907
LJ          -2.46939        -1.76426       -0.126409
LJ          -1.71373         2.46447      -0.0918202
LJ         -0.655906        -2.46405       -0.977674
LJ         0.0700021        -1.69709       -0.860919
LJ         -0.543049        -1.78921      0.00719958
LJ         -0.224937         2.36763        0.111956
LJ          0.844089        -2.52128       -0.917631
LJ           1.72842        -1.70771        -0.86656
LJ          0.644274        -2.00906         0.15513
LJ           1.63996        -2.36468       0.0188415
LJ          -2.43761       -0.927712       -0.736394
LJ          -1.88826       0.0830041       -0.629769
LJ           2.39323        0.074231      -0.0226449
LJ          -1.64664       -0.846896       0.0305305
LJ         -0.608847       -0.791766       -0.825494
LJ         0.0297518        0.165287       -0.891395
LJ         -0.852343      -0.0382683      -0.0525489
LJ         0.0268529        -0.81301        0.240754
LJ          0.856861       -0.878718       -0.708083
LJ            1.8723       -0.157182       -0.874121
LJ          0.830274       0.0504803        -0.11092
LJ           1.69077       -0.848334       -0.132822
LJ          -2.47882        0.949449        -0.94624
LJ          -1.61308         1.72795        -1.04886
LJ           2.52027         1.65136       0.0826351
LJ          -1.94193        0.884476        0.103285
LJ         -0.896052        0.721846       -0.891611
LJ         -0.104952         1.53291       -0.822971
LJ         -0.899708         1.46571      -0.0072458
LJ         0.0737007        0.932403         0.16025
LJ          0.819975         1.02024       -0.643084
LJ           1.77019         1.64192       -0.898424
LJ          0.797653         1.98968       0.0344457
LJ           1.72237        0.855341       -0.121233
LJ           2.52056        -2.52419        0.797299
LJ          -1.49532        -1.72371        0.717655
LJ           2.47396        -1.47585         1.68326
LJ          -1.93168         2.48368         1.56106
LJ         -0.789871        -2.44959         1.11894
LJ          0.150936        -1.56892        0.892656
LJ         -0.828694        -1.64117         1.71518
LJ          0.132872        -2.40615         1.70657
LJ           1.01128         2.50293        0.870229
LJ           1.92048        -1.53538        0.686489
LJ          0.900044        -1.76713          1.7509
LJ           1.64058        -2.51066         1.75579
LJ            2.4637       -0.655295        0.999008
LJ          -1.80108       0.0102968         0.77311
LJ           2.45244       0.0553223         1.94931
LJ          -1.65722       -0.981041         1.49201
LJ         -0.719412       -0.873339         1.02585
LJ         0.0560859      -0.0663317        0.972948
LJ         -0.870546        0.172845         2.10124
LJ          0.153627       -0.982197           1.755
LJ           1.02221        -0.87661        0.814518
LJ           1.64919       -0.117377        0.632659
LJ          0.712047       -0.029679         1.85201
LJ           1.54082       -0.855734         1.67012
LJ           2.48342        0.644687        0.931654
LJ          -1.45435          1.9447        0.745216
LJ           2.47013         1.55481         1.53403
LJ          -1.59416        0.898706         1.56992
LJ         -0.939061        0.661908        0.837312
LJ          0.135896         1.54751        0.855372
LJ         -0.827632         1.60091         1.53783
LJ        -0.0680903        0.945076         1.54033
LJ          0.812911        0.639953        0.912745
LJ           1.71117         1.73387        0.736522
LJ          0.874858         1.59786          1.7686
LJ           1.75406        0.732142         1.70202
