108
#Comment!
LJ           1.51688        0.550936        0.986806
LJ           -1.4461         1.22297       -0.591318
LJ         -0.772673        0.374461         1.41819
LJ          0.543797        -2.44888       -0.138883
LJ         -0.601517        -2.26117         1.44007
LJ            2.4638         1.53695        -2.33468
LJ         -0.969806        -1.41579        0.714123
LJ           -0.2675        -0.24022          2.3667
LJ         0.0314045         2.26145        0.694062
LJ          0.902317        -1.05438         1.34416
LJ           2.16877         1.90833        -1.45659
LJ          -1.68493        -2.19473         1.09119
LJ          -1.26164       -0.999965         1.58291
LJ            1.6083       -0.533171       -0.461803
LJ           -1.9344       -0.906633       -0.633638
LJ          -1.22482           2.457        -1.95395
LJ         -0.248029        -1.35158         2.54301
LJ           0.82135        0.804142       -0.746464
LJ            1.9496       -0.742365         2.39074
LJ          -1.73206         1.37413         1.15477
LJ         -0.995569        0.638781         2.41719
LJ          -2.22796        0.361689       -0.966967
LJ           2.07661        0.630166      -0.0159988
LJ           2.29431         -2.1363        -1.75474
LJ          0.725366        0.678038        -2.30867
LJ         -0.110932         2.52422       -0.973447
LJ         0.0283298         0.35926        -1.61256
LJ           0.53412       -0.603145        0.646123
LJ           1.48603         1.55505       -0.272531
LJ          0.683393       -0.690148         2.26586
LJ         -0.790284        -1.63002        -1.75959
LJ          -1.36466         1.48955        -2.35832
LJ           1.03547        -1.37649        -0.15688
LJ           -2.4248       -0.312533        0.149332
LJ          -1.12122         2.35662         2.19244
LJ         -0.742268        -2.39113        0.210895
LJ          -1.71101      0.00699387         1.71051
LJ         -0.828088         1.63707        -1.42849
LJ           1.54661         1.26547        -1.91875
LJ         -0.470682       -0.663165         1.06415
LJ          -2.21382       -0.708988        -1.97904
LJ         -0.594873         1.83737       -0.428898
LJ         0.0515316         1.20909         1.06351
LJ        -0.0948823        -1.62522      -0.0259579
LJ          0.527358        0.147619         1.34337
LJ           2.52868        -1.87598       -0.708205
LJ           2.09731        -1.00639        -1.33879
LJ          -1.23936        0.296739       -0.358273
LJ         -0.954062        -1.88259       -0.701514
LJ          0.884716       -0.807952        -1.31684
LJ           1.27808        0.114276         2.17071
LJ           1.71583       -0.311451        0.591767
LJ          -1.38205        0.086058        0.695196
LJ          0.774623        0.582341        0.372389
LJ           2.54072         1.35685       -0.633848
LJ           2.54148         2.31177       -0.407186
LJ           1.33885        -2.35669        -2.20871
LJ         0.0527893       -0.411121       -0.291085
LJ           2.05711        0.894121         2.03213
LJ           1.68463        -0.22198        -1.81491
LJ         -0.107721        -1.36925        -1.06361
LJ           2.24303         1.57503        0.598862
LJ           1.50407        -1.41009        -2.05124
LJ          -1.81225         1.94106        0.220629
LJ         -0.127944       -0.569325        -1.74472
LJ          -2.34717        -1.43967         1.81529
LJ          -2.11799         2.55346         2.51156
LJ          -1.89831         1.35445        -1.45168
LJ          0.021372        -1.48756         1.10542
LJ           1.69496        -2.43986       0.0239998
LJ           2.12838        -2.06379         2.27385
LJ        -0.0981553        -2.43291         2.42548
LJ          0.420821         2.19297        -1.84651
LJ          -1.21204        -1.78266            2.38
LJ           1.09252        -1.80726        -1.10619
LJ          -1.04029        0.715237        -1.66603
LJ          -1.54399         2.32827       -0.853541
LJ          0.750318        -1.81323         1.94399
LJ           1.59982        -2.44742         1.40273
LJ          -0.26924         1.47934           2.003
LJ           2.28077       -0.343783         1.49603
LJ            1.8431        0.526136        -1.09806
LJ          -1.38591        -0.29563        -2.37313
LJ          -2.11485         0.83261        0.180418
LJ           1.39785         1.85505         2.26213
LJ           1.14081         1.72824         1.03173
LJ          0.893629         1.08216         1.83537
LJ          -2.48186         2.24343         1.49897
LJ           2.54002        0.628689         1.16422
LJ          -1.07058        -0.78151       -0.197789
LJ         -0.319132         0.83127       -0.568039
LJ           0.56545         2.24134         1.67629
LJ          -1.72402        -1.75287       0.0222788
LJ          0.776669        -2.15376        0.829514
LJ          0.165855         1.45575        -1.18285
LJ         -0.885721         1.46436        0.444785
LJ         -0.966566       -0.526521        -1.17803
LJ           2.56408         0.53166        -2.03506
LJ           1.89172         -1.5672         1.05806
LJ         -0.182158         1.22242         -2.1185
LJ          -1.93054       -0.973725        0.833655
LJ           -2.0114         1.02569         2.26516
LJ          0.531204         1.66947      -0.0128978
LJ          0.487626        -1.84564        -2.07973
LJ         -0.221814        0.271015         0.46876
LJ           -1.8668        -1.95645        -1.42213
LJ           2.38133        -1.36695        0.192569
LJ          0.983435         1.95431       -0.995604
