108
#Comment!
LJ          -2.52194        -2.43092         2.55287
LJ          -1.75842        -1.47908         2.51366
LJ          -2.21985        -1.54721        -1.72932
LJ          -1.63237        -2.38712        -1.83304
LJ         -0.818007         2.27984        -2.44497
LJ         -0.109813        -1.55769         2.46149
LJ           -0.9407        -1.53609        -1.94337
LJ         0.0402184         2.53946        -1.89011
LJ             1.018        -2.31164         -2.4033
LJ           1.69248        -1.56084          2.4163
LJ           1.19533        -1.67708        -1.64989
LJ           1.88858         2.47958        -1.59599
LJ           2.38333       -0.651664        -2.55472
LJ          -1.76332      -0.0729076         2.31592
LJ          -2.48452      -0.0817152        -1.76021
LJ          -1.48363       -0.678245        -1.74485
LJ          -0.89305       -0.740848        -2.54717
LJ         0.0848173        -0.16676        -2.43697
LJ         -0.826004       0.0953471        -1.72232
LJ          0.167191       -0.966006        -1.69854
LJ          0.768414       -0.944787        -2.48051
LJ           1.64176      0.00310235        -2.41941
LJ          0.823219        0.176128        -1.71367
LJ           1.58754       -0.614915         -1.5582
LJ          -2.52464        0.846608        -2.43013
LJ          -1.85963         1.95783         2.40597
LJ          -2.49795         1.72168         -1.5932
LJ          -1.55889        0.750613        -2.03658
LJ         -0.510298        0.679891         2.51261
LJ         0.0369958         1.75762         2.31865
LJ          -1.29231         1.72533        -1.76866
LJ         0.0634931         1.00552        -1.68975
LJ           1.05952         1.04436        -2.52015
LJ           1.71706         1.86528         2.49671
LJ           0.94953         1.91403        -1.87399
LJ           1.83424        0.888196        -1.76145
LJ          -2.50837         2.53596       -0.729854
LJ          -1.44256        -1.67627       -0.919276
LJ          -2.29577        -1.62676         -0.1367
LJ          -1.60658         2.34175        0.120682
LJ         -0.672644        -2.43779        -1.00293
LJ         0.0920569         -1.8002       -0.698455
LJ          -0.71387        -1.77461       0.0189883
LJ         0.0071118         2.30919        0.119647
LJ          0.771687         2.50255       -0.935124
LJ           1.95219        -1.60947       -0.914803
LJ           0.83891        -1.85788        0.215447
LJ           1.73705        -2.46292       0.0615085
LJ          -2.37157       -0.817851       -0.873594
LJ          -1.82066        0.160027       -0.935646
LJ          -2.41942       0.0477073      -0.0152832
LJ          -1.58273        -0.67894      -0.0415847
LJ         -0.763975        -0.75334       -0.724173
LJ        -0.0368589        0.115753        -1.02867
LJ         -0.678358       -0.038451        0.131602
LJ        -0.0588789       -0.882689        0.193344
LJ          0.983693        -1.06334       -0.753049
LJ           1.79733        -0.26645       -0.629103
LJ          0.802269       0.0955279          0.1565
LJ           1.95501        -1.06161      -0.0194733
LJ           2.44969          0.7786       -0.802013
LJ          -1.83063         1.70819       -0.680799
LJ           2.50061         1.69555       -0.060972
LJ          -1.77744        0.944891        0.116255
LJ          -1.05134        0.809497       -0.984446
LJ         0.0160067         1.67683       -0.839098
LJ           -0.7695         1.70661       -0.135841
LJ         0.0700091         0.84744        -0.13251
LJ          0.880484        0.950585       -0.921547
LJ           1.64322         1.72229        -0.80829
LJ          0.949322         1.70092       -0.111698
LJ           1.61863        0.810169       0.0815672
LJ           2.50263         2.42129        0.694353
LJ          -1.48187        -1.84732         0.77542
LJ           2.55499        -1.39605         1.56189
LJ           -1.9551         -2.3282         1.63427
LJ         -0.851451          2.4257        0.983554
LJ         0.0022352        -1.47244         1.11287
LJ         -0.968607        -1.72505         1.78062
LJ         0.0175963         -2.2885         1.75618
LJ          0.750232         2.37355        0.871768
LJ           1.68763        -1.57434         1.06712
LJ          0.779492        -1.66135         1.75204
LJ           1.70572        -2.53501         1.46182
LJ          -2.37305         -0.7545        0.727341
LJ           -1.6637       0.0817877        0.799841
LJ            2.4353       0.0143065         1.61852
LJ            -1.735       -0.913133         1.60077
LJ         -0.813492       -0.865566         1.01296
LJ          0.139159       -0.215375        0.868123
LJ         -0.916066    -0.000959922         1.83107
LJ          0.178691       -0.724848         1.74946
LJ           1.00365       -0.899055        0.580399
LJ           1.71803       -0.318983        0.808109
LJ          0.817174       0.0466229         1.71188
LJ           1.48342       -0.778647         1.75869
LJ           2.41073        0.952148         1.08207
LJ           -1.8646         1.62952          0.9811
LJ           2.43696         1.86289         1.54724
LJ          -1.75129        0.861204         1.71184
LJ         -0.850007        0.949161        0.787633
LJ          0.371183         1.38535        0.714872
LJ         -0.692488         1.47388          1.7233
LJ          0.127354         0.78036           1.692
LJ            1.2056        0.592668         1.01435
LJ            1.5776         1.82699        0.716456
LJ          0.955027         1.71056         1.69263
LJ           1.84876         1.03176         1.88796
