108
#Comment!
LJ           1.78957         -1.1276         1.39323
LJ         -0.672081        -1.43359       -0.974549
LJ          0.285545       -0.925322        -1.40068
LJ          -1.88872          2.0499       -0.857839
LJ          0.933691       -0.169412         1.94213
LJ           1.56005        0.652806       -0.233772
LJ          0.735495        0.573228        -2.39691
LJ          -1.01019        -2.09105        -1.86691
LJ          -1.94407        -1.33556         2.21327
LJ           1.36002          -2.311       -0.313512
LJ            1.8004         1.34434         1.84566
LJ          -1.90227         2.27251        0.542099
LJ           1.24963       -0.276899         0.83055
LJ         -0.493695       -0.367229         1.88794
LJ          -1.91851        -2.55392          2.2679
LJ         -0.957713         1.49603       -0.548042
LJ         -0.693112       -0.295199       -0.261057
LJ          -1.89106        0.455885         -1.8143
LJ          -2.49582        -2.13691        0.993863
LJ           2.21302        -2.41626         2.12735
LJ           2.18557        0.641408        -2.39978
LJ          -1.48044        0.726861        0.285296
LJ          -2.48124         1.81842         1.37792
LJ            2.0401       -0.526716        0.258803
LJ           1.30643         1.69884        0.835093
LJ            1.6788      -0.0498076        -1.89701
LJ          -1.79811        -1.08295        -1.95154
LJ         0.0386125        -2.25743        -1.51103
LJ         -0.366932        0.436464        -1.04179
LJ          0.751388          2.2668        -1.35654
LJ         0.0800154         1.36523          -1.868
LJ         -0.404992        0.672261      -0.0250403
LJ          -1.07303        0.687689         1.93015
LJ          -1.21054        -2.54195       -0.283538
LJ         -0.829927            2.43         1.36358
LJ          0.659584         1.03691        0.402446
LJ          -2.10288       -0.728526       -0.581514
LJ          -2.07152        -1.19816        0.416115
LJ         -0.403056         1.58111         2.23488
LJ          0.418861      0.00220112       -0.261526
LJ          0.381045         1.23893         1.48756
LJ          -1.63939         1.49982        -2.07953
LJ          0.428173        -1.97965         1.33594
LJ          -1.95274         0.96395          1.1931
LJ           2.50716       -0.471026        -1.50234
LJ           1.55185         1.48753        -2.06897
LJ           2.19847         1.96944        0.346782
LJ          -1.29841       -0.809366         1.62233
LJ          -1.65085        0.436887       -0.807651
LJ           1.59942       -0.257871       -0.626298
LJ          0.446359        -1.95079       -0.336751
LJ          0.254066         1.25963       -0.920843
LJ          0.938043        -1.70905        -1.29035
LJ          -1.86089       0.0120969         1.45962
LJ           2.17261          1.8482       -0.906197
LJ          0.479267           2.457        0.550961
LJ           1.88122       -0.522863         2.38563
LJ         -0.754952      -0.0519693        0.913897
LJ           2.54231        0.158167       -0.610451
LJ           2.53109         1.12715        -1.54753
LJ         -0.294769        -1.51288         1.99875
LJ          -2.41113         2.40679        -1.66486
LJ         -0.507365        -2.31189        0.408268
LJ           1.28859        0.656425         1.17636
LJ           2.14281        -1.56273        0.326487
LJ         -0.569574         1.10703         1.21211
LJ           -1.6493       -0.308893         0.35575
LJ           1.21329         2.52107         2.05093
LJ         -0.903519         2.07875        -1.50139
LJ           2.01903        -1.24243       -0.772416
LJ          -1.12782        -2.01536         2.19143
LJ          0.959451        -1.21785         1.90846
LJ          0.557256        -1.96579        -2.49162
LJ         -0.165449         1.60787        0.366626
LJ           -2.5006        -2.48564       -0.237331
LJ           2.27038        0.875552        0.512855
LJ          -2.32572       -0.919233         1.39398
LJ          0.582546        0.186972        -1.44203
LJ          -1.30845       -0.427906          -1.415
LJ        -0.0233934         2.21183       -0.460811
LJ        -0.0168145        0.555487         2.01289
LJ          -2.07388        0.795766         2.32001
LJ          0.731782         1.68647          2.5364
LJ           1.25003         1.75197        -0.25817
LJ           1.94969        -2.19858        -1.17413
LJ          -1.48211         1.54091         1.90207
LJ          0.202816        0.190996        0.875457
LJ          -1.02705        -1.54668      -0.0359043
LJ          -1.27235        -1.80242        0.929617
LJ           2.49278         1.75181        -2.47902
LJ           1.51522        -2.22217          1.0046
LJ        -0.0589116      -0.0111164        -2.27371
LJ           0.11679         -0.9837       -0.123588
LJ           2.31435        0.453045         1.65681
LJ         -0.309864         2.42395        -2.34885
LJ           1.45845        -2.55475        -2.08622
LJ          -1.75678        -1.74504       -0.967591
LJ           -2.2605       -0.265595        -2.43629
LJ           1.41569          1.0123           -1.14
LJ         -0.886366        0.693217        -2.05056
LJ         -0.672072       -0.926701        -2.20366
LJ         0.0605855         2.39921         1.87183
LJ          0.288906       -0.853308         1.10595
LJ           1.87305        -1.60467        -2.24715
LJ          0.999008        -1.20815        0.398428
LJ          -2.07229         1.45999      -0.0279569
LJ          -1.27649       -0.170863         2.55544
LJ           1.39651       -0.918375        -1.60985
