108
#Comment!
LJ          -2.49878         1.54197       -0.418906
LJ          0.876467        0.991279        -0.17651
LJ          -1.80952       -0.681168         1.43312
LJ          0.584964        -1.01544         2.10318
LJ          0.891812        -2.22323        0.463805
LJ          -2.41434       -0.596092       -0.623682
LJ           2.06411        -1.71529        0.938955
LJ           -1.3778         0.35381         1.15898
LJ           1.82551        -1.88707        -1.45946
LJ          -2.07023        -1.52822       -0.462255
LJ           2.43433         2.46257       -0.908154
LJ           1.28584         2.56214          2.0971
LJ          -1.90177        0.999592         -2.1494
LJ         -0.107407         2.34779        -1.78511
LJ         -0.306899       -0.630301       -0.646851
LJ         -0.788403         1.60475        -1.11968
LJ           1.45949       -0.612754        0.789767
LJ        0.00679767         1.40354        -0.49482
LJ           2.00206        0.581113          2.1591
LJ         -0.189736        0.449575         1.51132
LJ          -1.97585         1.72691         1.66232
LJ          0.677016        0.693891         2.47071
LJ           1.47314       -0.272156        -1.48737
LJ           1.56172         2.15722        -1.64045
LJ          0.323699        0.289647        -1.76168
LJ          -1.26789        -2.04411       -0.830744
LJ         -0.432307          1.7347        0.571197
LJ           1.75953        -0.11841        -0.23607
LJ          -2.30822        0.329879        0.338455
LJ           1.12346        0.435792         1.29148
LJ         -0.882674        0.523555        -1.87535
LJ          0.861463        -2.18945        -1.56903
LJ         -0.815785        -1.38546        0.895598
LJ          -1.70338         1.14624        0.744139
LJ           1.21953         1.47879          1.7996
LJ           0.78895        -0.82157       -0.930182
LJ            2.5626         1.78633        0.787448
LJ          -2.26757         -1.1109        -1.56906
LJ           2.47858        -1.93386         -2.5194
LJ           -1.7989        -1.93122        0.596034
LJ          -1.95817        0.706612         1.91112
LJ         -0.280047        -2.19001         0.37042
LJ            1.9942        0.939352        0.380411
LJ           2.52717       -0.767327        0.438685
LJ         -0.304068         0.80484        0.317158
LJ           0.99926        -1.83689       -0.557625
LJ           1.93003        -1.16117       -0.800531
LJ           1.04872        -1.06976       0.0187604
LJ           1.14876        -1.21384        -1.93464
LJ         -0.159747        -1.85608       -0.635084
LJ          -1.61941       -0.493434         0.25492
LJ         -0.723546       -0.350641         1.05709
LJ          -1.06086         1.02807          2.4033
LJ          -1.34235       -0.728213       -0.973197
LJ           0.31974        -1.63499         1.13705
LJ          0.230973      -0.0664758         0.15363
LJ           1.98955         2.41865       0.0714295
LJ         -0.116471         1.13768        -2.05579
LJ           2.15215         1.84827         2.44108
LJ           1.23735       -0.164397         2.13195
LJ         -0.729412       -0.448548        -1.80401
LJ         -0.803192        -2.12915        -2.29234
LJ         -0.468316       -0.922233         2.21673
LJ          0.515411         2.26594         1.23339
LJ         -0.687485        0.332249       -0.597657
LJ          -1.18961       -0.135219         2.30553
LJ          -1.32531        -1.09205        -2.29656
LJ          -1.63632         2.00189       -0.984635
LJ          0.539955          2.3646       -0.820622
LJ          0.423716         1.26961        0.882765
LJ          -1.08959        -2.46325         1.07225
LJ            1.5963          1.7212        0.806113
LJ           1.47038        0.860942        -2.00165
LJ         -0.962855        -1.67725         1.82624
LJ           2.10516       -0.715251        -2.41723
LJ          -1.67255        0.221834       -0.414651
LJ         -0.651663        -1.35773         -1.3037
LJ           2.56012        -2.41649         1.58367
LJ           1.58638         1.60693       -0.662017
LJ         -0.255135        0.119082         2.49303
LJ          -1.70129       -0.125655        -1.82804
LJ           1.34341        0.576178       -0.955218
LJ          -1.18029         1.16813      -0.0994838
LJ           2.31907        0.522232       -0.695173
LJ          -1.36475         1.84046        -2.03612
LJ         -0.855603          1.3319         1.43984
LJ             2.086        0.160803         1.13512
LJ        -0.0569842         1.47109         2.05023
LJ           0.04578        -1.04887        0.282009
LJ          0.127841        -1.37167        -2.10173
LJ           2.42566         1.27738        -1.46011
LJ          0.714875         1.81091        -2.29382
LJ          0.582374         1.98601        0.129173
LJ          -1.89548        -1.67581         1.94174
LJ          0.182837        -2.18195         2.17887
LJ           2.36707        -1.02543         1.76122
LJ           2.33434        0.224644        -1.84305
LJ           -1.6521        0.964318        -1.12633
LJ          -1.32675         2.27066         0.08473
LJ         -0.764181          2.2179         2.23655
LJ          -1.87859        -2.15909        -1.68632
LJ          -1.83051          2.4063         2.38657
LJ          0.792347         1.32087        -1.35529
LJ           1.50034         -1.5443         2.16147
LJ          0.423489        0.261439       -0.756771
LJ          -1.02345        -1.29889       -0.150362
LJ          0.419751       -0.336943         1.16604
LJ          -2.35538       -0.176324         2.19307
