108
#Comment!
LJ           2.53051        -2.53624         2.53605
LJ          -1.78345        -1.69251         2.49449
LJ          -2.52368        -1.73782        -1.61223
LJ          -1.75061        -2.42923        -1.77782
LJ         -0.945834         2.43987         2.50603
LJ        -0.0129192        -1.97987        -2.50665
LJ         -0.898958        -1.59993        -1.59319
LJ          0.107155         2.28657        -1.69975
LJ           1.02423         2.42652         -2.3524
LJ           1.81035        -1.72679         2.52011
LJ          0.941793        -1.73316        -1.67734
LJ            2.0374         -2.5302        -1.48667
LJ           2.45627       -0.804439        -2.51273
LJ          -1.76871     -0.00243662        -2.54478
LJ          -2.53461        0.193045        -1.76105
LJ          -1.61573       -0.547573        -1.37134
LJ          -1.19905       -0.861891        -2.45101
LJ          -0.16259       -0.242484        -2.46915
LJ         -0.803012        0.152957          -1.834
LJ        -0.0943504        -0.97411        -1.75669
LJ           1.03315        -1.10656        -2.48369
LJ           1.62134        0.129598         2.53072
LJ          0.768278      -0.0919341        -1.52958
LJ           1.71827       -0.815323        -1.67095
LJ          -2.48324         1.06754         2.30235
LJ          -1.74784         1.80596         2.54768
LJ          -2.49655         1.70359        -1.74937
LJ          -1.65504        0.952797          -1.859
LJ         -0.712814         1.07273        -2.49246
LJ         0.0911566         1.85098         2.54357
LJ         -0.760735         1.72502        -1.75189
LJ         0.0453619        0.839931        -1.87964
LJ          0.878021        0.813247         -2.4409
LJ           1.77908         1.84916         2.41845
LJ           0.95865         1.60411        -1.57055
LJ           1.80053        0.805863        -1.77953
LJ          -2.53233         2.45961       -0.728572
LJ          -1.47632        -1.84685       -0.704267
LJ          -2.55579        -1.74058       -0.191472
LJ          -1.68339         2.47411      -0.0713494
LJ         -0.664853         2.55923       -0.931098
LJ         0.0258975        -1.71396        -0.94576
LJ         -0.622017        -1.78056        0.131114
LJ         -0.182786          2.3062        0.106124
LJ          0.820357          -2.475        -0.94658
LJ           1.80933        -1.68181       -0.831739
LJ          0.734143        -1.95706        0.118108
LJ           1.63622        -2.38697      -0.0724538
LJ          -2.53357       -0.919931       -0.775364
LJ          -1.92182        0.097979       -0.705182
LJ           2.38256     -0.00599947      -0.0580603
LJ          -1.61233       -0.913251      0.00550182
LJ         -0.664304       -0.815923       -0.836034
LJ         0.0152989        0.190313       -0.938163
LJ         -0.769841      -0.0715951      -0.0434002
LJ          0.064551       -0.788871        0.177877
LJ          0.765769       -0.838717       -0.797002
LJ           1.82415       -0.164268       -0.858464
LJ          0.739275       0.0472902       -0.124542
LJ           1.71739       -0.924974      -0.0624067
LJ          -2.39466        0.970395       -0.934095
LJ           -1.6584         1.69006        -1.03212
LJ           2.53331         1.59018       0.0795983
LJ          -1.93341        0.834343        0.095705
LJ         -0.992293        0.729106       -0.880007
LJ        -0.0536691         1.55443        -0.85187
LJ         -0.832674          1.5186       -0.107535
LJ         0.0473642         0.99671       0.0642442
LJ          0.806633         1.09691       -0.706651
LJ           1.74731           1.711       -0.902312
LJ          0.868258         2.01718      -0.0110646
LJ           1.82662        0.828859       -0.125099
LJ           2.50378        -2.49204        0.825101
LJ          -1.49016        -1.71065        0.743688
LJ           2.54336        -1.48224         1.70886
LJ          -1.92525         2.46852         1.59458
LJ         -0.755954        -2.48938         1.04962
LJ          0.103156        -1.73589        0.939189
LJ          -0.92173        -1.66859         1.74704
LJ          0.144143        -2.40936         1.73636
LJ           1.03091         2.53889        0.977277
LJ           1.83517        -1.55754        0.766522
LJ          0.905121         -1.6826         1.65022
LJ           1.60617         -2.5186         1.77246
LJ           2.51683       -0.611186          1.0702
LJ          -1.84938      -0.0217142        0.767358
LJ           2.49993       0.0727585         1.90916
LJ          -1.65251       -0.901941         1.48077
LJ         -0.760957       -0.897204        0.958735
LJ         0.0919193      -0.0735456         1.00915
LJ         -0.838069        0.124158         2.11258
LJ          0.112784       -0.953364         1.66833
LJ          0.920816       -0.836633        0.798842
LJ           1.62007      -0.0590418        0.573631
LJ           0.68972      -0.0994169         1.90301
LJ           1.67774       -0.833817         1.66626
LJ           2.44237         0.59967        0.800392
LJ          -1.45324         1.90218        0.759425
LJ           -2.5109         1.60629         1.50619
LJ          -1.59071        0.919419          1.6214
LJ         -0.876202        0.732044        0.686667
LJ          0.189276         1.60441        0.907044
LJ         -0.750308         1.68894         1.52916
LJ        0.00368738        0.944319         1.58413
LJ          0.840777        0.633515        0.915583
LJ           1.73105         1.64976        0.731287
LJ          0.886225          1.6107         1.72932
LJ           1.67262        0.763095         1.68004
