108
#Comment!
LJ          -1.11998        -1.81619        -2.54812
LJ          -0.22318         1.04476         2.37883
LJ           2.00178          1.0596         2.13642
LJ          -2.18866         2.14279        -2.51752
LJ         -0.681574      -0.0198717      -0.0735409
LJ          -2.08047         1.14791        -2.27393
LJ         -0.500283       -0.123139         2.46843
LJ           1.95865        -0.69323       -0.678046
LJ           2.36343        0.226055        0.144333
LJ           1.56627        0.974332        0.268964
LJ          0.428756        -1.75575       -0.291261
LJ           1.08267       -0.580661        -1.55044
LJ         -0.450767        -2.33336        -1.93209
LJ         -0.841129       -0.445879         1.00416
LJ          0.448673        -2.35949        -1.28495
LJ          -2.07321         2.40951        0.842112
LJ          -1.82115       -0.616989         2.31952
LJ          0.928629        0.361617         1.78694
LJ         -0.073179        -0.27313        -1.74217
LJ          0.916303         2.25913         1.43661
LJ          -2.25651        -1.81845        -2.27537
LJ          -0.24256        0.414079         1.55119
LJ            -2.389         1.08809       -0.215035
LJ         0.0691263         2.11758       -0.171613
LJ          -1.81441       -0.373215         1.29578
LJ           2.08902        -1.48373        0.293951
LJ           2.48889         2.39776      -0.0721853
LJ          -1.47113         2.56209         1.75411
LJ           1.78156        -2.47007        0.766816
LJ          -1.63015        -2.50361        -1.87919
LJ         -0.934801        -2.09545        0.329824
LJ          -2.18483        -0.26721       -0.937741
LJ           2.01306         2.08627         1.60973
LJ          0.919009        -1.79332        -2.11347
LJ           1.75841      -0.0263738         2.30292
LJ          -1.44774          2.0972       -0.111413
LJ       -0.00206398        -1.42844        -2.33657
LJ           0.78281         1.42516         2.25361
LJ          -2.11855       -0.669326       0.0150697
LJ          -1.59501        0.597076       -0.755864
LJ           1.44521        0.435465        -1.84779
LJ          -1.64764         1.65611        -1.04917
LJ           2.37717         2.27033        -1.37185
LJ          -1.29944        0.305989         2.22313
LJ          -1.58456        0.579052         1.30054
LJ         -0.338011         2.03072         1.89724
LJ          -1.18926         1.74078        -2.45357
LJ          -2.04664         1.45691         1.75784
LJ           2.10734       -0.194866        -1.58616
LJ           1.41912         -2.1759         2.11943
LJ         -0.455473        -1.07636      -0.0283388
LJ         -0.138638        -2.51939        0.965779
LJ          0.522327      -0.0454277       -0.475449
LJ           1.57381        0.400384       -0.725407
LJ           1.21036         2.12348       -0.114753
LJ          -1.91653        -2.40355       -0.863004
LJ          -1.24749        -1.53146       -0.573531
LJ           1.90336       -0.266215         1.06915
LJ          -1.83795        -1.56498         1.93503
LJ          -1.02161       -0.377327        -1.35086
LJ           1.68414        -1.34174         1.51034
LJ          0.128501         1.34883        0.918487
LJ           1.97994         1.47107         -1.9788
LJ         -0.896368         1.87462        0.736878
LJ          -2.42774        -1.60437       -0.572179
LJ         -0.675173         1.91746         -1.2682
LJ        -0.0157962         1.79219        -2.09071
LJ         -0.322423        0.368054       -0.914067
LJ           1.45853         2.37671        -1.21557
LJ         -0.833993        0.948902        -1.84897
LJ         -0.802645         1.10672       -0.303656
LJ          -1.91207        -1.76946        0.353087
LJ           1.19755        -1.03015        0.260814
LJ          0.587821         1.10439       -0.175802
LJ          -2.46014        -1.15295         1.17592
LJ           2.55123        0.724357        -1.23968
LJ           1.77313         1.48229       -0.819704
LJ            -1.182        -1.39439         1.03976
LJ          -1.59383        0.156664        0.240372
LJ          0.914598       -0.498572        -2.49952
LJ          -2.35764        0.274145         2.28807
LJ          -1.86678         1.39564        0.658157
LJ          0.381122        0.511578        -2.15902
LJ          0.209432        -1.50024        0.842527
LJ           1.14728        -1.52118        -1.08233
LJ         -0.501837        -1.25678        -1.57771
LJ          0.957105         1.17083        -1.41274
LJ          0.988145         2.19628        -2.10544
LJ          0.229787        -1.00799       -0.940502
LJ          -1.96805       -0.907143        -1.88973
LJ         -0.560396        -1.91064         1.64506
LJ         -0.806552        0.820383        0.658062
LJ          0.977122        -0.65364         1.17082
LJ          -1.75204        0.229443        -1.87688
LJ         -0.421583        -2.22699       -0.779318
LJ           1.30321      -0.0750189        0.230859
LJ           1.69212        -2.13599       -0.568389
LJ           2.13844         -1.3206        -1.48191
LJ          0.605606        0.394259        0.773899
LJ         -0.877646       -0.899956         1.94776
LJ           2.39543        -1.04644         2.22298
LJ          0.303541        -2.23319          2.1575
LJ          0.182698       -0.498278        0.454759
LJ           2.47238        -2.11075         1.70025
LJ          -1.01699         1.31182         1.71419
LJ           1.90573        -2.39849        -2.08818
LJ         0.0847008         1.23517        -1.04098
LJ            2.2991        0.775054         1.14279
