108
#Comment!
LJ           2.54504        -2.55885         2.48517
LJ           -1.7832        -1.71511         2.47196
LJ          -2.53397        -1.70493        -1.62807
LJ           -1.7351        -2.38764        -1.73134
LJ         -0.870079         2.50474         2.53108
LJ          0.028925        -1.99551        -2.50628
LJ         -0.918807        -1.56111        -1.54554
LJ          0.106263         2.29161        -1.71102
LJ          0.989431          2.3659        -2.36541
LJ           1.84609        -1.72745        -2.55055
LJ          0.992343        -1.76316          -1.683
LJ           1.98218        -2.52165        -1.50667
LJ           2.51922       -0.845808        -2.56331
LJ          -1.76702       0.0760317         2.56423
LJ          -2.44656        0.202776        -1.77996
LJ          -1.65729       -0.523322        -1.42349
LJ          -1.15392       -0.899596        -2.46027
LJ        -0.0881084        -0.25475          -2.454
LJ         -0.834228        0.110286        -1.79541
LJ        -0.0842487       -0.966769        -1.76122
LJ          0.977501        -1.06303        -2.44551
LJ           1.67489       0.0545294         2.56317
LJ          0.796419       -0.101181         -1.5478
LJ           1.73845       -0.849287        -1.75265
LJ          -2.47294         1.08575         2.32947
LJ          -1.72244         1.82908        -2.55781
LJ          -2.51065         1.69746        -1.68329
LJ          -1.48936        0.885617        -1.72227
LJ         -0.712414         1.06763        -2.47751
LJ         0.0948885         1.82176         2.50533
LJ         -0.712777         1.79461        -1.78561
LJ         0.0779014        0.888309        -1.84212
LJ          0.875129        0.806436        -2.48758
LJ           1.74991         1.85197         2.37493
LJ          0.945242         1.66731        -1.60761
LJ           1.83345        0.800206        -1.76758
LJ          -2.54881         2.39842       -0.735112
LJ          -1.46987        -1.88695       -0.726473
LJ          -2.45421        -1.75326       -0.186429
LJ          -1.66963         2.47246      -0.0758236
LJ         -0.677816        -2.52544       -0.975362
LJ          0.072981        -1.68041       -0.911675
LJ         -0.549629        -1.79233       0.0529147
LJ         -0.213155         2.31209        0.133391
LJ          0.846102        -2.48535       -0.916697
LJ           1.77399        -1.72009       -0.843035
LJ           0.66636           -1.97        0.122241
LJ           1.63836        -2.38174       -0.019938
LJ          -2.41715        -0.96153       -0.776772
LJ          -1.92774       0.0981734       -0.665796
LJ           2.37641       0.0351615      -0.0219059
LJ          -1.61503       -0.857625       0.0422805
LJ         -0.603651       -0.761885       -0.831328
LJ         0.0640764        0.187256       -0.896464
LJ         -0.790951      -0.0559242      -0.0761629
LJ         0.0827957       -0.827828        0.197604
LJ            0.8085       -0.838291       -0.713787
LJ           1.85426       -0.139861        -0.87819
LJ          0.785364       0.0154071       -0.119378
LJ            1.7083       -0.885193      -0.0852239
LJ          -2.43559        0.986725       -0.933317
LJ          -1.63257         1.73897        -1.02037
LJ           2.48455          1.6617       0.0598524
LJ          -1.93988        0.893073        0.111568
LJ         -0.927996        0.749629       -0.878882
LJ         -0.113153         1.50235       -0.785472
LJ         -0.899458         1.46051      -0.0508851
LJ         0.0534768        0.927385        0.154504
LJ          0.806243         1.05589       -0.667542
LJ           1.73045          1.6296       -0.914476
LJ          0.830386         1.98654       0.0209169
LJ           1.74703        0.827253       -0.140623
LJ           2.52336         -2.4578        0.799513
LJ          -1.47208        -1.73405        0.709751
LJ           2.52225        -1.49049         1.66469
LJ          -1.89638         2.52078         1.57771
LJ         -0.779786        -2.49207         1.07802
LJ         0.0930128        -1.59202        0.918978
LJ         -0.851638        -1.66431          1.7052
LJ           0.12626        -2.43238         1.66819
LJ          0.996008         2.54535        0.906444
LJ           1.88436        -1.52356        0.697858
LJ          0.883103        -1.76988         1.76495
LJ            1.6079        -2.52372         1.77114
LJ           2.50349       -0.654048         1.04201
LJ           -1.8154      -0.0658905        0.793695
LJ            2.4684       0.0477702         1.90694
LJ          -1.70512       -0.926273         1.53538
LJ         -0.740352       -0.930487         1.00025
LJ         0.0482841      -0.0493884        0.964241
LJ         -0.853295        0.141741         2.12777
LJ          0.112023       -0.962434         1.72698
LJ           1.00723       -0.861988        0.769562
LJ           1.63455       -0.152936        0.592666
LJ          0.719723      -0.0511774         1.85416
LJ           1.56001       -0.881237         1.66429
LJ           2.46052        0.647313        0.867196
LJ          -1.45653         1.91919        0.748925
LJ           2.47731         1.55371           1.525
LJ          -1.60933        0.899929         1.60146
LJ         -0.923105        0.687371        0.815653
LJ          0.118925         1.55256          0.8619
LJ         -0.762579         1.66549         1.49543
LJ        -0.0536061         0.93378         1.54377
LJ          0.810042        0.643539         0.87282
LJ           1.70211         1.71129        0.759804
LJ          0.874112         1.56132         1.73808
LJ           1.74044        0.708918         1.71862
