108
#Comment!
LJ           2.52708         2.55103         2.48138
LJ          -1.78292        -1.72278         2.47425
LJ          -2.52197        -1.73295        -1.60105
LJ          -1.76963        -2.45552        -1.84915
LJ         -0.957382         2.40745         2.50115
LJ        -0.0357172        -1.99059        -2.47734
LJ         -0.923448        -1.50537        -1.62785
LJ         0.0528118         2.28901        -1.64896
LJ           1.00762         2.46952        -2.32802
LJ           1.78761        -1.69693          2.5274
LJ          0.971959        -1.69182         -1.6396
LJ           1.99212        -2.49051        -1.52398
LJ           2.46714       -0.795869        -2.45183
LJ          -1.78697       0.0588537         2.53119
LJ          -2.49701        0.187121        -1.67407
LJ           -1.6293       -0.591749        -1.34827
LJ           -1.2085       -0.901423        -2.45866
LJ         -0.120808       -0.227287        -2.45741
LJ         -0.835809        0.113747        -1.81087
LJ        -0.0475605        -0.94275        -1.75569
LJ          0.991527        -1.07209        -2.43289
LJ           1.63346       0.0821723        -2.54421
LJ          0.716132      -0.0654266        -1.55696
LJ           1.74165        -0.82271        -1.73649
LJ           -2.4919         1.00885         2.33339
LJ          -1.82132         1.79959        -2.55556
LJ          -2.55593         1.62629        -1.71988
LJ          -1.71146        0.908598        -1.87575
LJ         -0.722196         1.12386         2.52335
LJ           0.04621         1.83641         2.52012
LJ         -0.791086         1.70206        -1.81115
LJ         0.0459856        0.842142        -1.91438
LJ          0.846841        0.826527         -2.5099
LJ           1.80288         1.89004         2.42366
LJ          0.876273          1.7104        -1.56969
LJ           1.82001        0.792836        -1.75911
LJ          -2.45321         2.45871       -0.714099
LJ          -1.48118        -1.80362       -0.640337
LJ           2.53068        -1.78982       -0.186529
LJ          -1.66054         2.37438      -0.0684714
LJ         -0.758424         2.51088       -0.925722
LJ         0.0337384        -1.73346        -0.98549
LJ         -0.649321        -1.78859       0.0654543
LJ         -0.178444         2.33088       0.0494685
LJ          0.829285        -2.46372       -0.895756
LJ           1.78022        -1.65048       -0.849641
LJ          0.701057        -1.93211        0.103489
LJ           1.59766        -2.32878      -0.0939275
LJ          -2.52945       -0.872783       -0.753522
LJ          -1.91984        0.143296       -0.706834
LJ           2.37936      -0.0143312     -0.00687975
LJ            -1.662       -0.917397      0.00776952
LJ         -0.676342         -0.8462       -0.815838
LJ         0.0133107        0.200509       -0.941326
LJ         -0.748201      -0.0822546      -0.0597769
LJ         0.0914239       -0.778583        0.172945
LJ          0.786452       -0.842516       -0.792852
LJ           1.79216       -0.151011       -0.849222
LJ          0.743667       0.0342402      -0.0903003
LJ            1.6545       -0.970022      -0.0872322
LJ          -2.41072         1.00306       -0.927128
LJ          -1.66567         1.67212        -1.04265
LJ           2.53242         1.59749       0.0516152
LJ           -1.9482        0.821202       0.0350894
LJ         -0.969744        0.748675       -0.867383
LJ        -0.0555962         1.52206       -0.829192
LJ         -0.863439         1.45953      -0.0514556
LJ         0.0631685         1.00812       0.0576005
LJ          0.851112         1.08573       -0.743989
LJ           1.77605           1.672       -0.928229
LJ          0.878172         1.95311       0.0302686
LJ           1.83686        0.843862        -0.13345
LJ           2.46776        -2.51256        0.774929
LJ          -1.50912        -1.68978        0.733823
LJ          -2.53969        -1.43041         1.72201
LJ           -1.9975         2.48959         1.52967
LJ         -0.734247        -2.52372        0.997503
LJ          0.147263        -1.79425         0.91661
LJ         -0.958044        -1.67591         1.75641
LJ         0.0843645        -2.41729         1.73261
LJ           1.03869        -2.56105        0.921552
LJ           1.78237        -1.50416        0.766308
LJ          0.847449        -1.66618         1.70327
LJ           1.54595        -2.49918         1.83518
LJ           2.55827       -0.556063         1.05005
LJ          -1.82649     -0.00259648        0.783768
LJ           2.53652         0.13981         1.82895
LJ          -1.63104       -0.933937         1.49804
LJ         -0.774145        -0.86853        0.894146
LJ         0.0894892       -0.106758         1.03345
LJ         -0.874617        0.182713          2.0994
LJ          0.105746       -0.936696         1.65184
LJ          0.961011       -0.832811        0.796712
LJ           1.61723       -0.100123        0.589567
LJ          0.728132      -0.0934826         1.90217
LJ           1.68192       -0.816328         1.68962
LJ           2.48536        0.673272        0.756753
LJ          -1.43641         1.92442        0.784908
LJ           -2.5474         1.56663         1.45349
LJ          -1.52627          0.8985         1.61417
LJ         -0.829841        0.743888        0.633836
LJ          0.215838         1.65392        0.942018
LJ         -0.767137         1.66714         1.51114
LJ          0.017536        0.941242         1.61079
LJ          0.804241        0.637886        0.947359
LJ            1.7818         1.67108        0.769249
LJ          0.950981         1.69504         1.70446
LJ           1.68921        0.772951         1.66261
