108
#Comment!
LJ          -2.53926        -2.43785        -2.55757
LJ          -1.74344        -1.69858         2.48663
LJ           2.49145         -1.6625        -1.69389
LJ          -1.72174        -2.37778        -1.77427
LJ         -0.782501         2.55293         2.54673
LJ         0.0332945        -2.03209        -2.48413
LJ          -1.08275        -1.41343        -1.58685
LJ         0.0375216         2.22106        -1.69092
LJ          0.962252         2.35129        -2.51825
LJ           1.73124         -1.7797         2.49579
LJ           1.04171        -1.74911        -1.72745
LJ           1.87464         2.48163        -1.59756
LJ           2.46423       -0.780616         2.54995
LJ           -1.8433        0.110822         2.49988
LJ           2.51291        0.162025        -1.93256
LJ          -1.69865       -0.526497        -1.56554
LJ          -1.09756       -0.858457        -2.39781
LJ        -0.0173452       -0.244465         -2.4452
LJ         -0.807099      0.00360467        -1.66031
LJ         -0.100121        -1.04056        -1.89273
LJ          0.985247        -1.07285        -2.42062
LJ           1.68302       0.0372915        -2.47008
LJ          0.766491       0.0153921        -1.79444
LJ           1.60219       -0.747151        -1.76493
LJ           -2.4876         1.09302         2.50906
LJ          -1.76975         1.90235         2.54394
LJ          -2.51044          1.6608        -1.65084
LJ          -1.54337        0.892625         -1.7981
LJ         -0.677306         1.11217         2.54171
LJ         0.0749634         1.78256         2.48449
LJ         -0.824685         1.71493        -1.64062
LJ        0.00190943         1.10551        -1.75064
LJ          0.984182        0.861951         -2.5539
LJ           1.83861         1.81018         2.50223
LJ          0.914088         1.77406        -1.66665
LJ           1.78984        0.896432        -1.87667
LJ           2.42681         2.37638       -0.679276
LJ          -1.52641        -1.89883       -0.739217
LJ          -2.47183        -1.81816       -0.104293
LJ          -1.79943         2.43471       -0.067837
LJ         -0.648841        -2.50205        -1.04043
LJ          0.113834        -1.66052       -0.891075
LJ         -0.404481        -1.76956      0.00722496
LJ           -0.2595         2.38752        0.123073
LJ          0.835368         -2.5413       -0.950143
LJ           1.69026        -1.71657       -0.980265
LJ          0.598565        -2.10463        0.066778
LJ           1.73197        -2.36522      0.00261359
LJ          -2.41871       -0.898818        -0.61699
LJ          -1.85142       0.0861582       -0.706356
LJ           2.45031        0.117735       0.0215361
LJ          -1.54261       -0.982087     -0.00351524
LJ         -0.583615        -0.87569       -0.740763
LJ        -0.0479865         0.27795        -1.01015
LJ         -0.973766      -0.0970849      -0.0992972
LJ         0.0271503       -0.735494        0.243868
LJ          0.875958        -1.06252       -0.765364
LJ           1.95119       -0.151769       -0.915028
LJ          0.729672       0.0169482      -0.0590715
LJ           1.62964       -0.920216       -0.113148
LJ          -2.42237        0.960084       -0.976366
LJ          -1.59334         1.69496       -0.804863
LJ           2.45801         1.75297        0.137763
LJ          -1.94078         1.00814       0.0166728
LJ           -1.0427        0.678936        -0.86219
LJ      -0.000532219         1.67369       -0.828639
LJ         -0.780083         1.52405       -0.198204
LJ        -0.0730598        0.878998       0.0716895
LJ          0.719073        0.976412       -0.649636
LJ           1.52939         1.61562       -0.976597
LJ          0.917784         2.01185      -0.0294424
LJ           1.68159        0.809987       -0.202417
LJ            2.4313         2.49057        0.857933
LJ          -1.42018        -1.75998        0.650962
LJ           2.48348        -1.57663         1.82373
LJ          -2.01859         2.54597         1.66931
LJ         -0.685234        -2.49723         1.12791
LJ          0.164932        -1.64992        0.948105
LJ         -0.901858        -1.72454         1.70734
LJ         0.0912439        -2.33605         1.71451
LJ          0.923717         2.36691        0.905473
LJ            1.9318        -1.50241        0.692233
LJ           1.00666        -1.83148         1.68472
LJ           1.74328         2.56028         1.72119
LJ           2.54709       -0.628627        0.992868
LJ          -1.68474      -0.0997326        0.883098
LJ            2.5608      -0.0203995         1.88828
LJ          -1.70861       -0.878746         1.63647
LJ         -0.710627       -0.802044        0.985864
LJ         0.0485796      -0.0180927         1.00414
LJ         -0.851109        0.160261         1.94958
LJ          0.159001       -0.917347         1.90995
LJ           1.02508        -1.00731        0.708248
LJ           1.69276       -0.184109        0.760197
LJ          0.839204     -0.00870932         1.89297
LJ           1.68758       -0.844547         1.65338
LJ            2.4773        0.888629        0.925748
LJ          -1.48011         1.89534        0.791178
LJ           2.39392         1.72073         1.62341
LJ          -1.72303        0.994925         1.49682
LJ         -0.907724        0.651092        0.830502
LJ          0.257371         1.47927        0.855963
LJ         -0.891385         1.58911         1.50721
LJ        -0.0485754        0.844488         1.67584
LJ           1.03505        0.704366        0.837489
LJ           1.62026         1.71526        0.647284
LJ          0.882621         1.56851         1.77529
LJ            1.7829        0.835154         1.79847
