108
#Comment!
LJ          -0.55905        -1.25605        -2.18189
LJ        -0.0600051         1.17517        -2.32951
LJ           1.53189         1.03118         2.08143
LJ          -1.90667         1.79334         2.31649
LJ          -0.98175       -0.456468        0.654117
LJ          -1.81765        0.954158        -2.08196
LJ          0.510539        0.331615         2.36177
LJ           1.69268        -1.03615        -0.09591
LJ           1.56063        0.440506       -0.338166
LJ           2.14834         2.19619        0.653891
LJ        -0.0578116        -2.12229       -0.175166
LJ           1.67594       -0.497394       -0.984523
LJ          0.378687        -1.69704        -2.07306
LJ        -0.0622865      -0.0378902        0.990201
LJ         -0.246796        -1.31904        -1.19246
LJ          -2.07636         1.90922         1.16528
LJ          -1.42848       -0.597474        -2.38958
LJ           0.65913        0.770691          1.4103
LJ         -0.156028       -0.310686        -1.94365
LJ           1.04465         1.74528         1.13028
LJ          -2.28028        -1.46367        -2.41539
LJ         -0.281378        0.813214         1.61592
LJ           2.38367         1.48526      -0.0399122
LJ         -0.121712         1.65495       -0.272857
LJ         -0.670738       -0.681893         1.60107
LJ           1.98486        -1.97999        0.373472
LJ          -1.86369         2.07217       -0.488527
LJ          -1.28625        -2.20564        -2.37753
LJ           1.14669          2.5423        0.565465
LJ          -1.26274        -1.83394        -1.44891
LJ         -0.328035        -2.51572         1.18599
LJ          -2.52325       -0.210284       -0.670035
LJ           2.16826         1.89143         1.60851
LJ          0.794656        -0.73721        -1.68969
LJ           2.06246      -0.0236363         1.48067
LJ         -0.890851         1.85572        0.439498
LJ          0.187573       -0.897696         2.32008
LJ          0.320672         2.02722         1.95506
LJ          -2.32712         -1.2987        0.105396
LJ          -1.48872       0.0644228       -0.850273
LJ            2.1202       -0.305839         2.51857
LJ          -1.14081         1.37543        -1.00448
LJ          -1.71292         2.06149        -1.64056
LJ         -0.978301         1.12336         2.44866
LJ           -1.2987        0.126545          1.7064
LJ         -0.801686         2.00609         1.97415
LJ         -0.800676         1.95639        -2.00315
LJ          -2.54544        0.843446         1.90877
LJ           1.84894        -1.33235        -1.77814
LJ           1.47819        -2.19259         1.39964
LJ         -0.501526        -1.56451        0.556094
LJ          0.569377        -1.99686         1.83576
LJ          0.967742        0.381863        -1.87484
LJ           2.00453        0.410744        -1.31794
LJ           1.14816         1.62047       0.0423408
LJ          -2.10223        -1.93909       -0.773429
LJ          -1.34529         -1.2153       -0.604973
LJ           2.20725       -0.129661        0.446056
LJ          -1.50204        -1.30751         1.88128
LJ         -0.557529       -0.305892       -0.290734
LJ           1.81632         -1.0392         0.86686
LJ        0.00203282         1.47872        0.789658
LJ           2.37874          1.2655        -2.19218
LJ          -1.35701        -2.45802         1.47932
LJ            2.3284        -1.15368       -0.924729
LJ         -0.444479         2.46771        -1.16378
LJ          0.408654         2.32481        -2.09333
LJ        -0.0863902         1.17077        -1.21433
LJ           1.41313        -2.56306         -1.6456
LJ          -0.93064         0.51787        -1.58546
LJ         -0.532671        0.677525       -0.353243
LJ          -2.10506        -2.43883        0.362955
LJ          0.929046        -1.54812        0.446397
LJ           1.31926         1.26965       -0.986854
LJ          -2.50512         -1.7033         1.06406
LJ          -2.16764         1.24598        -1.06148
LJ           2.06954         1.79395        -1.44435
LJ          -1.40416        -1.81719        0.683688
LJ          -1.82259       0.0445664        0.259451
LJ          0.903124       -0.407351         1.47724
LJ          -2.18554       -0.628139         1.14336
LJ          -1.46754          1.0724       -0.014455
LJ           1.21617       -0.826411         2.44229
LJ          0.205771        -1.12812         1.15022
LJ          0.990709        -1.76206        -1.02664
LJ         -0.964587       -0.634594        -1.37398
LJ           1.19549         1.39424        -2.10189
LJ            1.2794         2.08546          2.3054
LJ           0.48348        -1.09203       -0.385736
LJ          -2.09816        -1.00934        -1.56915
LJ         -0.295376        -2.06785         2.27496
LJ         -0.900795        0.612249        0.762862
LJ            0.8088       -0.225157        0.164011
LJ          -2.08015     -0.00699826        -1.67157
LJ          -1.19302        -2.29531       -0.287291
LJ           1.71176        0.912149        0.879756
LJ           2.20199         2.44416       -0.523552
LJ          -2.50724        -2.17133         -1.5859
LJ          0.503927        0.785782       0.0961694
LJ          -0.58322        0.162771         2.38351
LJ           2.08768        -1.08941         1.84685
LJ           1.49779        -1.91916         2.38918
LJ          0.220339        0.117543        -1.07009
LJ          -2.30059        -2.35852         2.09839
LJ          -1.21424         1.37081         1.36564
LJ           2.14563         2.49732        -2.30885
LJ          0.719351         2.05291       -0.769122
LJ          -1.96667        0.758097        0.974777
