108
#Comment!
LJ           2.53965         -2.5544         2.54135
LJ          -1.71718        -1.80747         2.52689
LJ          -2.48582        -1.79196         -1.7532
LJ          -1.83602        -2.54344        -1.71648
LJ         -0.903843         2.48145         2.47585
LJ         -0.197136        -1.80383        -2.47982
LJ         -0.829792        -1.64388        -1.51424
LJ       0.000261749        -2.49768        -1.59222
LJ          0.958267         2.47034         2.44164
LJ           1.68258        -1.73972        -2.55262
LJ          0.898903        -1.54724         -1.5781
LJ           1.88007        -2.50759        -1.73687
LJ           2.40698       -0.884322         2.48349
LJ          -1.61516       0.0265805          2.4952
LJ           2.47471     -0.00954383        -1.72307
LJ          -1.68697       -0.912397         -1.6574
LJ          -1.02467       -0.963493          2.5647
LJ         0.0885296       -0.138844         2.53339
LJ         -0.893695         0.11437        -1.68874
LJ       -0.00457964       -0.885032        -1.68835
LJ          0.792204        -1.00325         2.56109
LJ           1.80549        0.134773        -2.53597
LJ          0.757684        0.148156        -1.70031
LJ           1.72058       -0.877021        -1.62026
LJ           2.51144        0.857503         2.54115
LJ          -1.76413         1.68909          2.5608
LJ          -2.48469         1.58369        -1.79196
LJ          -1.78593        0.874628         -1.6416
LJ         -0.796014        0.995429         2.40925
LJ          0.158698         1.63631         2.39303
LJ         -0.841433         1.76238        -1.65488
LJ        -0.0621126        0.873514        -1.82207
LJ          0.860438        0.952872         -2.3936
LJ           1.77081         1.76632         2.55781
LJ           1.08813         1.76658        -1.76045
LJ           1.70101        0.811673        -1.65818
LJ          -2.55686        -2.43879       -0.874458
LJ          -1.56911        -1.77774       -0.762885
LJ           2.50293         -1.7748      -0.0404392
LJ          -1.65166         2.47855       0.0694457
LJ          -0.79909          2.5608       -0.868406
LJ        -0.0405774        -1.68545       -0.904292
LJ         -0.899933        -1.69864        0.127631
LJ        -0.0768561         2.49618      -0.0254218
LJ           0.89407         2.54042        -0.83067
LJ           1.66669        -1.80237       -0.771383
LJ          0.700102        -1.93108        0.157512
LJ           1.66484        -2.52912      -0.0797591
LJ          -2.52009        -0.80107       -0.811949
LJ          -1.85803        0.126758       -0.864561
LJ           2.43127      -0.0123651      0.00065483
LJ            -1.683       -0.892473      -0.0243142
LJ         -0.918277       -0.734377       -0.798478
LJ        -0.0682798       -0.102202        -0.88619
LJ         -0.879167      -0.0808831      0.00550373
LJ        -0.0250187       -0.721623       0.0294907
LJ          0.892927       -0.810625       -0.819541
LJ           1.67883       -0.112322       -0.887201
LJ          0.954099      -0.0340089      -0.0970089
LJ           1.71939       -0.993543       -0.217606
LJ          -2.48192        0.922911       -0.821926
LJ          -1.78354         1.75636       -0.918258
LJ          -2.55046         1.68704       0.0618626
LJ          -1.68738        0.884665        0.132109
LJ         -0.839575        0.734287       -0.631383
LJ         -0.118533         1.73643       -0.938197
LJ         -0.946416         1.72999      -0.0952908
LJ        -0.0750245        0.954888       0.0509076
LJ          0.735163        0.948064       -0.852238
LJ           1.69809         1.83603       -0.867805
LJ          0.671719         1.65888       -0.185908
LJ           1.72023        0.770709       0.0440477
LJ           2.51997         2.54187        0.976309
LJ          -1.63569        -1.73609         1.04679
LJ            2.4115        -1.67832         1.79106
LJ            -1.837        -2.49789         1.70565
LJ         -0.853835         2.37164        0.827858
LJ         0.0987033        -1.75743        0.949886
LJ         -0.860538        -1.64737         1.81253
LJ      -2.81792e-05        -2.47202         1.83382
LJ           1.05786         2.46967          0.8842
LJ           1.73085        -1.82994        0.815067
LJ          0.985966        -1.70216         1.59206
LJ           1.73784        -2.48155         1.71256
LJ            2.4421       -0.670173         0.98456
LJ           -1.7263      -0.0389724        0.792968
LJ          -2.52442      -0.0109718         1.88118
LJ          -1.70168       -0.917355         1.82593
LJ         -0.825906        -0.91547        0.796505
LJ          0.097577      -0.0277564        0.839622
LJ         -0.735874     -0.00756418         1.65315
LJ       -0.00180484       -0.934742         1.61717
LJ          0.810197       -0.899009        0.887433
LJ            1.6714       -0.124288        0.767794
LJ          0.818705       -0.119001          1.6705
LJ           1.74595       -0.818207         1.73365
LJ           2.53743        0.954976        0.802698
LJ          -1.72552         1.71479        0.823635
LJ          -2.54975         1.72002         1.81016
LJ          -1.63966        0.740247         1.76499
LJ         -0.847011        0.701114        0.833134
LJ        -0.0369149         1.58728        0.895146
LJ         -0.843807         1.73669          1.7004
LJ         0.0275833        0.806826         1.50908
LJ          0.866699        0.727165        0.776741
LJ           1.72746         1.64291        0.789672
LJ          0.844436         1.62542         1.65634
LJ           1.68789        0.992931         1.68761
