108
#Comment!
LJ          -2.49614        -2.29782        -2.55877
LJ          -1.69447        -1.51207        -2.53584
LJ           -2.4278        -1.55455        -1.70485
LJ          -1.68531        -2.43515        -1.76698
LJ         -0.828303          2.3508        -2.45574
LJ          -0.11871         -1.5068         2.51616
LJ         -0.813655         -1.4374        -1.94928
LJ          0.154074        -2.52879        -1.84447
LJ           1.08528        -2.53911        -2.52796
LJ           1.59503        -1.48627         2.44747
LJ           1.04713        -1.77712        -1.74392
LJ           1.96063        -2.56253        -1.62524
LJ           2.52786       -0.752598        -2.43414
LJ          -1.92574      -0.0174749         2.29729
LJ           2.54637       0.0547194         -1.6158
LJ          -1.59137        -0.56577        -1.58438
LJ         -0.763985       -0.683625          2.4958
LJ           0.06564      -0.0421537        -2.33031
LJ         -0.736775       0.0647464        -1.74108
LJ         0.0803627       -0.902082        -1.53267
LJ          0.691424       -0.982615        -2.53559
LJ           1.70842       0.0856771        -2.42462
LJ          0.863034        0.243947        -1.60941
LJ           1.40974       -0.688897        -1.52844
LJ           2.55514        0.912975        -2.35116
LJ          -1.78052         1.90139         2.45225
LJ          -2.43155         1.70016        -1.53589
LJ          -1.55355        0.659315        -2.01498
LJ         -0.488733        0.842864         2.49888
LJ         0.0571626         1.85053         2.46335
LJ          -1.18954         1.60789        -1.71602
LJ         -0.179879         1.00692         -1.6478
LJ           1.00996        0.977941        -2.50359
LJ            1.7777         1.97166        -2.55303
LJ          0.961844         1.86597         -1.8202
LJ            1.7433         1.21391        -1.81407
LJ            -2.562        -2.41631       -0.613815
LJ          -1.39217        -1.56663       -0.806113
LJ          -2.25013        -1.61561       0.0450332
LJ          -1.70468         2.44123        0.351551
LJ         -0.718078        -2.52811        -1.04339
LJ         0.0367288         -1.8672       -0.701834
LJ         -0.783139        -1.85653        0.058552
LJ         0.0636593         2.43662       0.0790702
LJ           1.01254        -2.47202       -0.945714
LJ           1.90125        -1.49694       -0.912579
LJ          0.744937        -1.97189        0.265773
LJ           1.68754        -2.49644       0.0391122
LJ          -2.28942       -0.806973        -0.73652
LJ          -1.82584        0.247618       -0.910395
LJ          -2.40281      -0.0451011       0.0262161
LJ          -1.59499       -0.623087      -0.0947881
LJ         -0.719086       -0.808623        -0.82011
LJ        0.00371959      -0.0422679       -0.798181
LJ         -0.645722       -0.080951       0.0439045
LJ         0.0181209        -1.08508       0.0620133
LJ          0.917074        -1.15553       -0.651678
LJ           1.90932       -0.295053       -0.555142
LJ          0.833357       0.0595072       0.0269188
LJ           1.90403        -1.05322        0.155649
LJ           2.35136        0.794165       -0.733627
LJ          -1.79272         1.65325       -0.625114
LJ           2.36518         1.63334       0.0176585
LJ          -1.80908        0.994699        0.122415
LJ         -0.847086        0.847245       -0.897737
LJ        -0.0157351         1.77369       -0.937407
LJ         -0.784029         1.70931       -0.132442
LJ          0.175883        0.932363       -0.209721
LJ          0.873743        0.996731       -0.990619
LJ           1.70478         1.72806       -0.815454
LJ          0.855798         1.83508        -0.15458
LJ           1.72096        0.702505       0.0563419
LJ           2.47604         2.39783        0.752198
LJ          -1.49192        -1.83342        0.857019
LJ           2.42979        -1.44822          1.6369
LJ          -1.94613         -2.4378         1.66234
LJ         -0.715262          2.4377        0.986282
LJ         -0.142491        -1.57688         1.05087
LJ         -0.907556        -1.63932         1.79208
LJ        -0.0157681        -2.32761         1.77652
LJ          0.856006         2.47246        0.909293
LJ           1.56814         -1.6613        0.973169
LJ          0.748486        -1.56416         1.63631
LJ           1.59266         2.53703         1.55901
LJ          -2.37537       -0.772369        0.895615
LJ          -1.81847        0.203764        0.795335
LJ           2.31321       0.0963347         1.68575
LJ          -1.60039       -0.827955          1.6716
LJ         -0.951411       -0.898766        0.854242
LJ         0.0956213      -0.0768712        0.886214
LJ          -1.02339     -0.00914069         1.58734
LJ        0.00267176       -0.691087         1.78968
LJ          0.955854       -0.923903        0.497424
LJ           1.67737       -0.213547        0.880654
LJ          0.936585      -0.0726733         1.70837
LJ           1.55539       -0.824233         1.70572
LJ           2.33244        0.953658         1.05648
LJ          -1.91094         1.65029        0.969822
LJ           2.43094         1.92015         1.61479
LJ          -1.69133        0.816523         1.66196
LJ         -0.970149        0.846106        0.927045
LJ          0.263789         1.49318        0.766497
LJ         -0.736057         1.43208         1.70294
LJ          0.157288          0.7043         1.63777
LJ           1.15671        0.652018         1.09692
LJ           1.56315          1.7433        0.779653
LJ          0.836996         1.78431         1.61837
LJ           1.74088        0.912037         1.92472
