108
#Comment!
LJ          -2.52812        -2.25255         2.36867
LJ          -1.70632        -1.62393         2.37782
LJ          -2.26147        -1.56798        -1.69942
LJ          -1.66222        -2.38885        -1.73481
LJ         -0.793162         2.40252         2.44954
LJ         -0.132901        -1.78382        -2.49267
LJ          -1.16084        -1.55189        -1.78123
LJ          0.154085         2.39504        -1.91226
LJ          0.961519        -2.52511         2.54354
LJ            1.7637        -1.60483         2.39933
LJ           0.95507        -1.92802        -1.70065
LJ            1.9824          2.4379        -1.86263
LJ          -2.49192       -0.834415         2.42568
LJ          -1.77636      0.00361442         2.45751
LJ          -2.53414       0.0576924        -1.78997
LJ          -1.74805       -0.583494        -1.57984
LJ          -1.11205       -0.830855        -2.50984
LJ        -0.0289835       -0.214626        -2.35985
LJ         -0.996868      0.00168818        -1.78641
LJ         0.0358764        -1.07796        -1.67235
LJ          0.937817       -0.939956         2.51191
LJ           1.63717      -0.0180668        -2.50861
LJ          0.933518        0.203284        -1.73934
LJ           1.66547       -0.641864        -1.70882
LJ          -2.46148         1.02815        -2.46235
LJ          -1.70167         1.94386         2.34336
LJ           2.52859         1.54101        -1.56674
LJ          -1.71751         0.80632        -1.86612
LJ         -0.467618        0.828604         2.39668
LJ           0.19944         1.64094         2.35169
LJ          -1.26022         1.64429        -1.82039
LJ         0.0463206         1.12145        -1.87357
LJ          0.989962        0.883252         2.51345
LJ           1.87723          1.7687         2.54446
LJ          0.989686         1.80142        -1.89904
LJ           1.69271        0.928805        -1.71454
LJ           2.56118         2.32218       -0.820614
LJ          -1.42281        -1.75819       -0.821903
LJ          -2.26597        -1.73354      -0.0753298
LJ          -1.62214         2.50492        0.123169
LJ         -0.535118         -2.4835        -1.03709
LJ         0.0428979        -1.64659       -0.806246
LJ          -0.73938        -2.04342      -0.0776584
LJ        -0.0464484         2.32615       0.0905753
LJ          0.831945        -2.51025       -0.845538
LJ           2.01097        -1.73172       -0.944969
LJ           0.82445        -1.73903        0.367452
LJ           1.74094         2.55872      -0.0433177
LJ          -2.29879       -0.962071       -0.811416
LJ          -1.88574       0.0388184       -0.825106
LJ          -2.46908        0.032249         0.18898
LJ          -1.63271       -0.707507       0.0111695
LJ         -0.748855       -0.833167       -0.865172
LJ         -0.131027      -0.0414399        -1.13464
LJ         -0.750158       0.0217841      -0.0193798
LJ         0.0718743       -0.727335       0.0729163
LJ          0.965283        -1.19359       -0.884647
LJ           1.92466       -0.131753       -0.609123
LJ          0.973184       0.0611948        0.146095
LJ           1.96694       -0.968023      -0.0648064
LJ           2.44711        0.920748       -0.827057
LJ          -1.60272         1.75897       -0.779004
LJ           2.31062         1.60885        0.057088
LJ          -1.82248         1.02521        0.330996
LJ          -1.01834        0.768466       -0.930422
LJ         0.0525674         1.74009       -0.891412
LJ          -0.85831         1.55737       -0.229354
LJ        -0.0842507         0.84986       -0.200818
LJ           1.05357        0.785409       -0.849907
LJ           1.66862         1.63136       -0.760699
LJ          0.877659         1.70488       -0.164954
LJ            1.6522        0.863245      -0.0557475
LJ           2.51081         2.42351        0.686642
LJ          -1.24315        -1.81838        0.834978
LJ          -2.52113        -1.50067         1.51639
LJ          -1.90886        -2.27975         1.51822
LJ         -0.711172         2.40517        0.963651
LJ        -0.0575331        -1.56137        0.875358
LJ         -0.855794        -1.76985         1.94018
LJ         0.0242635        -2.32746         1.65325
LJ          0.783256         2.47629         1.10544
LJ            1.7325        -1.57468        0.903367
LJ          0.893432        -1.68106         1.70293
LJ           1.79242        -2.42622         1.60609
LJ           -2.4881       -0.876042        0.702322
LJ          -1.52954      0.00619136        0.831965
LJ             2.521      -0.0429118         1.71892
LJ          -1.75986       -0.691481         1.61202
LJ         -0.872841       -0.862837         1.11655
LJ          0.214316      -0.0560242         1.01887
LJ         -0.913855        0.063909         1.80551
LJ          0.276806       -0.790186         1.78967
LJ          0.887961       -0.843153          0.7775
LJ           1.74346       -0.232174        0.761594
LJ          0.690905       0.0366764         1.90661
LJ           1.59217       -0.870473         1.60218
LJ           2.19578        0.806896        0.943743
LJ          -1.66423         1.87706        0.982146
LJ           2.40035         1.72946         1.60749
LJ          -1.89795        0.821926         1.46385
LJ         -0.846257        0.827026        0.616875
LJ          0.378111         1.50406        0.789993
LJ         -0.907546         1.43668         1.59249
LJ         0.0701202        0.913858         1.51501
LJ           1.15822        0.668468         1.09131
LJ           1.45177         1.66973        0.638044
LJ           1.15805         1.67712         1.68717
LJ           1.79623        0.966506         1.89492
