108
#Comment!
LJ            2.3918         -2.5088        -2.53864
LJ           -1.6548        -1.82744         2.50082
LJ          -2.48649        -1.77861        -1.67931
LJ          -1.85134         2.50777        -1.71419
LJ         -0.875067         2.56397         2.48613
LJ         -0.147975        -1.88449        -2.50613
LJ         -0.870888        -1.55622         -1.6525
LJ         0.0726049         2.37895        -1.81023
LJ           0.86713         2.52214        -2.36715
LJ           1.71343        -1.70619        -2.49368
LJ           0.82739        -1.53008        -1.53108
LJ            1.9024         -2.4636        -1.60745
LJ            2.4813       -0.940675        -2.51588
LJ          -1.67174       0.0906458        -2.56355
LJ          -2.42874        0.156985        -1.79162
LJ          -1.84569       -0.916545        -1.58719
LJ           -1.0545       -0.935709         2.52864
LJ       -0.00947137       -0.022307         2.53014
LJ         -0.792257        0.117301        -1.77088
LJ         0.0689953       -0.812926         -1.7599
LJ           1.00497       -0.982283        -2.56347
LJ           1.78192        0.144512         2.52858
LJ          0.677241        0.155772        -1.62697
LJ           1.58522       -0.871871        -1.71363
LJ          -2.52714         0.89066         2.48021
LJ          -1.84688         1.85556         2.45555
LJ          -2.55303         1.58647        -1.80491
LJ          -1.71247        0.864047        -1.75623
LJ         -0.609151         1.01753         2.27192
LJ          0.115508         1.66697         2.40104
LJ         -0.776174         1.62771        -1.69931
LJ        -0.0964852        0.866492        -1.73782
LJ          0.757964        0.845021        -2.44457
LJ            1.7715          1.7908        -2.54856
LJ           0.98143         1.71662        -1.55268
LJ           1.76649         0.83401        -1.69212
LJ          -2.50199         2.56104       -0.835594
LJ          -1.52382        -1.80349        -0.63944
LJ          -2.56014        -1.78616      -0.0920113
LJ          -1.76316          2.4339     -0.00103991
LJ         -0.781715         2.50829       -0.828129
LJ        -0.0347736        -1.73049         -0.8796
LJ         -0.750147        -1.76137       0.0550985
LJ         -0.132048         2.38135      -0.0270762
LJ          0.965606         2.56195       -0.883093
LJ           1.69062          -1.712       -0.816159
LJ          0.787519        -1.84761        0.125151
LJ           1.66358        -2.44306      -0.0962132
LJ          -2.54315       -0.984729       -0.755398
LJ           -1.9108        0.131639       -0.730324
LJ            2.5496      -0.0103558      0.00148679
LJ          -1.72881       -0.709393       -0.106258
LJ         -0.846756       -0.677656        -0.81553
LJ         0.0236444       0.0969909       -0.728528
LJ         -0.862837      -0.0292853       0.0604076
LJ         -0.145482       -0.752497      -0.0994582
LJ           0.82997       -0.771211       -0.832193
LJ           1.83613       -0.106283       -0.848812
LJ          0.945129        0.038975      -0.0969331
LJ           1.78094       -0.991886      -0.0540495
LJ          -2.52795         1.09236       -0.708869
LJ          -1.62458         1.68161       -0.945895
LJ           2.48702         1.72599        0.127069
LJ          -1.88743        0.950585       0.0641748
LJ         -0.862709        0.805533       -0.841314
LJ        -0.0432234         1.70392       -0.816318
LJ         -0.938089          1.6011       -0.214296
LJ        -0.0581869         1.04857      -0.0558617
LJ          0.736718        0.897908        -0.85512
LJ           1.93167         1.84213       -0.938043
LJ           0.75803         1.92006       -0.113209
LJ           1.75008        0.846769       -0.105077
LJ           2.43065         2.50931        0.992153
LJ          -1.56455        -1.85241        0.980307
LJ           2.52982        -1.61895           1.674
LJ           -1.8475         2.49378         1.60099
LJ         -0.804429         2.50645        0.816012
LJ         0.0654664        -1.69973        0.837199
LJ         -0.876909        -1.65247         1.78749
LJ          0.104408        -2.48011          1.7811
LJ           1.07923        -2.51942        0.967504
LJ           1.90942         -1.6259        0.792446
LJ          0.886376        -1.66905         1.63984
LJ           1.64415        -2.52986         1.84647
LJ           2.47513       -0.698334        0.869881
LJ          -1.90388        0.030201        0.920675
LJ          -2.52464      -0.0248622         1.92348
LJ          -1.85089        -0.83737          1.6369
LJ         -0.666069       -0.808611        0.745698
LJ       0.000265565      -0.0668588        0.820928
LJ         -0.761833       0.0863723         1.79228
LJ         0.0482659        -0.95642         1.63468
LJ          0.863078       -0.915089        0.873407
LJ           1.58593      -0.0328821        0.675287
LJ          0.769431      -0.0945291         1.83536
LJ           1.71427       -0.868935         1.68183
LJ             2.429        0.761395        0.770861
LJ           -1.6352         1.79825        0.795975
LJ           2.49219         1.71475         1.71171
LJ          -1.68308         0.73123         1.61512
LJ         -0.868715        0.646411        0.808267
LJ         0.0235199         1.65144        0.822014
LJ         -0.827481         1.76337         1.49629
LJ         0.0238931        0.888483         1.55154
LJ          0.877891        0.843792         1.07916
LJ           1.73686         1.81832        0.800379
LJ          0.998111         1.73844          1.8875
LJ           1.70328        0.943934         1.67566
