108
#Comment!
LJ           2.55871        -2.30308         2.26538
LJ          -1.79889        -1.62932         2.48559
LJ          -2.27425        -1.56958        -1.64547
LJ          -1.76588        -2.54815        -1.64167
LJ         -0.691096         2.42156         2.49964
LJ         0.0579488        -1.86575        -2.46948
LJ          -1.19323         -1.4951        -1.76841
LJ        -0.0349349         2.23271        -1.79926
LJ          0.793818        -2.54705         2.48674
LJ           1.77356        -1.57484         2.47126
LJ          0.831277        -1.90507        -1.67193
LJ           1.93894         2.38329        -1.82316
LJ           2.51058       -0.863967         2.36359
LJ          -1.77079       0.0965935         2.52055
LJ           2.40684        0.128589        -1.75917
LJ          -1.89012       -0.574885        -1.64015
LJ          -1.00765       -0.821927        -2.39067
LJ        -0.0160784       -0.305391        -2.39533
LJ          -1.09337       0.0736466        -1.75422
LJ        -0.0704265        -1.08922         -1.6959
LJ          0.830958        -1.01769        -2.55484
LJ           1.67137       0.0174074         2.52181
LJ            0.9377        0.115875        -1.73741
LJ           1.60674       -0.759888        -1.75537
LJ          -2.49597        0.909621        -2.47791
LJ          -1.69251         1.91421         2.41063
LJ          -2.50468         1.62617        -1.60283
LJ          -1.73046        0.889456        -1.76465
LJ          -0.53287        0.992814        -2.52334
LJ          0.121209          1.6522         2.38224
LJ          -1.08813         1.65138        -1.80714
LJ          0.165336         1.09499        -1.81645
LJ          0.859448        0.914518         2.54847
LJ           1.77841         1.74777         2.38939
LJ          0.946092         1.83806        -1.92152
LJ           1.71128         1.15341        -1.65938
LJ           2.48791         2.30111       -0.747932
LJ          -1.53793        -1.71722       -0.768342
LJ          -2.33829         -1.7792      -0.0868205
LJ           -1.7382          2.3889       0.0625928
LJ         -0.697144        -2.54123        -1.05976
LJ         0.0725736        -1.59916       -0.812431
LJ         -0.771992        -2.07032       -0.154833
LJ         -0.165401         2.30017       0.0771228
LJ            0.8606        -2.49495       -0.919365
LJ           1.92048        -1.69551        -1.03127
LJ          0.828883        -1.82208        0.365808
LJ           1.70539         2.55073       -0.129484
LJ          -2.35872       -0.950562       -0.760252
LJ          -1.86341       0.0312568       -0.712355
LJ          -2.46246        0.186466        0.112353
LJ          -1.65198        -0.68069        0.145131
LJ         -0.683385       -0.881816       -0.814023
LJ         -0.168128       0.0766149        -1.04321
LJ         -0.650833       0.0537152       -0.109525
LJ       0.000439163       -0.651401       0.0282483
LJ           1.01135        -1.18251       -0.809629
LJ            1.8999       -0.210511       -0.535756
LJ            0.8716       0.0851935        0.144536
LJ           1.98506        -1.09281      -0.0986741
LJ           2.50449         0.96031       -0.778258
LJ          -1.57807         1.77766       -0.870153
LJ           2.37271         1.69315      -0.0424169
LJ          -1.83684         1.03847        0.240561
LJ          -1.01885        0.684387       -0.881278
LJ          0.142079         1.71728       -0.926696
LJ         -0.788309         1.60438       -0.242082
LJ         -0.049652        0.920423       -0.176901
LJ          0.956215        0.840577        -0.78888
LJ           1.64023         1.73538       -0.763544
LJ            0.7682         1.85646       -0.136802
LJ           1.78391        0.709113      -0.0692516
LJ           2.40861         2.38136        0.673774
LJ          -1.25091        -1.80558        0.804895
LJ           2.49027        -1.43666         1.51391
LJ          -1.95011        -2.35297         1.43166
LJ         -0.799833          2.4698        0.919083
LJ         0.0732746        -1.42936        0.944601
LJ         -0.825511        -1.89538         1.87262
LJ         0.0624752        -2.37789         1.77106
LJ          0.660275         2.43425         1.06214
LJ           1.77807        -1.67767        0.936803
LJ          0.945824        -1.76714         1.72352
LJ           1.76644        -2.48755         1.66052
LJ          -2.42237       -0.717512        0.742446
LJ          -1.53287       0.0290868        0.807605
LJ           2.45406       0.0396098         1.74062
LJ          -1.75426       -0.746102         1.73485
LJ          -0.88096       -0.981339         1.04443
LJ          0.161786       -0.259934        0.928819
LJ         -0.942025        0.217575         1.90761
LJ          0.196626       -0.929495         1.78185
LJ          0.915606       -0.818182        0.814145
LJ           1.75802       -0.108013        0.664695
LJ          0.612803       0.0130671         1.98187
LJ            1.4636       -0.792075         1.73949
LJ           2.22415        0.853937        0.808462
LJ          -1.63707         1.88414        0.992893
LJ           2.45055         1.70364         1.54498
LJ          -1.85919        0.874491         1.46255
LJ         -0.787833        0.778532        0.663845
LJ          0.286834         1.43382        0.821296
LJ          -0.95114         1.38476         1.55919
LJ         0.0163923        0.897954         1.64329
LJ           1.17323        0.675958        0.963176
LJ           1.50803         1.73374        0.586052
LJ           1.00752          1.5708         1.69735
LJ           1.71943        0.855898         1.89014
