108
#Comment!
LJ          -2.48641        -2.38915         2.54776
LJ           -1.8025        -1.48297         2.46838
LJ           -2.2502        -1.60505        -1.77952
LJ          -1.56479        -2.38103        -1.84091
LJ         -0.819974         2.32354        -2.42796
LJ         -0.140583        -1.54439         2.44166
LJ         -0.940472        -1.50164        -1.91682
LJ         0.0750218         2.49429        -1.89168
LJ           1.03482        -2.39466        -2.41025
LJ           1.69969        -1.64178         2.45328
LJ           1.21838        -1.70362        -1.66009
LJ           1.91463         2.44871         -1.5281
LJ            2.3991       -0.629055        -2.55412
LJ          -1.83291      -0.0215414          2.3249
LJ          -2.46089      -0.0776454        -1.79593
LJ          -1.53941       -0.592668        -1.69129
LJ         -0.960903       -0.736964        -2.53855
LJ         0.0256006       -0.177687         -2.4562
LJ         -0.818364        0.134153        -1.72592
LJ          0.143297       -0.866253         -1.6739
LJ          0.794368       -0.913464        -2.54885
LJ           1.64197       0.0151311        -2.41626
LJ          0.772611        0.153573        -1.67548
LJ            1.5776       -0.662086        -1.55159
LJ           2.54806        0.926216        -2.42341
LJ          -1.76944         1.96531         2.40202
LJ           -2.5507         1.68573        -1.55087
LJ          -1.59236         0.79918        -2.07145
LJ         -0.498325        0.754021         2.53079
LJ           0.11016         1.75186         2.34257
LJ           -1.2798         1.75064        -1.67475
LJ         0.0177946         1.02897        -1.73329
LJ           1.07108          1.0793        -2.44472
LJ           1.74876         1.86378         2.49803
LJ           1.00022         1.88132         -1.8727
LJ           1.83635        0.855148        -1.76353
LJ           2.50906        -2.51523       -0.723344
LJ          -1.42064        -1.71972       -0.905138
LJ          -2.30839        -1.64016       -0.203825
LJ          -1.63425         2.42992       0.0899509
LJ         -0.685552        -2.49216        -1.01533
LJ         0.0684576        -1.80875       -0.717743
LJ          -0.71962         -1.7859      -0.0318555
LJ        -0.0250728          2.3319        0.202091
LJ          0.694773         2.52648       -0.826132
LJ           1.92773        -1.53849       -0.882037
LJ          0.779622        -1.88923        0.153624
LJ           1.69457        -2.48313       -0.013837
LJ          -2.36481       -0.799988        -0.91218
LJ          -1.78893        0.113205        -0.96385
LJ          -2.38725       0.0724201      -0.0348847
LJ           -1.6265       -0.739908     -0.00465053
LJ         -0.837706       -0.786347       -0.687094
LJ         -0.148447        0.163313        -0.99693
LJ         -0.653993      -0.0359011       0.0804877
LJ        -0.0613933         -0.8871        0.111668
LJ          0.919869        -1.13653       -0.761381
LJ           1.83545       -0.195693       -0.622917
LJ          0.764486       0.0932013        0.133806
LJ           1.94911         -1.0355       0.0228212
LJ           2.44247        0.794816       -0.749323
LJ          -1.82268         1.66077       -0.727605
LJ           2.52688         1.59583      -0.0655868
LJ          -1.88232        0.937797        0.135621
LJ          -1.07129        0.801978       -0.951495
LJ          0.143353         1.73905       -0.818709
LJ         -0.752017         1.69866       -0.127764
LJ         0.0648709        0.843978       -0.166113
LJ          0.882644        0.893528       -0.912746
LJ           1.63902         1.70181         -0.8677
LJ          0.849862         1.75282        -0.08179
LJ           1.60761        0.832101        0.140558
LJ           2.45482         2.44382        0.672199
LJ          -1.50836        -1.82022        0.784279
LJ          -2.55204        -1.45013         1.58633
LJ          -2.00163        -2.43762         1.66409
LJ         -0.890217         2.43357         1.01838
LJ        0.00610428        -1.46263         1.10058
LJ          -1.06668        -1.69705         1.86205
LJ        0.00917164        -2.24854         1.69164
LJ          0.779257         2.36769        0.865453
LJ           1.65624        -1.54167         1.04108
LJ          0.814902        -1.71328         1.79319
LJ           1.73091        -2.50083         1.49405
LJ          -2.41223       -0.750316        0.655033
LJ          -1.62626        0.091164        0.893608
LJ           2.37423       0.0153507         1.65927
LJ          -1.71128       -0.883759         1.60738
LJ         -0.836053        -0.92835         1.07602
LJ          0.158963       -0.123945        0.919109
LJ         -0.956983       0.0385771         1.83047
LJ          0.213286        -0.77606         1.75881
LJ          0.917853       -0.829434        0.591211
LJ           1.75139       -0.336214        0.836167
LJ          0.851723       0.0459729         1.72214
LJ           1.51109       -0.791683         1.77387
LJ           2.33264        0.974975         1.04221
LJ           -1.8064         1.69305        0.998117
LJ           2.49289         1.88124          1.6174
LJ          -1.79995        0.873137         1.63343
LJ         -0.831766         1.00705        0.761681
LJ          0.372051         1.38098        0.766235
LJ         -0.700736         1.36373         1.73361
LJ          0.079162        0.789012         1.67426
LJ           1.18238        0.645425         1.01365
LJ           1.53874         1.74529        0.705581
LJ          0.967054         1.71315          1.6796
LJ           1.81327         1.08082         1.92558
