108
#Comment!
LJ           2.48929        -2.49691         2.45365
LJ          -1.78004        -1.78472         2.43795
LJ          -2.44899        -1.68806        -1.55066
LJ          -1.78347        -2.50305        -1.86511
LJ          -1.01784          2.4474         2.48015
LJ         -0.100289        -1.95991        -2.53519
LJ          -0.89278        -1.51893        -1.65827
LJ         0.0993353          2.3481        -1.67388
LJ          0.979037         2.45488         -2.3715
LJ           1.77328        -1.66803         2.52047
LJ          0.933826         -1.6567        -1.60963
LJ           2.03674         -2.5214        -1.54236
LJ           2.49882        -0.80767        -2.50397
LJ          -1.83744       0.0337131         2.44648
LJ          -2.48655        0.129481        -1.72823
LJ          -1.65046       -0.631992        -1.36484
LJ          -1.16279       -0.897109        -2.49012
LJ         -0.121792       -0.221151        -2.54443
LJ          -0.82938        0.102713        -1.79267
LJ        -0.0524578       -0.930095        -1.76401
LJ          0.990221        -1.08235         -2.4592
LJ           1.65412       0.0681629         2.53443
LJ          0.758882      -0.0336355        -1.56976
LJ           1.77876        -0.81583         -1.7213
LJ          -2.53368         1.04633         2.38025
LJ          -1.78123         1.83755         2.50679
LJ          -2.53326          1.6848         -1.7947
LJ           -1.6881        0.948776        -1.91107
LJ         -0.753198         1.02888        -2.56394
LJ         0.0295348         1.82394         2.50681
LJ          -0.77596         1.65822        -1.78419
LJ         0.0203007        0.841178          -1.893
LJ          0.856062        0.827712         -2.4878
LJ           1.83388         1.83618         2.45906
LJ          0.940149         1.72995        -1.52995
LJ           1.82655        0.799021        -1.74064
LJ          -2.44235         2.42976       -0.686252
LJ          -1.55558        -1.83748       -0.639489
LJ           2.48787        -1.71409      -0.0715816
LJ          -1.61209         2.38865       -0.121406
LJ         -0.784044         2.45271       -0.954004
LJ         0.0496968        -1.69971       -0.897621
LJ         -0.683822        -1.81667       0.0780151
LJ           -0.2123         2.37694      -0.0278866
LJ          0.846404        -2.48149        -0.87878
LJ           1.80598         -1.6478       -0.899126
LJ          0.746436        -1.99346        0.108585
LJ           1.65412        -2.35217       -0.149851
LJ          -2.53689        -0.86113       -0.772751
LJ          -1.82296        0.179862       -0.726689
LJ           2.44486      -0.0473684       0.0425398
LJ          -1.72169       -0.880828       0.0285059
LJ         -0.652428       -0.807614       -0.837568
LJ        -0.0076222        0.254539       -0.928045
LJ         -0.743891       -0.127456      -0.0881702
LJ         0.0393946       -0.774789        0.185897
LJ          0.824874       -0.848792       -0.746741
LJ           1.73957       -0.119089         -0.8573
LJ          0.771716       0.0233733      -0.0809661
LJ           1.62086       -0.917968      -0.0929725
LJ          -2.42258        0.980259       -0.916971
LJ          -1.66753         1.72191        -1.08125
LJ          -2.53003         1.60175       0.0875899
LJ          -1.91626        0.808919       0.0983127
LJ          -1.00761        0.735946       -0.828864
LJ         -0.100567         1.52725       -0.831038
LJ         -0.783543         1.49553      -0.0455102
LJ         0.0820943        0.940659       0.0329652
LJ          0.841515         1.06247       -0.712331
LJ           1.80119         1.65251       -0.966756
LJ          0.843284         1.94518       0.0172775
LJ           1.76472        0.860841       -0.130616
LJ           2.37137        -2.50126        0.847521
LJ          -1.51112         -1.6679        0.756933
LJ           2.55015        -1.44109         1.76088
LJ          -2.01926         2.51851         1.56532
LJ         -0.697879        -2.49246          1.0278
LJ          0.145589        -1.79593         0.95943
LJ         -0.947889        -1.68006         1.73658
LJ         0.0668957         -2.3939         1.69871
LJ           1.08986         -2.5621        0.920727
LJ           1.72447        -1.47564        0.773397
LJ          0.852116        -1.65821         1.66927
LJ           1.52116        -2.46275         1.84886
LJ            2.5633       -0.584578         1.08966
LJ          -1.79499       0.0385514        0.874186
LJ            2.5337        0.115963         1.85221
LJ          -1.68094       -0.895346         1.53923
LJ         -0.786007       -0.896843        0.922599
LJ          0.120263       -0.123041          1.0558
LJ         -0.842965        0.214395         2.08004
LJ          0.144108        -0.93761          1.6272
LJ           0.96645       -0.815615        0.844025
LJ            1.5988       -0.106853        0.545174
LJ          0.706797       -0.129678         1.89381
LJ           1.71987       -0.793662         1.75085
LJ           2.46149        0.711571        0.722152
LJ           -1.4634         1.92528        0.816843
LJ           2.54092         1.59541         1.45931
LJ          -1.49603         0.88441         1.61812
LJ         -0.900316        0.749907        0.712126
LJ          0.123946         1.66865        0.928688
LJ         -0.793166         1.66244         1.46809
LJ          0.057485        0.899363         1.64095
LJ          0.819245        0.635265        0.944697
LJ           1.83371         1.68425        0.786086
LJ          0.981865         1.66553         1.73542
LJ           1.71835        0.762963         1.59865
