108
#Comment!
LJ          -2.25488         2.13764      -0.0687931
LJ          0.688705        0.833991      -0.0190621
LJ          -1.20839       -0.680562         1.29387
LJ           1.30837       -0.677042         1.59962
LJ          0.873355        -1.88378      -0.0857902
LJ          -2.31975       -0.449417       -0.249694
LJ           1.66106        -1.77661         1.54643
LJ           -1.7561        0.139823        0.305562
LJ           2.32734        -1.97766        -1.60165
LJ          -2.51967        -1.63594       -0.480877
LJ           2.32752         2.23981       -0.824646
LJ          0.711612        -2.13363         2.01294
LJ          -2.39184         0.92244        -2.19702
LJ          0.170762         2.23982        -2.28382
LJ         -0.420727       -0.968778       -0.500329
LJ         -0.470632         2.03754        -1.47901
LJ           2.15203       -0.679706        0.470884
LJ          0.393787          1.1725       -0.966972
LJ          -2.46926          1.1748         1.80792
LJ         -0.912483        0.204306         1.55674
LJ          -1.90473          1.7392         2.37634
LJ           1.17397        0.800749         2.13914
LJ           1.63812       -0.287428       -0.944516
LJ           1.44946        -2.50709        -2.00316
LJ           1.19963       -0.184873         -2.4635
LJ         -0.734155         2.50699       -0.399724
LJ         -0.542328          1.7187         1.48661
LJ           1.39774         0.07836     -0.00849114
LJ           2.45863        0.486573       -0.128351
LJ            1.7611         1.07608         1.17605
LJ         -0.695424         0.54381        -1.45473
LJ          0.347497         -1.5779        -1.82242
LJ         -0.946447        -1.84868        0.770458
LJ          -1.97127         1.09547        0.639744
LJ           1.25607         1.92098         1.55204
LJ          0.376337       -0.614056        -1.59325
LJ           2.24932          2.1423         1.10004
LJ           2.23202       -0.880198        -1.42212
LJ          -2.33176        -1.60659         -2.5517
LJ          -2.19295        -2.00939        0.909338
LJ          -1.93313        0.317199         1.69938
LJ         -0.097597        -2.11009         1.34101
LJ           2.11875         1.45436        0.291305
LJ          -1.99517       -0.881193        0.702619
LJ         -0.551713        0.571807        0.557665
LJ           1.41414        -2.04331       -0.942988
LJ           1.72906        -1.17724       -0.254558
LJ          0.640691        -1.30207       -0.853161
LJ           1.29206          -1.123        -1.70366
LJ          0.051867        -2.14225       -0.800596
LJ          -0.92424       -0.696644        0.321426
LJ          0.033669       -0.484965        0.264036
LJ          -1.18994         0.87245         2.34735
LJ           -1.7942       -0.897039        -1.29782
LJ          0.661116        -1.34665         1.13993
LJ           1.02228       -0.824642        0.390058
LJ           2.01859        -2.26005        0.184574
LJ         -0.124274        0.886458         2.39308
LJ           2.07867         2.14138         2.26434
LJ           2.14877        0.131468         1.96561
LJ         -0.748601       -0.677516           -1.58
LJ         -0.668554        -1.77787         -1.8201
LJ        -0.0678917       -0.647905         1.41561
LJ          0.862109        -2.45135        0.975401
LJ         -0.293135         0.19194       -0.514706
LJ         -0.831791       -0.599024         2.34729
LJ          -1.45757        -1.25536        -2.28143
LJ          -1.50972         1.91512       -0.965759
LJ          0.689017         2.23319        -1.23592
LJ          0.341943        0.792833         1.19184
LJ          -1.18589        -2.55608         1.42292
LJ           1.30809          2.0782        0.435379
LJ           1.68244         1.54655        -1.59723
LJ         -0.860313         -1.5049         1.84586
LJ           2.25052       -0.112061        -2.06755
LJ          -1.26998        -0.12443       -0.793916
LJ          -1.03963        -1.73747       -0.888874
LJ          -2.07645        -2.52266         1.96862
LJ           1.45997         1.81453       -0.597023
LJ          0.132825       -0.110855          2.4103
LJ          -1.56418        0.220304        -2.03043
LJ           1.29906        0.652479        -1.25218
LJ         -0.610363         1.38138       -0.504681
LJ          -1.67985        0.916841       -0.520467
LJ          -2.25592         1.92935        -1.74116
LJ          -1.39315         1.21251         1.45744
LJ           2.46249        0.199116        0.825094
LJ          0.346407         2.09567         1.87059
LJ         0.0218661        -1.52886        0.388909
LJ          0.580417        -1.01178         2.39066
LJ           2.34675         1.18444       -0.910463
LJ           1.05755         1.65195        -2.47232
LJ          0.279651         2.39254        0.103007
LJ          -1.85874        -1.50784         1.65234
LJ         -0.231861        -2.07787           2.408
LJ           2.39169       -0.814782         1.54581
LJ          -2.30679        0.233999        -1.28478
LJ          -1.41814         1.28538        -1.76031
LJ          -1.40675         1.96649        0.606956
LJ         -0.848659         1.88727        -2.37818
LJ          -1.80858        -2.28766        -1.62436
LJ          -1.26448        -2.29302        -2.56316
LJ             0.392        0.363086        -1.79363
LJ           1.84556        -1.27774         2.42335
LJ          0.621701       -0.376529       -0.559777
LJ          -1.71561        -1.91809      -0.0254826
LJ          0.757472      -0.0876888         1.00246
LJ          -2.00142       -0.415091          2.3532
