108
#Comment!
LJ          -2.55876         -2.4165         2.54465
LJ          -1.70458        -1.66416         2.50018
LJ           2.55706        -1.66398         -1.7482
LJ          -1.73642        -2.37222        -1.76837
LJ         -0.782965         2.52957         2.50051
LJ         0.0418854        -2.08158        -2.43121
LJ          -1.09782        -1.40822        -1.60029
LJ         0.0330382         2.20397        -1.73562
LJ           1.00891         2.42331        -2.53896
LJ           1.71504           -1.82         2.52141
LJ           1.00657         -1.8083        -1.70018
LJ           1.92846         2.47241        -1.58695
LJ           2.51605       -0.723361          2.5409
LJ          -1.85014     -0.00372079         2.54627
LJ           2.50321        0.195299        -1.96037
LJ          -1.77589       -0.485769        -1.56155
LJ          -1.07132       -0.848267        -2.40967
LJ        0.00991842       -0.189878        -2.45051
LJ          -0.71866      0.00157076        -1.68342
LJ         -0.124947        -1.05795        -1.90006
LJ           1.01355        -1.12615        -2.45712
LJ           1.64742       0.0100112        -2.52685
LJ          0.783286      0.00776701        -1.75857
LJ           1.57038       -0.674006        -1.71145
LJ          -2.51046         1.02568         2.50904
LJ          -1.74102          1.9752        -2.54846
LJ          -2.45813         1.70114        -1.65827
LJ          -1.52863        0.886544        -1.80969
LJ         -0.657251         1.13614         2.47949
LJ          0.148653         1.80095         2.44519
LJ         -0.818725         1.64873        -1.70819
LJ         0.0462491         1.06711        -1.76264
LJ          0.999426        0.927513        -2.56465
LJ           1.89511         1.82306         2.44387
LJ          0.899771         1.80244         -1.6882
LJ            1.7087        0.913956        -1.73684
LJ           2.43361         2.35787       -0.780978
LJ          -1.47773        -1.84906       -0.723345
LJ          -2.49766        -1.87031       -0.025094
LJ          -1.69025         2.51104      -0.0847995
LJ          -0.73541        -2.52089        -1.13193
LJ         0.0986526        -1.67514       -0.891826
LJ         -0.435371        -1.77311      0.00254788
LJ         -0.225524         2.38329       0.0508724
LJ           0.83765        -2.52558       -0.961998
LJ           1.70802        -1.73214        -0.96715
LJ          0.624106        -2.05981        0.137287
LJ           1.70343        -2.39588      -0.0213761
LJ          -2.47703       -0.889327       -0.631974
LJ          -1.89506       0.0672253        -0.71182
LJ           2.48447       0.0674709       0.0766344
LJ          -1.55625       -0.961029       0.0295205
LJ         -0.543088       -0.866294        -0.75608
LJ       -0.00638649         0.19778        -1.00173
LJ         -0.931808       -0.132699       -0.102651
LJ         0.0125493       -0.757416        0.262245
LJ          0.868069       -0.979937       -0.702411
LJ           2.01755      -0.0729273       -0.923485
LJ          0.715835        0.040882      -0.0417463
LJ           1.58615       -0.893825       -0.073287
LJ          -2.42379        0.931023       -0.970663
LJ          -1.55818         1.73074       -0.774169
LJ           2.45588         1.79796       0.0903712
LJ          -1.89395        0.957318    -0.000211146
LJ          -1.10535        0.696465       -0.876614
LJ         0.0788116         1.81874       -0.798044
LJ         -0.785971         1.48046       -0.166615
LJ        -0.0815965        0.843489       0.0991798
LJ          0.752362         1.00939       -0.684565
LJ            1.6536         1.56886       -0.946919
LJ          0.860433         1.98762      -0.0676362
LJ           1.66394        0.875783       -0.245045
LJ           2.49048         2.48327        0.887335
LJ          -1.41488        -1.75272        0.662148
LJ            2.5246        -1.59773         1.83259
LJ          -2.07596        -2.51609         1.73876
LJ         -0.661409        -2.53079         1.05231
LJ          0.179329        -1.62237         1.00776
LJ         -0.885571        -1.68628          1.6735
LJ         0.0961847        -2.32848         1.69971
LJ          0.959914         2.41093        0.926833
LJ            1.9013        -1.52783        0.703635
LJ          0.996114        -1.79684          1.6827
LJ           1.71683         2.52828         1.71507
LJ          -2.56412       -0.653437        0.990444
LJ          -1.69127       -0.041041        0.865312
LJ          -2.53533        0.044159         1.84245
LJ          -1.77257       -0.858732         1.65402
LJ         -0.772603       -0.823341         1.06734
LJ         0.0429204      0.00941534        0.921667
LJ         -0.807909        0.206648         1.96476
LJ          0.259263       -0.937207         1.90671
LJ          0.970094        -1.04215        0.737199
LJ             1.669       -0.133854        0.699675
LJ           0.86307      -0.0293984         1.83866
LJ           1.65165       -0.797983         1.76492
LJ           2.43901        0.876934        0.904476
LJ          -1.51416         1.88809        0.807028
LJ           2.48559         1.62856         1.58791
LJ          -1.69785        0.910524         1.51625
LJ         -0.887206         0.62113        0.893966
LJ           0.23584         1.46987        0.810033
LJ         -0.857091          1.5925         1.51407
LJ        -0.0512289        0.835367         1.63083
LJ           1.01032        0.683735        0.832503
LJ           1.58943         1.70468        0.553481
LJ          0.844971         1.55854         1.74142
LJ           1.87904        0.813963          1.8011
