108
#Comment!
LJ          -2.55258        -2.52024         2.54552
LJ          -1.75109        -1.70623         2.44162
LJ          -2.56204        -1.74175        -1.81562
LJ          -1.79721         2.52697        -1.61835
LJ         -0.859458         2.46511         -2.4903
LJ         0.0187968        -2.00672        -2.48795
LJ          -1.23423        -1.46679        -1.75026
LJ        -0.0385735          2.2464        -1.82267
LJ           0.84054         2.52691         2.47919
LJ           1.75857        -1.71835         -2.4917
LJ          0.816211        -1.93503         -1.8122
LJ           1.87338         2.52322        -1.69441
LJ           2.53258       -0.932146         2.52753
LJ          -1.83011       0.0376432         2.53413
LJ           2.46251        0.172423        -1.97264
LJ          -1.79243       -0.555007        -1.66948
LJ          -1.17972       -0.789229        -2.40937
LJ        -0.0156509       -0.284481        -2.43667
LJ         -0.744032       0.0134957        -1.81648
LJ         -0.166954         -1.1653        -1.84551
LJ           0.86378        -1.22953         -2.5008
LJ           1.74244       0.0461251         2.53553
LJ          0.906467       0.0747411        -1.81093
LJ           1.67657       -0.599313        -1.74445
LJ          -2.53507        0.917417         2.43179
LJ          -1.70846         1.94647          2.4984
LJ          -2.42421         1.61124        -1.64269
LJ           -1.6195        0.800257        -1.83222
LJ         -0.622929        0.968236         2.49949
LJ          0.132497         1.70972         2.45385
LJ          -1.02295         1.66523        -1.78285
LJ         0.0596605         1.08088        -1.76669
LJ          0.934974        0.807966         2.46894
LJ           1.79766         1.89238         2.48064
LJ          0.863073           1.886        -1.65759
LJ             1.563        0.971641        -1.67918
LJ           2.51071          2.3704       -0.792209
LJ          -1.47926        -1.71417       -0.753818
LJ          -2.47189        -1.91583       -0.090119
LJ          -1.64434         2.48656      -0.0314109
LJ         -0.810617         2.53589         -1.0382
LJ          0.150529        -1.66636       -0.887923
LJ         -0.633772        -1.88176       0.0287785
LJ         -0.191116         2.32758       0.0547122
LJ          0.818868        -2.42275       -0.921437
LJ           1.84306        -1.77414       -0.949819
LJ          0.791911        -1.98925        0.187993
LJ           1.68416        -2.37254      -0.0681676
LJ          -2.50969       -0.950695        -0.73146
LJ          -1.87908        0.153187       -0.806895
LJ          -2.48677       0.0822465       0.0260908
LJ          -1.78473       -0.901339       0.0979136
LJ         -0.555105       -0.849804       -0.723241
LJ        -0.0915341        0.357686       -0.924536
LJ         -0.685092       -0.043559       0.0297993
LJ         0.0258961       -0.787992        0.307445
LJ          0.777318       -0.940345       -0.636167
LJ           1.97939       -0.128302       -0.707736
LJ          0.696307     -0.00149484      -0.0313765
LJ           1.73443        -1.13821       -0.131445
LJ           2.51766        0.940454       -0.895545
LJ          -1.54813         1.85925       -0.808787
LJ           2.41344         1.70083     -0.00241422
LJ           -1.8829         1.11776        0.159998
LJ          -1.09139        0.761325       -0.869256
LJ           0.14958         1.85754       -0.852121
LJ         -0.750751         1.56711      -0.0942301
LJ           0.10316        0.875031      -0.0554417
LJ          0.811605        0.976488       -0.774247
LJ           1.66867         1.66264       -0.849815
LJ          0.723844         2.06452      -0.0566526
LJ           1.72773        0.854326       -0.122328
LJ           2.39537         2.31393        0.783394
LJ           -1.3851        -1.86406        0.662703
LJ             2.505         -1.5467         1.72349
LJ          -2.03601        -2.37529         1.47697
LJ         -0.598066         2.41777         1.12461
LJ         0.0192456        -1.60178        0.964784
LJ         -0.959567        -1.86326         1.79809
LJ         0.0440876        -2.35348         1.78374
LJ           0.84656         2.39844         0.95087
LJ           1.97519        -1.64764        0.767049
LJ          0.939894        -1.74809         1.77971
LJ           1.62809         2.54815         1.65742
LJ           2.47812       -0.709081        0.966949
LJ          -1.77437       0.0941141        0.824154
LJ           2.52044      -0.0158308         1.77202
LJ          -1.88828       -0.744547         1.74782
LJ         -0.702227       -0.907453         1.06101
LJ         0.0227589       -0.137151         1.07651
LJ         -0.904802        0.212477         1.94862
LJ           0.24308        -1.00574           1.855
LJ           1.07881        -1.00145        0.690745
LJ           1.58163       -0.114073        0.732562
LJ          0.839208      -0.0364202          1.8614
LJ             1.605       -0.821439         1.92151
LJ           2.36422        0.843053        0.843208
LJ          -1.48997         1.89845        0.836507
LJ           2.45744          1.5395         1.58438
LJ          -1.79373         1.00831         1.56846
LJ         -0.875818        0.681162        0.919742
LJ          0.172974         1.46288        0.734925
LJ         -0.798462         1.60047         1.58311
LJ         0.0927215        0.798428         1.60108
LJ           1.05502        0.753967         0.93859
LJ           1.54582          1.6503        0.601451
LJ          0.852193         1.54047         1.65607
LJ           1.67302        0.819008         1.74389
