108
#Comment!
LJ           2.45889        -1.22277        -1.81147
LJ          -2.47639       -0.295126         -1.5143
LJ          0.625532         2.20979        -2.20612
LJ          0.384278        -2.32468         2.22039
LJ         -0.550542         1.19077        -1.15876
LJ           2.23734         0.66853        -1.60055
LJ          -1.31771        -1.27483        -1.94232
LJ           1.72521      -0.0302522       0.0133073
LJ           2.21828         1.16537           2.134
LJ           2.34356         -2.2879       -0.335091
LJ         -0.713228        -2.41863        0.309835
LJ         -0.376674       -0.808794        -2.02171
LJ          -2.37569        -2.45004         -2.4232
LJ         -0.445336       -0.200558         1.62968
LJ          0.677826        -2.41147       -0.406635
LJ          -2.49967        -2.43166         1.67674
LJ           1.54245        -1.71164        -2.04003
LJ        0.00301353        -0.18219        0.543162
LJ         -0.142597         2.49581        -1.05645
LJ         -0.671237         1.73882        0.885239
LJ           -1.1984       -0.850754         2.02289
LJ          0.167216        0.701646         1.54428
LJ             1.289       -0.270303        -1.14233
LJ          0.698809        -1.41538       -0.664859
LJ          -2.17563       -0.419623         2.53658
LJ          0.824036         2.31757        0.734214
LJ          -2.48819        -2.32746        0.614242
LJ           2.39028        -1.24512         2.07763
LJ           1.60995         2.51802         1.31996
LJ           2.43156         1.55293        -1.05594
LJ          -1.82592         1.94489         1.04341
LJ          -2.07381        0.378421        0.475041
LJ            -2.389         1.18042         1.26608
LJ         -0.435259        -1.99962        -2.33709
LJ          0.123961       -0.422643        -1.05138
LJ           2.09479        0.305202         1.03363
LJ          -1.46486         2.53312        -2.16801
LJ         -0.529051         1.99778        -2.15999
LJ          0.884113       -0.505081       -0.130494
LJ          -2.15282         1.74316        -1.92147
LJ           -1.4056        0.579836        -1.27665
LJ          0.501735         1.60943         -1.2283
LJ          0.770697         1.73547       -0.123011
LJ          -2.19348        0.634267        -2.34895
LJ           -2.1335       -0.480156         1.55787
LJ         -0.499079         0.19452         -1.8223
LJ           1.62778       -0.516386         1.57727
LJ           1.92388         1.93133        -2.27205
LJ          0.583171        0.468374        -1.52706
LJ         -0.152872        -1.18745         2.21204
LJ         -0.635234        -1.17361        -1.08627
LJ          0.331075         1.34062         2.33846
LJ           1.09727        -1.90788        0.381122
LJ         -0.699964       -0.226954       -0.211459
LJ           1.35954        0.827589       -0.644213
LJ          0.892953         1.26838        0.970253
LJ           1.86918         2.01805        0.379811
LJ           2.50804       -0.483534        0.600391
LJ          -1.37912        -0.72842        0.578559
LJ           1.74994       -0.703914         -2.4435
LJ           1.26111        0.600968         1.78656
LJ          -1.12337         0.20835         2.47626
LJ           1.29223         2.36657        -1.37648
LJ         -0.808717         1.02454         1.68608
LJ          -0.84702         2.50628         2.03199
LJ          -1.64031         1.28878       -0.543432
LJ           1.40317        0.445444        -2.27446
LJ          -1.77735        -1.73827      0.00788234
LJ          0.601041        -1.97443        -1.51304
LJ           1.43637         1.27101        -1.62105
LJ            -1.316         1.12787        0.358909
LJ         -0.680297        -1.26423       0.0935202
LJ          -1.91788        -2.12387        -1.24273
LJ          0.207111        0.783448       -0.326083
LJ            2.1636        -1.34888        0.361352
LJ          0.719119       -0.829743        -1.92912
LJ           1.00943         1.98006         1.92559
LJ           -2.0267        -1.29295         1.01206
LJ          -1.95767        0.478722         1.83544
LJ          0.457356        -1.59181         1.19382
LJ           2.23506       0.0895126         2.04817
LJ          -1.34088        0.168825         1.15702
LJ          -1.61051       -0.574637       -0.749212
LJ         -0.547609        0.621968        0.661944
LJ          0.249077        -1.07798        0.352253
LJ           1.56607        -2.18324          2.2037
LJ         -0.146382         2.53741         1.31829
LJ           1.63548        -1.59697         1.31234
LJ           2.45867       -0.793057       -0.503336
LJ           2.26299        -2.40689        -1.56362
LJ          -1.71992        -1.77949         1.94111
LJ            -2.346        0.512323       -0.516415
LJ          -0.56711        -1.18049         1.17549
LJ           1.70201        -1.69351        -0.85887
LJ          -1.39883         2.11811        -1.14815
LJ            1.0748       -0.790878        0.843597
LJ         -0.245468         1.70283      -0.0684773
LJ          0.921929         -1.3608         2.16493
LJ          0.229885        0.200848         -2.4992
LJ          -1.42107        -0.27005        -1.77064
LJ            0.9757        0.279237         0.79313
LJ          -1.19883        -2.03475          1.1207
LJ          -2.51907         1.43459       0.0484596
LJ          -1.87983         2.24964       -0.185286
LJ          -1.64344         1.81484         2.20408
LJ          -1.12186        -2.15595       -0.614517
LJ          -1.22951         1.22505        -2.06686
LJ          0.545889       -0.329407         1.73191
