108
#Comment!
LJ          -2.45501        -2.27618         2.39233
LJ          -1.68358        -1.57083         2.39564
LJ          -2.22988        -1.55963        -1.61465
LJ          -1.57491        -2.41791        -1.79328
LJ         -0.791179          2.4647         2.51774
LJ         -0.132113        -1.75088          2.5582
LJ          -1.07989        -1.52128        -1.80507
LJ          0.167123         2.38692         -1.8826
LJ          0.959208         -2.5349         2.50034
LJ           1.71424        -1.58839         2.42141
LJ            1.0077        -1.82661        -1.70264
LJ           1.97451         2.41299        -1.83543
LJ          -2.49337       -0.766916         2.51989
LJ          -1.76578      -0.0445071         2.40667
LJ          -2.50418      0.00968962        -1.77255
LJ           -1.6829       -0.659438        -1.64028
LJ          -1.11202        -0.86776        -2.49098
LJ         0.0041071       -0.177378        -2.35009
LJ          -1.00526       0.0601835        -1.86586
LJ         0.0319874        -1.09852         -1.6973
LJ          0.873657       -0.881223         2.55303
LJ            1.7062      0.00338483        -2.42149
LJ            0.8786         0.17481        -1.79194
LJ           1.60746       -0.641232          -1.706
LJ          -2.45239         0.99209        -2.46241
LJ           -1.6976         2.01555         2.35164
LJ          -2.51976         1.60255        -1.56958
LJ           -1.6931         0.71905         -1.8845
LJ         -0.441792        0.777221         2.42803
LJ           0.17748          1.5905         2.31992
LJ          -1.23353         1.64586        -1.75463
LJ        -0.0060868         1.12706        -1.85386
LJ           1.04489        0.933854         2.46962
LJ           1.88374         1.71262        -2.54437
LJ          0.951625         1.77341        -1.92176
LJ           1.58502        0.879257        -1.68069
LJ           2.55503         2.40992       -0.830661
LJ          -1.42817        -1.70709       -0.854163
LJ          -2.24275        -1.76005     -0.00579465
LJ           -1.6568         2.55523        0.135367
LJ         -0.539463        -2.49498        -1.12211
LJ         0.0150263        -1.70051       -0.811182
LJ         -0.785323        -1.93347       0.0239448
LJ         -0.041864          2.2525       0.0755623
LJ          0.782063        -2.55423       -0.927354
LJ           1.95606        -1.71527         -0.8993
LJ           0.79429        -1.83054        0.374086
LJ           1.75362         -2.4897       0.0186093
LJ          -2.36671       -0.849624       -0.833186
LJ          -1.92646       0.0195822       -0.879125
LJ          -2.46162      0.00377982       0.0849864
LJ          -1.68784       -0.712345       0.0534645
LJ         -0.672545       -0.856142        -0.81714
LJ         -0.208276      -0.0863814         -1.0662
LJ         -0.684549     0.000787639      -0.0390557
LJ         0.0609835       -0.824156        0.112464
LJ            1.0422         -1.2658       -0.889461
LJ           1.83818       -0.167324       -0.642663
LJ          0.966636        0.105965       0.0886087
LJ             1.914       -0.971582       0.0110546
LJ           2.45147        0.854636       -0.813958
LJ          -1.62069         1.72186       -0.837583
LJ           2.31572         1.59391        0.083268
LJ          -1.81727          1.0185         0.34937
LJ          -1.12834        0.722757       -0.941875
LJ          0.152177          1.6981       -0.870567
LJ         -0.843213         1.60307       -0.246355
LJ        -0.0289243        0.814853       -0.250549
LJ           1.01184        0.766701        -0.84398
LJ           1.68498         1.65476       -0.754626
LJ          0.897313         1.70459       -0.174241
LJ           1.62763        0.791981      -0.0261578
LJ           2.55496         2.35729         0.66863
LJ          -1.37083        -1.81041        0.838877
LJ           2.56315        -1.51061         1.62564
LJ          -1.96465         -2.3117         1.53743
LJ          -0.79123         2.45419        0.916443
LJ         -0.123808         -1.5424        0.939631
LJ         -0.855786        -1.72899         1.93778
LJ        0.00951938        -2.36563         1.74986
LJ          0.812047         2.44664        0.974654
LJ           1.63725        -1.55299        0.835422
LJ          0.855775        -1.63943         1.77178
LJ           1.80142        -2.47901         1.60315
LJ          -2.48783       -0.894457        0.728659
LJ          -1.49429      -0.0479429         0.77468
LJ           2.52337      -0.0845869         1.67381
LJ          -1.70665       -0.770137         1.65051
LJ         -0.919318       -0.877801         1.13322
LJ          0.173547       -0.142366        0.973274
LJ         -0.941538       0.0319348         1.78281
LJ          0.195372       -0.824938         1.74263
LJ          0.839027       -0.868915        0.631964
LJ            1.7474       -0.277679        0.734711
LJ          0.692634      0.00626813         1.83432
LJ           1.60777       -0.807281          1.6979
LJ           2.25134         0.90627        0.950968
LJ          -1.76068         1.79331        0.930861
LJ           2.49674         1.83842         1.71006
LJ          -1.92794        0.850079         1.43177
LJ         -0.868212        0.878926        0.639778
LJ           0.39257         1.56431        0.754302
LJ         -0.926219         1.38517         1.64129
LJ         0.0659936        0.919989         1.48879
LJ           1.14058        0.638158         1.03004
LJ           1.51896         1.63503        0.592569
LJ           1.09926         1.75675         1.75816
LJ           1.79373         1.03871         1.87487
