108
#Comment!
LJ           2.39147         2.55135         2.50241
LJ           -1.7102        -1.93334        -2.53188
LJ          -2.52201        -1.72315        -1.82855
LJ          -1.80341         2.48497        -1.69061
LJ         -0.892553         2.39579         2.47311
LJ         -0.158558        -1.81597          -2.459
LJ         -0.811457        -1.60851        -1.58699
LJ        -0.0260528         2.50959        -1.66933
LJ          0.876241          2.5522        -2.52307
LJ           1.65117         -1.8014          -2.536
LJ          0.809433        -1.49759        -1.60816
LJ           1.87013        -2.43623        -1.69128
LJ           2.49124        -0.90025          2.4816
LJ          -1.60441       0.0474049          2.5333
LJ          -2.49717        0.164116        -1.81984
LJ          -1.78309       -0.985417         -1.7132
LJ          -1.15263       -0.862638         2.52547
LJ         0.0177339        -0.11642          2.5168
LJ         -0.787742       0.0739215        -1.69817
LJ         0.0420677       -0.801684        -1.66551
LJ          0.876477       -0.869289        -2.54797
LJ           1.80032         0.14565         2.54964
LJ          0.704879         0.18954        -1.62413
LJ           1.68368       -0.802147        -1.70199
LJ          -2.54401         0.86664         2.53275
LJ          -1.77499         1.78886         2.51139
LJ           -2.5252         1.66347        -1.79161
LJ            -1.762        0.899871        -1.72375
LJ         -0.649925         1.03771         2.29728
LJ          0.173682         1.74151         2.41927
LJ          -0.82984         1.63819        -1.57484
LJ         -0.115551        0.937698        -1.81333
LJ          0.780174        0.912329        -2.35093
LJ           1.80102          1.7518        -2.52749
LJ          0.918052         1.82214        -1.61676
LJ           1.78537        0.858588         -1.7156
LJ          -2.46779        -2.43418       -0.778257
LJ          -1.47058        -1.74266       -0.744148
LJ           2.51451         -1.8319      -0.0445033
LJ            -1.573         2.49894      -0.0090009
LJ         -0.773452        -2.54822       -0.786997
LJ        -0.0680193        -1.71088       -0.973376
LJ         -0.845387        -1.72932        0.165896
LJ         -0.165497         2.40584        0.013468
LJ          0.822608         2.51311       -0.808167
LJ           1.56829        -1.80605       -0.795138
LJ          0.714799        -1.78857        0.140589
LJ           1.60047        -2.49268      -0.0606254
LJ          -2.49283       -0.922352       -0.797771
LJ          -2.00867         0.18849        -0.80006
LJ           2.49546      0.00852439      -0.0413116
LJ          -1.62421       -0.882734      -0.0797074
LJ         -0.913584       -0.725008       -0.761628
LJ         -0.037259      0.00676838       -0.712353
LJ         -0.849003         0.02591      -0.0465281
LJ        -0.0531337       -0.665347      -0.0187793
LJ          0.962857       -0.826938       -0.726631
LJ           1.74153       -0.148108       -0.831026
LJ          0.941537      -0.0464041      -0.0829313
LJ           1.71339        -1.01274       -0.119096
LJ           -2.5547         1.04378       -0.834533
LJ          -1.73268         1.75091       -0.988753
LJ           2.55964           1.791        0.159312
LJ          -1.80578        0.894668       0.0941791
LJ         -0.786441        0.680086       -0.841864
LJ         -0.117968         1.68547        -0.94026
LJ         -0.938921         1.70333       -0.164433
LJ         -0.121829         1.00737       -0.101269
LJ          0.680018        0.938569       -0.823004
LJ           1.77664         1.89364       -0.900349
LJ          0.662674         1.81575      -0.0416344
LJ           1.59773        0.798977       0.0427859
LJ           2.51878         2.51755        0.861623
LJ          -1.60313        -1.72283        0.923609
LJ           2.40808        -1.69232         1.70097
LJ          -1.83701         2.52735         1.64802
LJ         -0.792532          2.4829        0.798643
LJ        0.00949381        -1.69298         0.82782
LJ         -0.852829        -1.72125         1.76346
LJ           0.15251        -2.52566         1.82305
LJ           1.05157         2.52864         1.02093
LJ           1.75127        -1.77613        0.834402
LJ          0.930897        -1.62281         1.61124
LJ           1.69998         -2.5003         1.81228
LJ           2.51864       -0.644757        0.892055
LJ          -1.83448      0.00657023        0.883578
LJ          -2.47489     -0.00552706          1.9439
LJ           -1.7929       -0.836203         1.64155
LJ         -0.672816       -0.896836        0.783515
LJ         0.0784974      0.00711657        0.780316
LJ         -0.645928       0.0491908         1.76356
LJ         0.0321075       -0.919266         1.58318
LJ          0.741409       -0.882709        0.880189
LJ            1.6172      -0.0105774        0.713883
LJ          0.775931       -0.196303         1.80529
LJ            1.6884       -0.904502         1.73864
LJ           2.35288        0.918189        0.846061
LJ          -1.79226         1.72849        0.806183
LJ          -2.55502          1.6678         1.83231
LJ           -1.7777        0.741699          1.6761
LJ         -0.861056        0.693631        0.854624
LJ        -0.0334923          1.6373        0.875464
LJ         -0.883408         1.69711         1.63009
LJ         0.0608639        0.823914         1.59108
LJ          0.821971        0.806332         0.84809
LJ           1.75486         1.80953        0.848238
LJ          0.860446         1.60094         1.70359
LJ           1.67584         1.01987          1.6449
