108
#Comment!
LJ           2.48052        -2.47008         2.45786
LJ          -1.67526        -1.85607         2.49365
LJ           2.56376        -1.67608        -1.53848
LJ           -1.9129        -2.49888        -1.80003
LJ         -0.923883         2.52331         2.42106
LJ         -0.207098        -1.80335         2.56164
LJ         -0.935479         -1.4924        -1.70902
LJ         0.0701818         2.37213        -1.69635
LJ          0.873269         2.55548         -2.4255
LJ           1.77702        -1.73101         2.54939
LJ          0.796366        -1.60445         -1.5731
LJ           1.96025        -2.55987        -1.60883
LJ           2.43929       -0.859944        -2.53615
LJ          -1.76373        0.122761         2.48063
LJ          -2.52681        0.186417        -1.76986
LJ          -1.82968       -0.686849         -1.4099
LJ          -1.20712       -0.891534         2.50635
LJ         0.0670406       -0.128967         2.53601
LJ         -0.849801        0.123552        -1.78324
LJ         0.0495665       -0.908096        -1.73218
LJ          0.929401        -1.01016         2.55995
LJ           1.68052         0.10391         2.53007
LJ          0.784549       0.0519069        -1.49304
LJ           1.67732       -0.898222        -1.75751
LJ          -2.51553         1.01136         2.44129
LJ          -1.73039         1.86454          2.4884
LJ          -2.52713         1.65139        -1.78745
LJ          -1.64058        0.936126        -1.89148
LJ         -0.720823         1.09225         2.36881
LJ         0.0187391         1.68167         2.39884
LJ         -0.732059         1.58804         -1.7445
LJ        -0.0620294        0.782764        -1.81405
LJ          0.822201        0.879093        -2.46926
LJ           1.80049         1.90561         2.52635
LJ          0.962511         1.74518        -1.55266
LJ           1.79223          0.8253        -1.76503
LJ          -2.43143         2.51884       -0.823571
LJ          -1.54778        -1.84046       -0.616919
LJ           2.54417        -1.72847      -0.0450072
LJ           -1.6718         2.41375      -0.0352181
LJ          -0.83725         2.45042       -0.910476
LJ         0.0652999         -1.6628       -0.949455
LJ         -0.785759         -1.7874        0.105473
LJ         -0.262679         2.28059     -0.00945445
LJ           0.85711        -2.49673       -0.955924
LJ           1.72884        -1.67313       -0.780131
LJ          0.688535        -1.90625       0.0334029
LJ           1.56698        -2.47422       -0.142336
LJ           2.51205       -0.929193        -0.78034
LJ          -1.79763         0.14124        -0.79271
LJ           2.56277      0.00178643      -0.0343139
LJ          -1.76446       -0.709109      -0.0629849
LJ         -0.788176       -0.750059       -0.909079
LJ          -0.04304         0.17079       -0.827789
LJ         -0.857551      -0.0376385      -0.0651055
LJ         -0.061255       -0.773145      -0.0314809
LJ          0.746475        -0.94357       -0.721118
LJ           1.72292       -0.116609       -0.808303
LJ          0.823017         0.03518       -0.115862
LJ           1.67429        -0.97057      -0.0167138
LJ          -2.50959         1.00126       -0.823439
LJ          -1.59268         1.66786        -1.09193
LJ          -2.51211         1.74075       0.0475346
LJ          -1.93008        0.810237       0.0774818
LJ         -0.996928        0.735705       -0.846114
LJ        -0.0143072         1.66496       -0.938473
LJ         -0.856024         1.46991      -0.0471933
LJ         0.0681858          1.0259       0.0540196
LJ          0.763692         1.00317       -0.718287
LJ           1.80411         1.70482       -0.922617
LJ          0.751587         1.87924      0.00506558
LJ           1.78042        0.827436       -0.144906
LJ           2.42173         -2.4933        0.982238
LJ          -1.52824        -1.73809         1.01796
LJ          -2.50846        -1.57822         1.82188
LJ          -1.89198         2.50392         1.64494
LJ          -0.67921        -2.54935        0.906635
LJ          0.214668        -1.66986        0.933366
LJ         -0.930382        -1.64438         1.78641
LJ           0.11028        -2.48864         1.78547
LJ           1.21171        -2.51727        0.937297
LJ            1.8014        -1.51637        0.891914
LJ          0.915123        -1.66399         1.69932
LJ            1.6032        -2.39972         1.81839
LJ           2.51043       -0.632179        0.909624
LJ          -1.86397       0.0558626        0.797905
LJ           2.56493      -0.0382519         1.88895
LJ          -1.69972       -0.903758         1.58781
LJ         -0.665494       -0.846529        0.875327
LJ         0.0696848      -0.0852962        0.862562
LJ         -0.800635       0.0882241          1.9516
LJ          0.126117       -0.940298         1.66298
LJ          0.896305       -0.863685           0.934
LJ           1.58972      -0.0524506        0.642309
LJ          0.803839      -0.0974334         1.91736
LJ           1.71702       -0.913153         1.73638
LJ           2.41521        0.769346        0.732369
LJ          -1.56226         1.88326         0.84635
LJ           2.53487           1.637         1.55041
LJ          -1.55654        0.884757         1.60595
LJ          -1.00292        0.674642        0.814895
LJ         0.0851218         1.66316        0.835957
LJ         -0.759491         1.73843         1.44322
LJ       -0.00755696        0.864093         1.71136
LJ          0.770982        0.771892         1.00814
LJ           1.77543         1.74545        0.808664
LJ          0.990072         1.59577         1.82961
LJ           1.71662        0.883962         1.66748
