108
#Comment!
LJ          -2.54723        -2.28526         2.32942
LJ          -1.73749         -1.6474         2.49062
LJ          -2.25754        -1.53983        -1.68598
LJ            -1.752         -2.5121        -1.60791
LJ         -0.723567         2.40141         2.50257
LJ          0.017269        -1.82651        -2.50273
LJ           -1.1763        -1.52734        -1.74449
LJ        -0.0809021         2.25913        -1.84393
LJ          0.832468         -2.5404         2.52297
LJ           1.77443        -1.61724         2.48599
LJ          0.882041        -1.88185         -1.6648
LJ           1.98265          2.3946        -1.86604
LJ           2.55037       -0.889608         2.33082
LJ          -1.79814        0.119468         2.54884
LJ           2.42288       0.0982626        -1.78215
LJ          -1.84905       -0.562364        -1.65589
LJ          -1.05585       -0.820654         -2.3946
LJ        -0.0213583       -0.302191        -2.45122
LJ           -1.0422       0.0511033        -1.72823
LJ        -0.0524441        -1.08001        -1.69042
LJ          0.862988        -0.97938        -2.55545
LJ           1.64446      0.00438732        -2.53823
LJ          0.923956        0.167806        -1.72908
LJ           1.60925         -0.7459        -1.65888
LJ          -2.48633        0.917943        -2.51407
LJ          -1.66747         1.95363         2.41115
LJ          -2.54469         1.63681         -1.6129
LJ          -1.71309        0.906474        -1.79395
LJ         -0.545016        0.912422        -2.54553
LJ          0.141765         1.57786         2.39581
LJ          -1.14841         1.62534        -1.81014
LJ          0.177817          1.1318        -1.77393
LJ           0.90844        0.918668         2.52617
LJ           1.77849         1.69799         2.46915
LJ          0.962908         1.83928        -1.87849
LJ           1.73199         1.10734         -1.6789
LJ           2.51818         2.34045       -0.680288
LJ          -1.47337        -1.78084        -0.74875
LJ          -2.34457        -1.73731      -0.0659107
LJ          -1.73872         2.36629          0.1075
LJ         -0.644816        -2.49078        -1.04734
LJ         0.0408818        -1.58871       -0.774921
LJ         -0.819136        -2.03328       -0.132987
LJ         -0.170298            2.27       0.0446137
LJ          0.881473        -2.51354       -0.806916
LJ           2.01777         -1.7284        -1.00969
LJ          0.798689        -1.81654        0.374793
LJ           1.74359         2.54575       -0.103131
LJ          -2.35123        -0.89771       -0.772113
LJ          -1.86044       0.0183242       -0.732778
LJ          -2.47799        0.168547        0.143224
LJ          -1.56808       -0.668928        0.106879
LJ         -0.740191       -0.859799       -0.790581
LJ          -0.11804       0.0449397        -1.03645
LJ         -0.736459      0.00665129      -0.0651203
LJ         0.0500682       -0.657476       0.0174764
LJ           1.02792        -1.25431       -0.831607
LJ           1.87892       -0.153693       -0.575106
LJ          0.881091       0.0468798         0.13744
LJ           2.03139        -1.07879      -0.0386245
LJ           2.48844        0.938627       -0.795079
LJ          -1.62894         1.75555        -0.87807
LJ           2.35782         1.65535      -0.0611726
LJ          -1.86019        0.992913        0.217288
LJ          -1.05316        0.708963       -0.865386
LJ         0.0380302         1.70122       -0.903535
LJ         -0.874581         1.58949       -0.277646
LJ         -0.076894        0.872379       -0.207142
LJ           1.03497        0.838404       -0.809573
LJ           1.65965         1.69244       -0.728139
LJ          0.752974         1.88879       -0.193814
LJ           1.76547        0.778822      -0.0797573
LJ           2.44555         2.40889        0.727298
LJ          -1.26245        -1.81446        0.762176
LJ           2.51402        -1.35738         1.49486
LJ          -1.91587        -2.33519          1.4728
LJ         -0.815806         2.46731        0.918728
LJ         0.0654689        -1.47689        0.982254
LJ         -0.851928        -1.80897         1.88696
LJ         0.0364638        -2.42559          1.7887
LJ          0.693366         2.37734         1.06673
LJ           1.69719        -1.68344         0.89719
LJ          0.961298        -1.73117         1.69089
LJ           1.77932        -2.46602         1.61932
LJ          -2.47756       -0.707196        0.716209
LJ          -1.55382       0.0055663        0.811455
LJ           2.46255      -0.0289189         1.69677
LJ          -1.80284       -0.725079         1.71954
LJ         -0.850618       -0.981778         1.06244
LJ          0.199587       -0.265454        0.952903
LJ         -0.964695        0.189829         1.87315
LJ          0.211149       -0.932303         1.79331
LJ          0.960747       -0.849877        0.778548
LJ           1.74769       -0.122741        0.734375
LJ          0.599053        0.043403         2.01675
LJ           1.48183       -0.798255          1.7534
LJ           2.25111        0.910621        0.835096
LJ          -1.61394          1.8556        0.999697
LJ           2.41249         1.71818         1.55553
LJ          -1.87368        0.852111         1.44231
LJ         -0.768336        0.780746        0.621896
LJ          0.327904         1.52192        0.798296
LJ         -0.914529         1.39392         1.59428
LJ         0.0253223        0.872736         1.53543
LJ           1.15421        0.655659        0.993214
LJ           1.50286         1.70066        0.615435
LJ          0.990117          1.5407         1.69264
LJ           1.72945        0.884158         1.93331
