108
#Comment!
LJ         -0.233572        -1.39516          0.4652
LJ          -1.78552        -2.10545         1.56531
LJ          -0.24206         1.15608        -1.41252
LJ          -2.08093        -1.89887        -1.48665
LJ          -1.33489       -0.351928         1.86902
LJ          0.140233        -1.98384         1.28304
LJ           1.01854       -0.956133        -1.06935
LJ          0.834105        -1.40884         1.74725
LJ          0.638844       -0.286253         2.10714
LJ            1.4882         1.00274        -1.02524
LJ           0.76968        -1.98367        0.358929
LJ         0.0326545        -1.80362         2.36163
LJ          -1.86099         2.12331       -0.637888
LJ         -0.100642         0.42703         1.81272
LJ           1.40742        0.576978         1.74777
LJ           1.75715        -1.32245       -0.219244
LJ           -1.8356         1.28761         1.13428
LJ           1.37003         1.64799       -0.283543
LJ         -0.592779         1.40105         1.74165
LJ           1.00473         1.32204        0.574326
LJ           1.92036        -2.34826        -2.10354
LJ         -0.191705        -2.55083        -1.17719
LJ         -0.395247       -0.952908        -2.01346
LJ            2.2891        0.911753         1.18459
LJ          0.392996        -1.76138        -1.72522
LJ          -2.10791         2.28371        0.784585
LJ           1.22429        -2.27621         1.44624
LJ          -0.42355        -0.73009         2.14939
LJ          0.299322         2.13938        0.641632
LJ           2.24089       -0.649894         -1.5244
LJ         -0.315469         1.87537        -0.40656
LJ          -1.33097         1.98445        0.248147
LJ           2.15788        -1.69377        -1.09551
LJ          -2.49791         2.39816        -1.42721
LJ          -1.89162        -1.82989        0.431037
LJ          -2.39262        0.201923         0.37503
LJ          0.244219         2.39279         2.13661
LJ          -2.25924       -0.182016        -2.51288
LJ           1.37401        -2.19527       -0.496245
LJ          0.869726      -0.0613453      -0.0714958
LJ          0.702051        -1.05897        -0.12694
LJ          0.708791        0.329704         1.06972
LJ          -1.14977        -1.22977      -0.0175904
LJ           -2.1607        -1.99614        -2.46846
LJ           2.09647        -1.21138        0.985948
LJ          -2.52016        -2.28064       -0.434461
LJ         -0.339584         0.16299        -1.67643
LJ           1.18892         1.72333         2.34715
LJ         -0.691618         2.48871         1.11917
LJ         0.0678636       -0.684995         1.24418
LJ          -1.93874          1.1686      -0.0608116
LJ          -1.51948          1.7926         1.99841
LJ          0.517118         1.37259         1.58521
LJ          -1.19062        0.635917          1.6023
LJ           1.29228         2.30026        0.447161
LJ         -0.784135          1.2851        -2.35691
LJ          -2.03171          1.4636        -1.60957
LJ         -0.751807        -1.91599        -2.02853
LJ         -0.411666        0.223796       -0.434364
LJ          0.329722        0.687319         -2.3719
LJ          -2.20937        -1.02082         1.91384
LJ          -1.29801        -1.34122         2.39792
LJ            2.4006         1.83078      -0.0457326
LJ           1.76848       -0.201352        -2.43499
LJ         -0.620379       0.0311661        0.658449
LJ          0.447816        0.767975       -0.824915
LJ           1.92839        -0.22363       -0.240299
LJ           1.23509       0.0533254        -1.08384
LJ          -1.04559        -1.61869         1.13977
LJ           2.20533        0.608193        -1.90622
LJ           2.31245         2.45863         2.06399
LJ           2.40913       -0.104395         1.65892
LJ          -1.05336         1.11766       -0.494128
LJ           2.14368        -2.20621        0.505507
LJ          0.779923         2.31215        -1.95309
LJ          -1.05279         -2.2388       -0.488153
LJ           0.84675        -1.10462          -2.438
LJ           -1.6009        0.021058       -0.360286
LJ          -1.11544         1.86935        -1.27054
LJ          -2.43766         -0.9397       0.0289961
LJ           1.20626       -0.720007         0.66195
LJ          -1.05409        0.944714        0.590479
LJ           -1.5998         2.43373        -2.04566
LJ          -1.24158        0.671491        -1.41934
LJ          -2.04902       0.0191014        -1.46843
LJ           1.12292        -1.99953         2.51229
LJ           1.59462        -1.44497        -1.89552
LJ          0.629188        -0.23648        -1.87452
LJ         -0.855376         2.33776         2.49197
LJ         -0.346612        -1.53433       -0.902487
LJ          -1.91103        -1.03229       -0.995812
LJ          -1.31444       -0.536392        -1.87637
LJ           2.10391          1.7428        -2.19916
LJ          -1.71283       -0.542495        0.925198
LJ           2.19733        -1.69233         2.03643
LJ           1.67828        0.210131        0.711226
LJ           1.10045         1.11547        -1.89659
LJ           2.01562        0.846321      -0.0443307
LJ           1.51898        -0.67704         1.70385
LJ          -1.23193        0.353334        -2.47799
LJ        -0.0951418        -2.36845        -0.07657
LJ           2.41282           1.332       -0.908454
LJ          0.612728         1.88527       -0.954104
LJ         0.0290273         1.00284        0.130522
LJ          -2.15731         1.11874         2.47683
LJ            1.7046         1.84292         1.46053
LJ           1.54218         2.20187        -1.22405
LJ         -0.845928        -0.63043       -0.935294
