108
#Comment!
LJ          -2.56207        -2.29809         2.53838
LJ          -1.66318        -1.42967         2.49337
LJ          -2.37432        -1.53743        -1.80773
LJ          -1.72735        -2.49646         -1.7195
LJ         -0.800457         2.38837        -2.39291
LJ         -0.139492        -1.41346         2.45307
LJ         -0.908357        -1.39805        -1.93251
LJ         0.0991722        -2.51114        -1.94835
LJ          0.967505        -2.41562         -2.4585
LJ           1.63971        -1.57342         2.40323
LJ           1.09683        -1.72758        -1.78758
LJ           1.95345         2.55261        -1.66122
LJ           2.49737       -0.684797        -2.43592
LJ          -1.87482      -0.0393148         2.27806
LJ           2.53368        0.027618        -1.61304
LJ          -1.62957       -0.486664        -1.62854
LJ         -0.806866       -0.637563        -2.55461
LJ          0.200275      -0.0118046        -2.32367
LJ         -0.743639       0.0337968        -1.74776
LJ          0.133581       -0.931224        -1.51779
LJ          0.730274        -1.01107        -2.52138
LJ           1.71317       0.0454045        -2.43955
LJ          0.883489        0.247096        -1.62105
LJ             1.478       -0.642259        -1.59547
LJ          -2.55738        0.881513        -2.39544
LJ           -1.7829         1.99095         2.43434
LJ          -2.55368         1.69108        -1.55331
LJ          -1.61997        0.585479        -2.14412
LJ         -0.533166        0.837126         2.48756
LJ         0.0886362         1.79505         2.42249
LJ          -1.28211         1.70747        -1.63143
LJ        -0.0633521         1.00885        -1.57247
LJ          0.990634        0.974743         2.55291
LJ           1.69288         1.95179        -2.55179
LJ          0.946421         1.82901           -1.82
LJ           1.73124         1.03289        -1.82166
LJ           2.53037         2.52949       -0.724924
LJ          -1.39867        -1.66836       -0.795594
LJ          -2.26328         -1.6145      -0.0137475
LJ          -1.69719         2.44473        0.251762
LJ         -0.739444        -2.52133          -1.051
LJ         0.0425554        -1.87399       -0.629908
LJ         -0.742125        -1.82976     -0.00318472
LJ        0.00444275         2.34698        0.195227
LJ           0.94144        -2.48182       -0.972715
LJ           1.82386        -1.54963       -0.948734
LJ          0.774516        -1.98087        0.187652
LJ           1.73128        -2.50721       0.0581526
LJ          -2.35918       -0.750235         -0.8066
LJ          -1.91443        0.226632       -0.949729
LJ          -2.39647      -0.0325677       0.0271679
LJ          -1.57377       -0.667434       -0.132091
LJ         -0.751336       -0.700153       -0.838828
LJ        0.00487002      -0.0771308       -0.952926
LJ         -0.670915       -0.139192       0.0158605
LJ         0.0335456        -1.03326        0.121974
LJ          0.980782        -1.07874       -0.609224
LJ           1.91213        -0.22403        -0.60957
LJ          0.734013       0.0711019       0.0398701
LJ           1.91682       -0.988909        0.114126
LJ            2.3766        0.847508       -0.737767
LJ          -1.77398         1.67915       -0.697287
LJ           2.43616         1.67578      -0.0270613
LJ          -1.75553         0.96483        0.137197
LJ         -0.970602        0.786293        -1.02609
LJ         0.0264187         1.78587       -0.837866
LJ         -0.745989         1.65701       -0.101741
LJ         0.0700873        0.944305       -0.159368
LJ          0.844321         1.06655       -0.999519
LJ           1.64466         1.72786       -0.824269
LJ          0.843415         1.77902       -0.131674
LJ           1.71009        0.845704       0.0733153
LJ            2.4464          2.4522        0.733561
LJ          -1.42364        -1.85014        0.842442
LJ           2.47717        -1.50956         1.65586
LJ          -1.91899        -2.40441         1.64842
LJ         -0.796935         2.47631        0.901198
LJ          -0.12224        -1.57026         1.10006
LJ         -0.890778        -1.64964         1.75121
LJ        0.00518484        -2.28401         1.78367
LJ          0.756756         2.49054        0.905661
LJ           1.63717        -1.64748         0.98392
LJ          0.796299        -1.55258         1.66353
LJ           1.69179        -2.47761         1.57796
LJ          -2.41951       -0.793545        0.826337
LJ          -1.78151        0.195448        0.803036
LJ           2.32079       0.0105809          1.7133
LJ          -1.64208       -0.834115         1.62902
LJ         -0.867987       -0.891228        0.910711
LJ          0.121218      -0.0332128        0.889419
LJ         -0.935772      -0.0467818         1.72015
LJ        0.00242802       -0.740831          1.7642
LJ          0.974513       -0.917588        0.462334
LJ           1.75572       -0.211002        0.822706
LJ          0.918783      0.00272515          1.7797
LJ           1.55662       -0.753129         1.74037
LJ            2.3246         0.94099         1.10062
LJ          -1.87168         1.60917        0.894909
LJ            2.4396         1.88935         1.60276
LJ          -1.70646        0.834216         1.61271
LJ         -0.921705        0.891742         0.82452
LJ           0.30966         1.42005          0.7767
LJ         -0.701083          1.4713         1.66647
LJ         0.0817231        0.641257         1.66061
LJ           1.05682        0.721437        0.997926
LJ           1.59678          1.7717        0.754961
LJ          0.869154         1.82598         1.63527
LJ           1.85943        0.997958          1.9298
