108
#Comment!
LJ           2.54077        -2.48922         2.55624
LJ          -1.77018        -1.68025         2.41655
LJ           2.53925        -1.76443         -1.7545
LJ          -1.78547         2.55678        -1.60264
LJ         -0.847169         2.51017        -2.50252
LJ         0.0178826         -2.0346        -2.52746
LJ          -1.21974        -1.49427        -1.73391
LJ        -0.0092133         2.19439        -1.79118
LJ          0.854584         2.52845         2.48351
LJ           1.77929        -1.68197         -2.4943
LJ          0.859239        -1.86217        -1.76702
LJ           1.87348         2.52459        -1.73128
LJ           2.50004       -0.923335         2.55762
LJ          -1.84548       0.0240368         2.54717
LJ           2.48387        0.153357        -1.97921
LJ          -1.80318       -0.559747        -1.64054
LJ          -1.22135        -0.74227        -2.40984
LJ         0.0199848       -0.244474        -2.48654
LJ         -0.717917      0.00103897        -1.81993
LJ         -0.133823        -1.13251        -1.86889
LJ          0.889039        -1.21977        -2.48187
LJ           1.73454       0.0368302          2.4811
LJ          0.927531       0.0790054        -1.77524
LJ           1.68366       -0.614338        -1.72964
LJ          -2.53193        0.947808          2.4403
LJ          -1.70658         1.94752         2.43384
LJ          -2.43768         1.63089        -1.61013
LJ          -1.61704        0.765209        -1.80496
LJ          -0.61927        0.998273          2.4831
LJ          0.165252          1.7276         2.46143
LJ          -1.00359         1.64103        -1.79176
LJ         0.0812937         1.05544        -1.79839
LJ          0.945808        0.847925         2.47813
LJ            1.8265         1.87022         2.52662
LJ          0.864445         1.84955        -1.64582
LJ            1.6081        0.978149        -1.69111
LJ           2.47572         2.35318       -0.731807
LJ          -1.44097        -1.70113       -0.736985
LJ          -2.48118        -1.94451      -0.0917412
LJ          -1.63704         2.49158     -0.00804173
LJ         -0.818372        -2.55308        -1.00893
LJ          0.164173        -1.69488        -0.95326
LJ         -0.640452        -1.85703     -0.00560238
LJ         -0.192775         2.37324       0.0842827
LJ          0.826679        -2.43854       -0.930167
LJ           1.86849        -1.75875       -0.924369
LJ          0.784833        -2.01858        0.216217
LJ           1.70409        -2.42484      -0.0383187
LJ          -2.55677        -0.93637       -0.698548
LJ          -1.86447        0.170491       -0.824774
LJ          -2.48469       0.0957155       0.0312554
LJ          -1.77165       -0.939006        0.062468
LJ         -0.579135       -0.847888       -0.704314
LJ          -0.11614        0.318494       -0.952325
LJ         -0.683421      -0.0415347       0.0145631
LJ         0.0771076       -0.811516        0.294329
LJ          0.770718       -0.986573       -0.602977
LJ           1.99009       -0.166813       -0.713294
LJ          0.743041       0.0237694      -0.0373347
LJ           1.72514        -1.12058       -0.120683
LJ           2.50843        0.977387       -0.903861
LJ          -1.55444         1.85792       -0.784954
LJ           2.40979         1.70178      -0.0248199
LJ          -1.87921         1.12924        0.172452
LJ            -1.036        0.761646        -0.91121
LJ          0.183442         1.83381       -0.852581
LJ         -0.731154         1.59368       -0.110213
LJ          0.069523        0.880253      -0.0934149
LJ          0.773128         1.00331       -0.794993
LJ           1.64932         1.71612       -0.864334
LJ           0.73737         2.05183      -0.0245579
LJ           1.76231         0.85063       -0.155224
LJ           2.36008         2.26667        0.796751
LJ          -1.39562        -1.87717        0.657779
LJ           2.51676        -1.55022         1.70252
LJ          -1.99337        -2.37117         1.50271
LJ         -0.614297         2.49258         1.15477
LJ         0.0762811        -1.59056        0.970709
LJ         -0.916456        -1.87473         1.76483
LJ          0.102447        -2.30091         1.71459
LJ           0.81736         2.35229        0.940124
LJ           1.99364        -1.62753        0.705486
LJ          0.967292        -1.77764         1.75183
LJ           1.65114          2.5648         1.65606
LJ            2.5111       -0.675277        0.954887
LJ          -1.76497       0.0565764        0.840406
LJ           2.50308      -0.0154169          1.7678
LJ          -1.91483       -0.715247          1.7191
LJ         -0.745345       -0.872953         1.04995
LJ         0.0346501       -0.153038          1.0543
LJ         -0.916031        0.215179         1.90601
LJ          0.231167       -0.997754         1.85172
LJ           1.11879        -1.02339        0.683093
LJ            1.6054        -0.12686        0.769819
LJ          0.826153      -0.0761848         1.92599
LJ           1.57434       -0.849342         1.87379
LJ            2.3226        0.856023        0.848497
LJ          -1.43588         1.94207        0.855962
LJ           2.42558         1.59837         1.56222
LJ          -1.80603        0.963868         1.59841
LJ         -0.905011         0.66205        0.930248
LJ          0.197781         1.48792        0.724829
LJ          -0.78551         1.61392          1.6306
LJ         0.0103973         0.78246         1.57742
LJ           1.08797        0.783533        0.942405
LJ           1.55301         1.68407        0.582204
LJ           0.83806         1.52805          1.6456
LJ           1.69436        0.772964         1.75327
