108
#Comment!
LJ          0.295908       -0.445295        -1.67301
LJ           1.53698       -0.599738         -2.3445
LJ           -2.1961         1.05741         1.28789
LJ          -2.08071         2.50905        -2.18424
LJ           1.55827        -2.44281       -0.380255
LJ           1.11368          1.3064        -1.41868
LJ           1.25407       -0.494265         1.43185
LJ             2.107       -0.148381        -0.45355
LJ          0.644577        0.633845       -0.787353
LJ          0.237169         2.45104         1.02068
LJ           1.77176        -1.43218       -0.461447
LJ           1.75076         1.90046         1.47876
LJ           1.02926         -1.5956        0.125699
LJ         -0.838693        -1.53539        -2.17984
LJ          -1.45857         2.11802         1.29401
LJ          0.233523         2.16712       -0.380308
LJ         -0.282723         -2.1243        0.248424
LJ           1.19721        0.393808       0.0835869
LJ          -1.97479         1.64839       0.0817263
LJ          -2.38568        0.588201       0.0863372
LJ          -1.65911         1.18958         2.49605
LJ         -0.833863         1.76338        0.485194
LJ          0.794915       -0.952779       -0.736119
LJ          -1.31954        -2.40729       0.0721665
LJ          -1.01484       -0.194084        0.324624
LJ          0.498318       -0.368704         2.36475
LJ           2.08834        -2.06219        0.904274
LJ         -0.349121        -1.38361         1.85687
LJ           1.93927         1.05495       -0.456779
LJ          -2.37678        -2.00475        -1.25685
LJ           1.87309        -1.46528         2.16226
LJ          0.544931        0.503621        -2.03311
LJ         -0.075038         1.42222        -1.22039
LJ          -2.11929        -1.68257         2.50929
LJ          0.568496         2.28718        -1.43057
LJ         -0.773562        -2.29391         1.17986
LJ          0.977563        -2.50316        -2.50333
LJ         -0.596306         2.25857        -1.42261
LJ          0.666195         1.84773         1.72864
LJ           1.17974         2.53423        0.621604
LJ           1.10896         1.72439       -0.483228
LJ         0.0320125      -0.0351845       0.0598872
LJ          0.732958        0.378879         1.05845
LJ            2.3113         1.04381         2.16359
LJ           2.02589         0.91889        0.756617
LJ            2.5485       -0.751433        -2.16276
LJ          -2.14484        -1.49668          0.9145
LJ          0.142104          1.9592        -2.33689
LJ           1.36796       -0.590299         0.30587
LJ          -1.03891        -2.32707         2.34383
LJ         -0.195579       -0.395982       -0.786975
LJ          -2.45423         1.46182        -2.02156
LJ        -0.0511491        -1.17267       0.0530692
LJ         -0.866761        -1.22028         0.66746
LJ           1.99872         2.00233        -1.13677
LJ          -0.82083         1.65306        -2.28068
LJ           2.21931       0.0912982          1.7839
LJ          -1.37974        -2.15576        -1.26907
LJ          -1.80683       -0.486673       -0.903138
LJ          0.698841        -1.37936         2.02835
LJ           1.04585        -1.86738        -1.13596
LJ          -2.40644        0.282574        -2.37811
LJ         -0.821041        0.453015        -2.36634
LJ           -2.3825         2.22082        0.840878
LJ          0.934539         1.41252        0.702162
LJ          -2.28385       -0.458465        0.240344
LJ           1.38645        0.295912         2.40701
LJ          -1.50081         0.40107        -1.66286
LJ          0.188446        0.521355         2.16143
LJ         -0.852485        -0.53385        -1.75606
LJ          -1.69373       -0.559356         2.36792
LJ           -2.3259       -0.535591         1.46169
LJ           2.16384         -1.0131        -1.30741
LJ         -0.543278        0.293837         1.40215
LJ          -1.84573        0.332902         1.87106
LJ         -0.126168        -1.76381       -0.830884
LJ          0.257375       -0.660432         1.19521
LJ           0.94995         1.34546        -2.54311
LJ           1.74064        0.461372        -1.76806
LJ          -1.78233         1.59362        -1.13358
LJ           2.06399        -1.00393         1.05571
LJ          -2.23294        0.755283       -0.953319
LJ            1.8361         1.95251        -2.30938
LJ        -0.0752775         1.16453         1.33103
LJ          -1.33913        0.423055       -0.604741
LJ         -0.496896         1.91929         1.87851
LJ        -0.0862454         1.04851       -0.103966
LJ          -1.42679        -1.53378         1.71319
LJ           1.47534        0.955388         1.58126
LJ          -1.01717          1.7325       -0.497563
LJ          -2.45119        -2.46158       -0.243317
LJ          -1.07841        -1.15018       -0.351452
LJ           2.14621        -2.48662         2.01372
LJ            1.3067        -0.11496        -1.09333
LJ           0.29545        -1.61993        0.971727
LJ          -1.21467         1.11664           1.564
LJ         -0.556056        0.429889          -1.298
LJ         0.0735583         -2.2816         2.11965
LJ          0.221217        -1.43637        -2.04295
LJ            1.8629        -1.89333        -1.92824
LJ           1.19641        -2.27069         1.66379
LJ          -2.17413        -1.38029       -0.356678
LJ          -1.46037        0.771422          0.6524
LJ          -1.71156        -1.20394        -1.57925
LJ          -2.17746         1.98824         1.98631
LJ          -1.32558       -0.613801         1.36698
LJ           2.08176         1.83366        0.199152
LJ         -0.592938        -0.50124         2.26874
