108
#Comment!
LJ           1.58619        -1.14274        0.562465
LJ           -2.2891        -1.51533        0.921425
LJ          0.910738       -0.191031         2.24747
LJ           1.25707       -0.358679       -0.345502
LJ           1.35322        0.760234         1.18316
LJ           2.47136         2.29608       -0.196996
LJ           2.04958        0.196617          -2.073
LJ           2.19975        -0.17598        0.705862
LJ           1.33391         1.76708         1.92314
LJ          -1.13996        0.435566        -2.30718
LJ          0.349342       -0.520065        -1.72909
LJ          0.575978         1.10244         1.81984
LJ          0.259441        -1.18996       -0.703493
LJ           2.13853         2.48117         1.86664
LJ          -2.22641       -0.695419         1.48751
LJ          0.159123      -0.0826763       -0.567129
LJ          -0.62171        -2.25552         2.44714
LJ          -1.66805        0.213641        0.924507
LJ         -0.194447        -1.90957        0.836549
LJ           -2.1524       0.0505221       -0.409609
LJ           2.27145         1.42877         2.46467
LJ         -0.815162         2.02836       -0.903089
LJ         -0.757215        0.963856       -0.682895
LJ         -0.518714        0.240458        -1.43555
LJ           0.55608        -2.38378        -2.26899
LJ          -2.05024         2.29782        0.662444
LJ           1.72158        -1.53895        -1.36375
LJ           2.00644       -0.459468         -1.1883
LJ          0.637848        -2.49627         0.75341
LJ          -1.91926        -2.01591        -2.06494
LJ           1.13952         -2.0631         2.09497
LJ           2.08823        -1.53161        -2.46253
LJ          -2.28189       -0.806733        -1.97364
LJ         -0.309025        -2.42121        -1.63262
LJ          -1.21513        -1.54215       -0.159859
LJ          -1.10381        -2.40193        0.622382
LJ           1.73199         1.81002        0.794114
LJ         -0.191468       -0.195478         2.54248
LJ           1.17239        -1.02845        -2.17354
LJ           1.48519        0.721228       0.0958144
LJ          0.856557        -2.44011        -1.17402
LJ          -1.85836       -0.762883        0.255041
LJ            1.0775        0.201009        -1.66609
LJ          -1.74867         1.32637        -2.52216
LJ           1.69246        -2.26865        0.750497
LJ          -1.23096        -2.06163        -1.10773
LJ          0.267542        0.822205        -2.11078
LJ           1.47998       -0.262172         1.39747
LJ           0.84644        -1.40197         1.25139
LJ          0.169126        -1.39101         2.04021
LJ          -1.85612         -1.0586         2.32563
LJ          -0.46696         1.09014         1.10202
LJ          -2.46686         2.02427        -1.75592
LJ          0.130808         2.04534       -0.419655
LJ           2.52766        0.709085         1.64002
LJ          -1.89217         1.69138        -1.03714
LJ          -1.14905         2.09273         1.39979
LJ         -0.886178       -0.959306       -0.958895
LJ           1.68063        -1.85167       -0.417575
LJ           1.68702         1.49779        -1.77621
LJ          -1.35184        -1.99778         1.79561
LJ          0.306914       -0.600798         1.35983
LJ          -1.53216         1.32297        0.799218
LJ           -1.9647      -0.0766197         2.49076
LJ           2.25099       -0.898864       -0.226037
LJ           1.94534        0.515098       -0.856023
LJ         -0.836571        0.609284        0.363976
LJ          0.648957         0.14753        0.680421
LJ         -0.412395        -2.19023         -0.2214
LJ          -1.68338        0.598722        -1.27862
LJ         0.0987381         2.22575         1.52519
LJ         -0.790914         1.34175        -1.73862
LJ           1.79689         2.45587        -2.34737
LJ           2.48133        0.797923        0.405853
LJ          -2.49788        -2.07536        -1.15839
LJ         -0.544594       -0.601044        0.155312
LJ         -0.201859         1.72542         2.52468
LJ           -1.1357      -0.0168214       -0.499482
LJ          -1.24614        -1.32056         0.89272
LJ           -0.8457         1.69658         0.16881
LJ          -1.26361       -0.540381        -1.91799
LJ         0.0820842           1.055        -0.14302
LJ           -2.3276        -1.88138       -0.110095
LJ          0.661726         1.54482         0.67705
LJ          -2.54803        0.982761        -1.68429
LJ           -1.7284         2.29844         2.26192
LJ            2.0229       -0.418574         2.17517
LJ           1.31099         0.74097         2.56324
LJ          0.583824       -0.895113        0.331504
LJ          0.647397         -1.9388       -0.298294
LJ          -2.38399         -1.7968         1.91594
LJ         0.0143874        0.279856         1.69237
LJ            -1.226         2.22538        -1.98073
LJ         -0.723903        -1.09855         2.33045
LJ          -2.06405        -1.05694        -0.84892
LJ           -2.3157         1.83724         1.50653
LJ           1.96107         1.49804       -0.719844
LJ           0.77537         1.69763        -2.35236
LJ           1.87862        -1.28878          1.4966
LJ         -0.752666       -0.404114          1.4736
LJ          0.980248         1.20835       -0.852064
LJ           1.23615         2.28992       -0.225584
LJ          -1.65102        -2.56192       -0.240985
LJ          -1.71517         1.07274        -0.13965
LJ           1.82555         2.43252        -1.23399
LJ          -1.39811         0.79397         1.72085
LJ       -0.00357927        -1.51841        -2.14062
LJ          0.221867         1.73089        -1.35528
