108
#Comment!
LJ           2.40804         2.54097         2.47184
LJ          -1.71503        -1.92897        -2.53276
LJ          -2.50689        -1.72177        -1.79978
LJ          -1.81887         2.49178        -1.69662
LJ         -0.919958         2.38585         2.47758
LJ         -0.153738        -1.82295        -2.46974
LJ         -0.802502        -1.62967        -1.59426
LJ        -0.0132268         2.53824        -1.65105
LJ          0.885615          2.5322        -2.50659
LJ           1.65504        -1.80016        -2.53135
LJ           0.79807        -1.49301         -1.6088
LJ           1.88021        -2.42916        -1.68335
LJ           2.47818       -0.910244         2.49659
LJ          -1.61193       0.0496411         2.54685
LJ          -2.51879         0.14696        -1.82109
LJ          -1.80425       -0.970754        -1.71475
LJ          -1.16529       -0.837928         2.50718
LJ         0.0208659        -0.11524         2.51431
LJ         -0.777198           0.081        -1.70677
LJ         0.0134638       -0.816467        -1.64721
LJ          0.852113       -0.901186        -2.56288
LJ           1.79592        0.149882         2.56464
LJ          0.727287        0.186581        -1.59425
LJ           1.66773        -0.79899        -1.70797
LJ          -2.53094        0.848857         2.52995
LJ          -1.77915         1.78976          2.5159
LJ          -2.54199         1.66378        -1.80269
LJ          -1.77061        0.894575        -1.73335
LJ         -0.665436         1.04687         2.29621
LJ          0.158267         1.74711         2.41329
LJ         -0.868231          1.6568        -1.58208
LJ         -0.105199        0.932953        -1.79703
LJ          0.737601        0.935956        -2.34124
LJ           1.79373         1.74024        -2.51123
LJ          0.924481         1.81892        -1.59878
LJ           1.76959        0.845074        -1.72092
LJ          -2.48639        -2.44911       -0.793496
LJ          -1.46389        -1.72814       -0.751949
LJ            2.5069        -1.83451      -0.0216628
LJ          -1.56662         2.48848      -0.0189295
LJ         -0.787597        -2.53498       -0.770757
LJ        -0.0529114        -1.74033       -0.993065
LJ         -0.844768        -1.74907        0.164435
LJ         -0.151655         2.40958      0.00190734
LJ          0.830556         2.49973       -0.809697
LJ           1.58415        -1.81187        -0.80454
LJ          0.713858        -1.79207        0.142479
LJ           1.62774        -2.47419      -0.0699725
LJ          -2.47876       -0.923095       -0.794836
LJ          -1.99763        0.193266       -0.817217
LJ           2.50557       0.0204496      -0.0438923
LJ          -1.63398       -0.878202      -0.0637116
LJ         -0.922359       -0.730458       -0.813254
LJ        -0.0486584       -0.018846       -0.738335
LJ         -0.853193     -0.00165313       -0.056312
LJ        -0.0517235       -0.663655       -0.034414
LJ          0.953403       -0.817347       -0.738816
LJ           1.72514       -0.149252       -0.833555
LJ          0.913514      -0.0499862      -0.0557251
LJ           1.70496        -1.00912       -0.141531
LJ           2.55923         1.06078       -0.852324
LJ          -1.72036         1.74962        -1.01121
LJ           2.54905         1.78884        0.166786
LJ          -1.79083        0.904249       0.0939608
LJ         -0.784626        0.721671       -0.829697
LJ         -0.122748         1.69573       -0.942094
LJ         -0.917814         1.70117       -0.175337
LJ         -0.126947         0.99752      -0.0721944
LJ          0.680701        0.938419        -0.82763
LJ           1.76548         1.89593       -0.893182
LJ          0.656301         1.80781      -0.0470348
LJ           1.59198        0.765819       0.0692917
LJ            2.5319         2.49052        0.849707
LJ          -1.59983        -1.71782        0.929612
LJ           2.41688        -1.69771          1.7056
LJ           -1.8384         2.52222         1.66878
LJ         -0.790905         2.49612        0.792195
LJ       -0.00172818        -1.71754        0.841857
LJ         -0.884802        -1.73095         1.74919
LJ          0.160016         -2.5033         1.84807
LJ           1.05571          2.5228         1.02851
LJ           1.74732        -1.75449        0.847672
LJ          0.922074        -1.60564         1.63171
LJ           1.69922        -2.50115         1.81026
LJ           2.51062       -0.628725        0.882446
LJ          -1.81591      0.00686995        0.872882
LJ          -2.45735     0.000434473         1.95279
LJ          -1.80428       -0.830956         1.61872
LJ         -0.678447       -0.892042        0.776039
LJ         0.0618417     -0.00633425        0.782571
LJ         -0.627422       0.0821573         1.77289
LJ         0.0143275       -0.903492         1.59259
LJ          0.752902       -0.882938        0.856207
LJ           1.60071     -0.00801715        0.725682
LJ          0.808096       -0.189348         1.79967
LJ           1.67029        -0.92781         1.73486
LJ           2.36356         0.92918        0.839852
LJ          -1.80156         1.75585        0.800921
LJ          -2.53874             1.7         1.82475
LJ          -1.78639        0.734147         1.65435
LJ         -0.844213        0.710862        0.875026
LJ        -0.0589443         1.64172        0.877984
LJ         -0.871469         1.73391         1.63329
LJ         0.0318917        0.826199         1.59689
LJ          0.805631        0.771753        0.873778
LJ           1.77152         1.80045        0.831381
LJ          0.858059         1.61174         1.66418
LJ           1.69733          1.0708         1.64479
