108
#Comment!
LJ           6.15237         1.13911       -0.364551
LJ          -1.02995      -0.0224676       -0.389263
LJ          -5.88607        -4.70437        -3.79537
LJ          -2.86658        -4.10275        -5.18966
LJ           1.58865        -3.52799         4.97533
LJ          -1.75427        0.627043        -2.13853
LJ           1.88241        -4.75657        -6.01733
LJ          -3.52257        0.803829        -1.74571
LJ          -6.39221        0.909042        -1.62102
LJ          -4.53887        0.321993        -4.56104
LJ           6.04281         4.03641        -2.45635
LJ           -5.4759        -3.19879        -3.36227
LJ         -0.698663         4.19965        -1.12209
LJ          -4.20873        0.490244        -5.27626
LJ          -4.37432        -2.19354         1.69561
LJ          -2.40144         2.37649         1.43212
LJ         -0.145781         -5.2976        -3.17522
LJ          -1.55417        -6.44026        -6.36896
LJ           2.98036          1.6736         3.58106
LJ          -6.26743          1.7994         1.48319
LJ           2.26956         3.51886         5.15546
LJ           -4.9763        -4.35968       -0.123117
LJ          -4.11928         3.74995         4.68631
LJ           3.68986        0.860593       -0.964358
LJ           1.22764        -1.91118         3.88121
LJ          -3.36678        -4.35164        0.731445
LJ          -3.62862       -0.272509        -1.50146
LJ           2.52075         5.34003       -0.813157
LJ          -3.69269        -6.20387         4.78128
LJ          -4.61151          6.4175         1.97983
LJ          -4.35581        -2.93623        -1.08649
LJ          -3.98051       0.0952557        -4.73909
LJ          -4.74041         3.96906          4.7856
LJ           4.91611        -1.04801        -4.01249
LJ          -3.40646        -6.12495        -2.30482
LJ          0.870571         2.41157        -5.38378
LJ          -2.91992       -0.781192         4.64582
LJ         -0.202869         4.65472        -4.12073
LJ           3.49284        -1.34821        -4.40808
LJ          0.264236         5.98788        -3.81656
LJ          -1.77208        -0.87528        -3.37246
LJ           4.65165         2.08109         2.12559
LJ           2.61475        -4.91905         6.18788
LJ          -3.23667         1.17007        -5.53256
LJ           2.74902        -3.41013         1.51802
LJ          -2.16427         3.93686        -2.51147
LJ          0.979077         1.85736         1.76522
LJ         -0.673154      -0.0804294       -0.770539
LJ          -5.10965        0.979973         1.10668
LJ           4.52247         1.00646         4.61558
LJ           5.52917        -1.99156        0.968604
LJ           -5.7363        -3.18648         2.22471
LJ           -5.5948        -2.57985        -6.17526
LJ          -4.69492         2.18266       0.0416619
LJ           2.64098         1.31881       -0.323128
LJ          -3.48705        -1.35849         3.63668
LJ           5.20558         2.26075         -5.1633
LJ           4.30063        -4.72962        0.184777
LJ           -5.0568       -0.602814         2.07314
LJ           4.79881         3.70546         0.35157
LJ          -0.83007        -3.26428        -1.42114
LJ          -5.25869         5.63551        -6.02962
LJ           3.06185         2.27349         1.90097
LJ           6.11728        -3.71985        -4.47804
LJ           3.23736        -4.22405          4.9009
LJ         -0.102823        -2.94414       -0.812986
LJ          -5.33109         3.69471        -1.36658
LJ          -2.18238          3.5216        -4.32463
LJ          -5.44026       -0.968051        -5.90131
LJ          -3.09606       -0.367008        0.159507
LJ           3.25101         3.06519        -1.75068
LJ           -5.1379         3.90975         2.21297
LJ           4.66348         2.85218         -1.1414
LJ          -6.19186         4.46287         4.09712
LJ           2.06801         -1.3371         4.51272
LJ           3.88272         -1.5573         1.19418
LJ          -6.09272        -1.11419         1.48403
LJ          -2.41166       -0.456202         1.42899
LJ           2.39508         3.20855        -2.63867
LJ           3.69921        -5.15854        -5.55209
LJ          -1.03413         2.81858         5.23754
LJ           4.27299        -5.23458       -0.338685
LJ          0.803792         3.55314         4.95086
LJ           1.98391          4.8387           4.886
LJ           5.23137        -5.37159        -3.28703
LJ           3.95367        -4.10083         2.05802
LJ          -5.08302        -1.69366          6.1254
LJ           -5.4615         5.50821          2.1298
LJ           2.00899          -1.135        -2.11597
LJ          -4.41867         5.08731        -1.27915
LJ          -4.75959        -3.60887        -3.51947
LJ            4.4874         2.29691       -0.441735
LJ          -4.65107         3.87516        -4.77411
LJ           -5.1135       -0.215966         3.65197
LJ          -3.73528         1.82519         2.07034
LJ           1.51952         5.91025        -4.92428
LJ           4.45365         2.78685         1.74673
LJ           -5.1503      -0.0704862       -0.763776
LJ          -1.58047        -1.35365         5.93193
LJ          -6.04172        -5.84706       -0.445837
LJ          -3.11032        -6.37139         -5.5736
LJ           1.87843         4.25515        -2.58086
LJ          0.966469        -4.59611        -6.43708
LJ          -5.89304        -4.24122        -2.37587
LJ           3.16147        -1.39648        0.955739
LJ          -6.00422        -2.31591         5.72846
LJ          0.324005         2.12522        -6.04626
LJ          -6.07381        -1.39042       -0.456151
