108
#Comment!
LJ          -4.90715         2.43059         5.90531
LJ           5.39072          2.9095        -1.27439
LJ           6.13053         3.80231        -5.38482
LJ           3.24057        -3.16277         5.40609
LJ           4.78506         1.83436        -2.63332
LJ           2.40168         4.28762         2.32078
LJ           3.35447        -3.32384        -5.16087
LJ           2.46806          2.3865       -0.270959
LJ           5.44385        0.541157         1.52483
LJ           1.06998         4.74981         5.42847
LJ          -5.65658         2.35241        -1.07115
LJ           6.19849         4.30618        -4.32103
LJ           4.93237         5.29537        -1.93386
LJ           1.04518         5.67981        -4.24157
LJ          -2.87804         3.48919          -4.437
LJ          -3.71829          5.8698        -6.00022
LJ           6.01328         4.78149        -1.79381
LJ           2.95343        0.460656         -4.8371
LJ           4.26954        -6.45289       -0.811931
LJ           6.28791         1.48827         2.09575
LJ           4.45835        -5.54079         4.67415
LJ          -1.16739        -1.48139        -3.35629
LJ           3.64122      -0.0826721        -4.07798
LJ           3.57239         4.28636         4.83618
LJ          -3.22974        -2.77681         2.88113
LJ          -4.97553         6.25553        -2.44875
LJ           4.20958         4.13495        0.306877
LJ          -6.22308         4.71145         1.02739
LJ           2.93468         -2.1027         4.60766
LJ          -1.53684         3.32131        -3.17238
LJ          -1.39784        -4.64676         2.72237
LJ          -5.63166        -5.42277        -5.53626
LJ          0.519855         1.13685        -5.90908
LJ          -3.28607        0.180219         5.60582
LJ          -5.14767         -3.7571         3.52633
LJ          -6.19177        -4.41643        -5.77945
LJ          -5.56688         1.99034       -0.541674
LJ         -0.254101        -3.22699        -1.89934
LJ           1.47645        -3.11783        -1.75716
LJ            1.2301         1.08035        -5.13044
LJ            3.7212        0.263437         3.93762
LJ           6.04248      -0.0283241        -3.39143
LJ          -2.94824        -0.26857         3.89437
LJ           4.41248        -2.66127         3.89365
LJ           3.09209        0.913534        -5.52366
LJ           5.65107      -0.0219011       0.0295487
LJ          0.791987        -3.78541        -1.59469
LJ           3.59348        -1.47106       -0.499852
LJ          -4.76113         3.71677        -2.37582
LJ          -3.70796        -5.66668          1.3464
LJ          -1.38337         1.37983       -0.230444
LJ          -5.24354        -6.27446         1.82677
LJ           2.30126        -6.28699        -3.11156
LJ           3.20543        -4.43749        0.550276
LJ          -4.37788        -4.41868        -5.62128
LJ          -2.62182        -1.91844           5.332
LJ            2.4013         5.44813         4.63551
LJ          -3.21086         6.41064         2.87133
LJ          -6.42408        -3.64785       -0.866024
LJ           2.25342         -1.5149         -4.8716
LJ          -1.39373        -4.88559       -0.040063
LJ          -6.35645       -0.516568          5.6942
LJ           2.60855         -3.4544        0.751099
LJ           6.28101        -1.83781         5.86742
LJ          -2.35624         1.40412        0.159951
LJ         -0.248207       -0.486355        -1.38158
LJ           6.30758        -1.75989         -4.7594
LJ           4.66603        -4.53138         5.26199
LJ          -6.23802          3.7679         5.78799
LJ           2.41239         4.99124        -5.22113
LJ          -5.19132         3.69452         4.14277
LJ           2.96802        0.396023         2.10818
LJ            3.8818        -3.68488        -5.35169
LJ          -3.97868        -1.37812         5.10446
LJ          -4.53766        -2.92878        -5.74753
LJ           4.14254         2.43661         4.55187
LJ          -1.35447      -0.0506532           2.111
LJ           -6.3235       -0.251873         3.68179
LJ          -1.52545          3.9338        0.858393
LJ          -4.34761          3.3921        -3.34412
LJ          0.451457        -6.31746        -4.83277
LJ           3.08319        -2.26706         6.41854
LJ            3.9781        -4.86595        -5.68397
LJ           -1.7402        -2.09212        -2.96654
LJ          -3.02171        -5.27907         2.47251
LJ           2.10697        -4.19047         2.00175
LJ          -0.41884        -5.65017        -5.93869
LJ         -0.332401        -4.96418         6.17526
LJ          -3.41437         6.03113        -1.11036
LJ          -2.56246        -1.12859         2.38012
LJ          -4.30486         2.34122        -1.38169
LJ          0.459408        -3.81134        -5.30982
LJ          0.867899        -3.62243         5.51672
LJ          -5.69216        -2.53749        -3.98915
LJ           6.14996         5.50393       -0.357941
LJ            2.9248        0.649968       -0.755493
LJ           3.89266          5.4745        -5.10868
LJ           4.15219         1.49477          1.1584
LJ          0.209788       -0.680655        -5.18603
LJ           -2.6295        0.605485         1.54735
LJ           1.27775         2.93682       -0.751269
LJ          -2.88203         5.76111        -3.26734
LJ           1.04784         -0.6645        -3.70091
LJ         -0.974241        -6.40772        0.180244
LJ           1.71043        -5.48985        -1.19242
LJ          0.129298          1.2743         -2.5793
LJ           2.81844         -4.3973         4.56123
LJ          -5.64035          3.8479         4.85567
