108
#Comment!
LJ           2.82984         3.09349         3.04863
LJ           3.10005        -1.37552        -5.20669
LJ           6.22908        -1.93697        0.256814
LJ          -3.11819         3.38674        -1.92952
LJ           3.97972        -1.14505        -5.11155
LJ          -5.60034         4.82297        -5.36985
LJ           -6.2984       -0.149487        0.259929
LJ       -0.00101683         6.07041         1.95184
LJ          -3.83489         3.63204        -1.52134
LJ           -4.7508        -5.64434        -6.15922
LJ          -5.67258        -2.42454         4.44646
LJ          -4.65908         4.93694         5.56033
LJ          -4.39492        -6.44972        0.780885
LJ          -3.99971        -2.07488        0.095567
LJ           5.53029        -1.64457        0.639994
LJ          -4.32061         1.36202        -4.89764
LJ         -0.204037         3.05008        -1.58211
LJ           5.66558        -2.55356        0.498447
LJ           2.28782          2.9465         5.69764
LJ          0.227987       -0.658257         5.00117
LJ           6.22034        -2.56815         1.74965
LJ          -1.09401        -4.23871        -2.07428
LJ         -0.907765          5.7295        -4.16529
LJ           6.14432         3.41068         5.78434
LJ            3.3724         6.13533         -5.6231
LJ         -0.640229        -4.98868         4.59435
LJ          -6.23873         -3.1124        -4.24817
LJ          -0.59739        0.260917        -5.86713
LJ         -0.482475         1.92038         1.09281
LJ          -3.80004         -2.4154        -2.42529
LJ          -6.15586          2.0091         2.69856
LJ          -3.83638         1.11558        -1.40249
LJ          -1.05044        -5.28267         -2.2837
LJ           6.32917         3.31268        -4.86963
LJ          -4.56639          -5.835          2.2683
LJ           3.12396        -5.94227         5.59862
LJ           4.34479         1.38235        -1.57227
LJ           3.68708        -4.57972        -1.43264
LJ          -4.39597        -3.07098         1.20472
LJ          -3.55189        -5.97988        -3.09657
LJ          -1.55404         -5.5529         4.05403
LJ          0.253436        -2.58684        -2.90693
LJ          -3.65638        -5.55866        -2.11566
LJ           6.36868        -5.67498         6.17636
LJ          -2.49506        -3.72665       -0.795761
LJ          0.196084        -5.68578         4.30843
LJ          -3.58841        -1.66428        -3.19951
LJ           6.28359        0.859323         3.25512
LJ          -2.28431         2.65563        -4.89502
LJ          -4.09122         6.45385        -2.56447
LJ            0.6201         6.15663         1.01664
LJ          -6.32939          5.8048          1.3292
LJ         -0.911835         4.78094         3.32534
LJ           3.37195        -1.46669        -5.31612
LJ           2.37572        -5.78221        0.876811
LJ         -0.952168         4.70833        0.588422
LJ          -2.72548         3.45882         2.13202
LJ          -3.41184       -0.807601       -0.985095
LJ          -2.44316         6.44428         5.10037
LJ        -0.0747436         4.90779         1.87255
LJ           3.71618         5.79426        -1.53568
LJ         -0.755198         5.92121        -1.29521
LJ          -5.50273         2.15312         4.33254
LJ           3.17037        -5.96292        -5.11936
LJ          -5.78679        -2.70885         3.01642
LJ           5.09238        -3.25482        -4.53003
LJ          -4.23312        -2.55787        -3.97417
LJ            3.2602          3.4369        -6.13156
LJ          -2.04571       0.0722338        0.512037
LJ           1.01417        -5.58671        -1.28968
LJ            2.7903         1.53332        -3.22928
LJ            3.9539         6.13807         3.49649
LJ           6.08976        0.959423         4.92861
LJ           5.64443        -1.65458         -1.9128
LJ          -2.72424        -6.34762        0.848264
LJ          -2.02225         6.04758         6.27481
LJ          0.706005        -4.99821          5.5383
LJ          -4.92129         5.11937        -1.66051
LJ           2.55176         2.50829        0.820266
LJ         -0.509671         2.33626        -4.02791
LJ            5.5969        -6.07278        -1.00336
LJ           3.29336         2.55328         5.62516
LJ            2.6474         4.50983        -5.78565
LJ        -0.0818534         2.26442        -3.62083
LJ           1.83222         5.51155         2.16629
LJ           6.25396          4.2129        -3.25879
LJ           3.88044          2.3048        -3.79865
LJ           5.80155         5.72101        -4.82775
LJ           2.08538         2.58569         6.05264
LJ          -1.15825         4.86469         6.23403
LJ          0.659809        0.304261        0.388697
LJ            5.6991         4.72263        -4.17374
LJ          -4.40482        -5.58446        -2.32858
LJ          -3.45731         1.02447        0.428776
LJ          0.471759         1.41659        -5.00288
LJ          -3.63007       -0.100764        -3.11486
LJ           6.26117       -0.808052         3.74388
LJ          -5.36614        -5.50748         2.61323
LJ          -5.64742         4.32548        -4.56449
LJ           2.82622         -2.2975         6.04276
LJ          0.668736        -2.38961         2.63857
LJ           4.56652        -3.29791         3.74027
LJ           4.19763        -4.47975         2.71783
LJ         -0.661582         1.41661         6.34638
LJ           1.54536         2.47219       -0.176013
LJ           4.17118        -2.18274         6.29874
LJ           2.58952         2.97666          2.5701
LJ          -6.35325        -3.58935        -1.33702
