108
#Comment!
LJ          -3.31697        -2.63829         2.67437
LJ          -4.34517       -0.623643        -5.28378
LJ          -5.33644         3.22611        -2.33064
LJ           1.12429         1.28033        -3.21243
LJ           3.25062          4.1863       -0.513644
LJ           4.98875        0.611321         1.79911
LJ          -5.09122        -1.29089        -4.18092
LJ          -4.11402         4.14124        -1.56674
LJ          -3.50405        -3.23089         5.75565
LJ           1.70226        -2.12869         5.92564
LJ           3.31117         3.07888      -0.0722199
LJ           4.40983        -4.68738         2.86252
LJ         -0.512346        0.567324        0.158516
LJ          -5.64384         6.29236       -0.858051
LJ          -1.51505        -4.35849        0.958057
LJ           4.76561         3.19591         3.78689
LJ           0.81998        -6.20035        -4.30893
LJ           2.15438           1.462        -5.13023
LJ          -5.42816        -0.58245         4.49779
LJ          0.856179        -4.74934        -4.01982
LJ          -4.82341         3.15845        -1.14569
LJ           5.17695        -0.13582        -5.87678
LJ          -4.43795          3.6986        -5.70492
LJ          -2.38313        -0.12299         2.18141
LJ          -2.90823         2.46165         3.84541
LJ           5.30864        -2.00426         3.79089
LJ          0.397439       0.0799692         1.19218
LJ          -3.30863         4.73106         5.13565
LJ           3.02087        -4.25723        -5.76824
LJ           5.28286         1.58543         1.51094
LJ           3.70773         -4.2399        -4.25173
LJ           1.98968        -3.89225        -4.59233
LJ           3.07319         4.39671          3.5083
LJ          -4.28331        -3.34815         4.73134
LJ           5.63977         2.62135        -3.18515
LJ          -2.93796         1.90133       -0.446266
LJ           3.37412         5.02397         1.48529
LJ           5.37766        -5.90358        -2.64605
LJ          -2.93031        -4.32559         4.53227
LJ          -6.32724        0.087057         5.97048
LJ           1.18782       0.0531039        -2.77568
LJ         -0.864474         1.21835         3.35269
LJ          -4.58733         5.94769         4.65555
LJ          0.220877        -1.19728        -3.37165
LJ          -5.95388        -5.05449        -2.75961
LJ           5.33566        0.911268         -5.7992
LJ          0.562412         3.38007         1.67922
LJ           3.17998         1.70053        0.893361
LJ          -2.71843        0.422859        -6.32492
LJ          -5.61487       0.0687738        -4.90749
LJ           2.41955        0.886296        -2.56636
LJ           2.21222        -6.44393        -3.49879
LJ           6.25532         5.10689        -2.25341
LJ           1.25458          3.9068       -0.083927
LJ           4.29548        -5.75745       -0.671021
LJ         -0.277076         5.39627         2.46352
LJ           -2.8255        -4.45821       -0.429046
LJ          -5.47035        -5.19341         -5.1145
LJ           6.27058          1.8996         5.52511
LJ           2.24011         1.69806         3.47126
LJ          -2.27466       -0.411652         3.06162
LJ         -0.610421        -2.92603         4.74332
LJ          -4.91976         6.29335        -5.63111
LJ           2.87825        0.133512        -1.68456
LJ          0.635197        -4.65244        0.340492
LJ           5.20195        -4.00626        -2.97454
LJ          -3.58188        -5.23507         6.13456
LJ          -5.14376        -2.62128         4.28937
LJ           5.39626         2.02774        -4.45342
LJ           1.18541         4.50437          3.7285
LJ            5.5513         4.02359       -0.733105
LJ           3.22466       -0.936112         1.73469
LJ           5.31232         3.72092        -4.76944
LJ          -1.51346         2.56842        -4.59059
LJ           5.35514         2.46114        -1.30051
LJ           6.23008        0.865596         2.09116
LJ           4.28731        -2.52606         2.80128
LJ           1.12868       -0.752377         2.06374
LJ         -0.380185        -6.13816        -5.22303
LJ          -5.17565       -0.190269        -3.26716
LJ          -1.96761        -2.42752        -2.91611
LJ          -1.93448         2.86117         -2.2825
LJ          -4.17626        -2.48261        -2.12645
LJ           4.08255        -2.35879         4.39008
LJ           6.38463       -0.238815        -2.16628
LJ          -5.12146        -6.38967         1.05447
LJ        0.00787426         1.34659        -6.20377
LJ          -6.37058         5.96096         1.42016
LJ           1.95242        -6.08692         3.99922
LJ           -3.3066         6.44407        -1.36779
LJ           -5.8744        0.728124       -0.395696
LJ           2.65339         3.02412        -2.02164
LJ         -0.881477        -1.18646         1.31364
LJ         -0.937383         2.90866        -3.60488
LJ           5.02442          2.8259        -5.69452
LJ          -4.46246         4.92389         4.98068
LJ           4.01093        -3.09027        -4.65268
LJ          0.242063        -2.16998         4.46938
LJ           6.31076         3.46333        -4.87172
LJ           4.02117        -4.48256         1.35921
LJ         -0.303313         2.31852         1.02034
LJ           5.32681         5.84353         2.59846
LJ          -2.18195         6.31957         -6.1822
LJ          -3.32778        0.111483        -1.72594
LJ           2.41442      -0.0904858        -3.44713
LJ           0.52926         2.28294         3.77584
LJ          -5.61963        -5.42172        -1.43153
LJ           2.86387        -1.77234         2.87499
