108
#Comment!
LJ         -0.399491        -4.86006        -3.91363
LJ           4.45452       -0.633862        0.378987
LJ           3.31486         3.46302        0.262049
LJ          -3.71921         1.94104        0.759812
LJ          -4.93715        -4.19931         4.19746
LJ            5.5204        -6.41406        -4.20094
LJ         -0.948279        -3.13226         5.16876
LJ          -5.20993         2.11814       -0.783724
LJ          -3.84123         1.68481         2.99089
LJ           5.97288         2.48062         5.78895
LJ           1.70578        -2.07395        -1.32085
LJ           2.22662         2.00887         5.28529
LJ           2.23662         2.83547         5.71335
LJ           1.52915         2.39873        -6.43519
LJ          -2.86305        -1.25521         1.40728
LJ           1.88242         5.15267        -4.31206
LJ           3.42306         3.94376        0.483753
LJ           1.45689         2.65483        0.132131
LJ           3.60796        -4.83706         2.74103
LJ            4.0373         3.56055         5.67774
LJ          -5.80474        -5.90279         5.96295
LJ           1.30667        -0.21908       -0.249844
LJ         0.0573831        -5.27047        -3.79623
LJ          -3.07131         1.01826         2.30297
LJ           2.72749        -5.20148          4.1441
LJ           5.53096        -2.61427         3.77269
LJ           -1.8501        -4.30047         1.34995
LJ           1.54984        0.601428         4.36735
LJ           -2.4001         2.30347         6.09752
LJ          -2.15809       -0.869786         2.78095
LJ           -2.2118         5.20481         -4.8541
LJ          -6.37977         2.12669        -3.06225
LJ          -1.18465         1.57533        0.439666
LJ          -2.00715         3.95467         6.01983
LJ           5.14791         3.42069         2.52257
LJ          -3.12438        -3.60693         2.83382
LJ           2.51361        0.687241        -4.80279
LJ          -2.98688         6.15902         5.57147
LJ          0.761135        -6.43804       -0.873139
LJ           -3.3897        -2.99184        -1.79393
LJ            4.3441        -5.08301       -0.488988
LJ           4.61942         1.22187        -5.04091
LJ           2.04478         5.85549          6.2928
LJ          0.192134        -5.90825       -0.135434
LJ          -3.98757         5.74601         3.44568
LJ          -2.67272         1.28978         6.06836
LJ           -1.1911        -3.73766          5.2192
LJ           5.81482          3.2248        -6.20348
LJ           2.38535        0.266404         6.05966
LJ         -0.170542         2.28048        -5.86651
LJ           6.07158         6.15023        0.857783
LJ          -5.39637        -4.87611        -4.88651
LJ          -3.59391        -1.69147        -4.28448
LJ          0.593915         1.85796        -4.40881
LJ            -1.646        -4.35949         6.33811
LJ            1.6725         6.06573         2.51128
LJ            5.5703        -4.35398         3.99144
LJ         -0.755226        -1.77713        -5.73971
LJ           2.40758         4.43039         4.18181
LJ           3.78777         1.53028        -4.78122
LJ           1.63023        -6.46084       -0.680688
LJ          -4.64714          4.4803        -3.50348
LJ          0.604193         6.01637         1.94232
LJ          -3.85994        -5.48778           4.958
LJ          -4.55492        -2.33775        -1.26921
LJ          -3.89265        -2.79083       -0.477757
LJ           -6.2141         2.85226         5.37946
LJ           2.08232         3.20204         4.21816
LJ           5.92021        -2.90951        -2.16837
LJ           -4.1444        -1.68648         -1.0873
LJ           3.96591        -4.03951       -0.973242
LJ          0.125148         5.51367        -5.28555
LJ           2.34604         3.46689         3.67682
LJ           0.52583         3.92008         3.30176
LJ          -3.65928         2.38638         5.80191
LJ          -1.42909        -4.58913        -6.16703
LJ          -4.97302        -4.29405        -3.79365
LJ          -2.19008         1.14239         3.69018
LJ          -3.14499         3.01986       -0.966216
LJ          0.750356        -1.46242        -5.71607
LJ          -5.76763        -2.81202          5.6539
LJ          -3.57045        -3.85762         1.75972
LJ           4.31135         1.75862         5.55377
LJ          -5.52479        -4.10539         2.86552
LJ           6.19942        -5.80951       -0.933768
LJ           2.66759        -5.96065         3.46866
LJ           1.60102         5.37685        -0.90392
LJ          -3.94724        -1.38971         1.46367
LJ           3.65378        -4.78666        -3.19561
LJ          -5.20727        0.589958        -5.08962
LJ          -5.12664         2.32098         4.05086
LJ           4.91874        -2.79742         6.04951
LJ           -2.1987         5.27702        -3.33454
LJ          -2.61479        -4.35318         1.20079
LJ          -4.04042        -2.92984         2.67268
LJ         -0.221456         3.67683         2.25109
LJ           6.26716          1.6883         3.45277
LJ           5.99331        -2.28931         -4.2011
LJ           5.31412        -3.19099         4.24937
LJ          -3.12749        -5.71799         2.43261
LJ          0.622308        -1.92345        0.614953
LJ          -5.15601        0.893701        -3.42994
LJ          -5.59163        -4.78247         3.91962
LJ           1.93169        -2.55798         1.39916
LJ          -5.52364        -1.15475        -2.24665
LJ            3.6176         4.87878         2.58155
LJ            5.8008        -6.27919         6.39489
LJ          -4.63267         -1.2511         4.90568
