108
#Comment!
LJ          -1.08887          6.3595        -4.49294
LJ           1.81056        -2.85379          1.0442
LJ           2.57011       -0.961964          3.7204
LJ           5.65708         6.37489        -4.45022
LJ             4.343         1.29337         4.77501
LJ          -1.88029         5.42258       -0.106348
LJ          -4.25567       -0.612975        -4.12738
LJ           3.94633         5.12831        -5.38136
LJ           3.13033        -3.09934         1.02046
LJ           1.10962         5.13627        -2.16219
LJ          -4.81664         1.47082          -5.588
LJ          -1.93872        0.540259        -5.65456
LJ         -0.737653         1.22274         1.11537
LJ          0.756877        0.352354        0.115878
LJ           -2.0554        -2.37259        -2.82802
LJ           3.57627        -2.88402        -6.27524
LJ          -2.90822        -2.22848        -1.66618
LJ          -1.06508        -5.76504        0.178615
LJ          -4.93963        -3.37055        -1.05536
LJ          -3.46191        -5.45804        -3.58137
LJ            3.8564         3.20852         4.30087
LJ          0.974982         4.40621         1.86709
LJ          -1.57624        -2.40555         1.53515
LJ           4.47663        -4.92165         1.65616
LJ          -3.94386         1.89167        -1.26347
LJ           3.94394         1.38747         2.25021
LJ           3.22269        -3.66001          4.2425
LJ          -5.00548        -4.75698        -5.76773
LJ           3.67407        -2.37987        0.190763
LJ           5.82443         2.34977         4.82687
LJ          -6.36492        -5.72232         5.55369
LJ          -3.88942         1.69215        0.138474
LJ           5.76029         5.59634         4.71919
LJ           2.72755        -2.34035        -1.69297
LJ           6.00183         3.30007         6.24296
LJ         -0.903224         5.24794        -5.16555
LJ           6.36743        -0.33121        -6.21707
LJ          -3.43069         5.77416         5.63387
LJ          -5.77641        -6.45954        -6.14408
LJ          -2.03123         3.29231        -6.19665
LJ           2.95991         2.10606         1.64983
LJ         -0.751077        0.481733         4.50869
LJ           -2.6561        0.494756          3.2187
LJ          -1.39066         4.14622        -5.85932
LJ           5.97176         5.93435         2.81428
LJ        -0.0733189        -3.18886         5.12587
LJ          -5.03567         2.12349         -0.9577
LJ          -5.27459         3.61518         3.46746
LJ           4.35707         1.54466         3.15547
LJ           5.41623          1.2923         3.50494
LJ           1.23807         5.92105        0.147463
LJ           3.91213        -4.39884         3.80442
LJ            1.9325        -2.70788       -0.317649
LJ           5.55687        -2.66527           5.475
LJ          -1.25441         2.42501         5.82146
LJ           1.22784        -3.50388         6.16926
LJ          -3.19693         1.71474         1.09448
LJ          -2.21501         5.09507        -1.55158
LJ          -1.42988         4.26648         1.96987
LJ           3.04908         5.18242         2.24529
LJ         -0.716549       -0.139474        -0.37119
LJ            4.6256        -5.15006         4.43251
LJ           5.07801        0.313923        -2.62518
LJ          -3.94362         4.64268         5.49756
LJ          -5.86921         5.64889        -2.93542
LJ          -6.16482        0.082823        -2.80184
LJ          -3.26273         4.03405         3.03194
LJ          -3.28306         1.98833         -2.1709
LJ          -1.37843        -6.10259       -0.917741
LJ          -6.37494        -5.94413         2.94558
LJ          -5.90033        -4.59109         1.05642
LJ          -4.44702        0.715899        -1.44841
LJ           -2.9399         5.04312         2.40627
LJ           2.79943        -4.43822         3.29764
LJ          0.070045        -3.27384        -2.68317
LJ           2.14598        -3.80428        -4.47052
LJ           3.95026        -3.93349        0.523793
LJ           5.63824         2.17674         6.09441
LJ           6.24281         2.98318         2.73808
LJ           3.84942         6.18002        -5.57974
LJ          -4.26328          -1.058         2.64796
LJ          -5.19977        -5.18926         2.82001
LJ           2.21309         5.62166        -3.34419
LJ          0.559371        -2.28718        -6.43397
LJ            4.8941        0.836072         2.66946
LJ          -6.45709       -0.926907        -1.55281
LJ          -6.00962          6.1356         5.51583
LJ           1.69052        -5.85308         3.10493
LJ            2.0552        -4.56774         6.43429
LJ           3.87726        -1.02626        -3.96049
LJ          -5.73781         3.99755         5.34226
LJ            6.1375        0.788114         2.79015
LJ          -3.73933        -3.45537        -1.99467
LJ          -2.49796        -1.28807         4.92318
LJ          -2.41168         3.28668        -2.55838
LJ          -5.69426        -2.68071         1.78216
LJ          -5.58674        -6.42437         1.61645
LJ           4.54204         1.29124        -3.49757
LJ           1.90291      -0.0302904         4.48684
LJ          -2.28433         6.09235        -4.35446
LJ          -0.54451        -2.52872         2.01994
LJ          -4.87047        -3.61711         1.36238
LJ          -2.42531         3.81158        0.764796
LJ           1.58723        -2.24045         5.06143
LJ          -5.23254        -1.90095        -1.44349
LJ           2.43478        -4.29292         4.97043
LJ           6.00639        -5.27628        -3.92507
LJ           4.46715        -5.92855           6.105
