108
#Comment!
LJ           3.15008        -1.93011          5.6248
LJ           5.57486        -5.77946          0.3897
LJ           1.98418        -2.28892        0.517378
LJ          -1.82075        -2.97478         1.24137
LJ            4.1321         5.67401        -5.60139
LJ         -0.403558        -4.39701         0.32526
LJ          0.230973         2.79466         1.81721
LJ          -1.96092        -2.39011        -3.39701
LJ          -2.97367        -5.27975         3.17113
LJ           3.31998        -3.55084         5.28316
LJ         -0.758932         3.79602        -2.66398
LJ          -2.05662         5.69763         3.17558
LJ          -3.84341          2.2155        -1.27672
LJ          -5.17334          6.1535        -2.42152
LJ            4.4654        -3.15018         4.07802
LJ          -3.05055        -4.44288         1.18148
LJ          -5.25386         4.77142        -5.29908
LJ          -6.40672      -0.0159046         4.48262
LJ           2.67034         3.79985        0.890654
LJ           4.74108        -3.28512         4.75489
LJ         -0.234829        -1.34305        0.944408
LJ           2.70335       -0.188877       -0.285719
LJ         -0.839465          3.5785        -5.32386
LJ          -2.92795         1.35193       -0.770413
LJ           6.29171       -0.329488           -3.76
LJ           1.83917         5.69593        -5.89554
LJ           1.74649         2.16517         2.58982
LJ           5.66283         -4.5197         -1.6342
LJ          -4.14002        -5.72815         -1.8336
LJ           1.74908        -6.03131        0.659426
LJ           2.36793        -4.12626         5.90421
LJ          -5.48305        -3.79581         -2.6479
LJ           1.75807        -3.97934       -0.980632
LJ          0.871318       -0.515379        -5.91991
LJ           1.41313        0.652842        -5.41801
LJ          -6.22603        0.589563        -3.68219
LJ          -2.48405       -0.496581        -4.58041
LJ          -4.12202        -5.37279        -5.65058
LJ          -5.96814        -2.61181       -0.953521
LJ           -1.8387        -2.74907        0.473137
LJ            1.3927         2.36258        -5.06199
LJ          0.332157        -6.13079         3.52018
LJ          -4.33739        -4.08355        0.765642
LJ          -2.34973         1.15896        -2.91941
LJ          -4.71088        -2.60766          4.3122
LJ            -3.497         2.39901      -0.0635113
LJ          -1.94964        -6.07662         1.43053
LJ          0.228969        -5.23391         4.66418
LJ          -3.17801         6.23688        -4.12663
LJ           4.53687        -5.38027         1.74395
LJ         -0.777821        -4.67465         6.22319
LJ           3.99601         -6.4478        -6.42886
LJ           4.35792        -1.26799        -4.16447
LJ          -4.88872       -0.182908         5.89303
LJ          -6.05802         2.74423       -0.764967
LJ           2.77581        -2.93686        0.723563
LJ           5.12137        -4.80569         4.85062
LJ           -0.6423         2.29271        -1.00205
LJ           2.97901         3.56294         5.40639
LJ          -5.17994        -1.65469        -3.45565
LJ           5.06402         2.45748        -3.83072
LJ          -6.15079        -3.42279         4.20412
LJ           3.10336         1.68361        -5.80269
LJ          -4.75697        -1.64397       -0.710995
LJ            2.3433        0.616469        -1.38498
LJ         -0.605843         1.68428        -4.74699
LJ          -5.09932         4.06778         5.46707
LJ           -5.3979        -3.06371          5.7305
LJ          -3.19756         1.05348         3.72571
LJ          -1.98444       -0.378331        0.719103
LJ           2.44765         5.69146         4.42883
LJ            1.6335        -5.97797         1.43922
LJ           4.35681         4.34898       -0.931218
LJ          -5.41024         3.33117         5.71346
LJ          -3.18599         -4.3989         2.99467
LJ          -2.88561        -3.75752         5.76997
LJ         0.0299044         5.88983       -0.204735
LJ           1.50299        -2.10399        -1.03425
LJ           5.62047        -6.19921        -6.13145
LJ         -0.666825         5.40272        -3.54462
LJ           4.25145        0.128355        -1.22947
LJ            -6.271         2.04542         4.06198
LJ          0.485338        0.105166        -0.78643
LJ          -3.25062        -4.03123         1.17232
LJ           5.80065        -5.07616         3.52026
LJ         -0.971802        -3.35621        -2.65097
LJ          -3.91023         6.04851        0.397223
LJ           5.75528          5.4382        -1.55309
LJ          -5.37334         3.89667         1.45996
LJ          -1.92144         6.44881         -4.0242
LJ          -1.84385        -1.59352       -0.501843
LJ            5.8311          6.3962       -0.996367
LJ          -6.02901        -5.47668         1.40797
LJ          -5.06774          5.0383         4.13122
LJ          -3.61588        -5.74886         -4.4316
LJ          -3.43759         1.49099        -4.38932
LJ            2.7569        -5.95616        -3.13833
LJ           5.20106        -4.72399         5.54289
LJ          -3.34989        -3.39961        -3.42677
LJ          -3.99624         1.48681        -1.03579
LJ         -0.035278         1.46649        -4.77612
LJ          -1.15998        -3.75517        -0.72795
LJ           -4.5897         5.40087        -2.93471
LJ          0.479134         3.32694        -2.81776
LJ           1.06299        0.472247         5.76648
LJ           5.28855       0.0381293         6.03532
LJ           -5.6435        -3.90241         2.21995
LJ           4.57951        -5.85873         2.91059
