108
#Comment!
LJ          0.657156         3.85454        -2.49116
LJ           3.68984         5.22423         4.76569
LJ           5.22157         2.11774         3.78259
LJ         -0.379668        -2.30975        -5.52383
LJ           3.72888         4.47246         4.69241
LJ          -1.39382        -3.67881         4.24389
LJ          -6.01359        0.710824       -0.371562
LJ           4.33128        -3.31213        0.154315
LJ         -0.607638        -4.06284        -4.59174
LJ         -0.517081        -4.34743        -2.86937
LJ           3.86969         4.93475        -1.34831
LJ          -2.84765         5.93073         1.17111
LJ           -5.4444        -3.06595         3.28645
LJ          -2.58013         -6.3375         3.09746
LJ       -0.00974952        -1.11009         0.97862
LJ           1.32252         5.81626         1.82074
LJ          -3.53301        -1.35979        -6.06616
LJ           2.77353        -5.56328        -5.80831
LJ           3.02359        -3.77834      -0.0659051
LJ          0.895821        -2.02863        -5.01548
LJ           2.18753         1.17686         6.16724
LJ          -6.32844        -3.22791        -3.84263
LJ           3.03331        -2.84685         5.51781
LJ          -3.90998         4.75326        -4.78067
LJ           1.01289         4.53276        -4.27834
LJ          -2.23121        -2.82939        0.604662
LJ           -2.4007        -4.16532         3.49219
LJ           4.56936         3.39672         6.43323
LJ           4.96565        -1.09659        -1.56335
LJ          0.142444        -1.38429         -3.4789
LJ           3.37626        -4.62671         3.67752
LJ           1.75436         4.67374         5.83921
LJ          -1.51263         6.45227         5.12229
LJ          -4.75088         2.38152         1.18076
LJ           2.34282        -4.56826        -3.61349
LJ           3.53572       -0.826271        -4.31571
LJ          -1.99988       -0.404909       -0.814812
LJ           2.20715         5.52219        -5.17786
LJ          -4.86974         2.81737        -1.99813
LJ          -6.25726        -5.27984         3.76261
LJ          -5.35552        -1.22757       -0.123207
LJ           5.78981         6.39508        -4.91241
LJ           3.76242       -0.745132        -3.93069
LJ           2.38825         6.05902        -1.75026
LJ           6.02781        -4.78481         3.04471
LJ          -4.67319         5.49585        -5.49846
LJ          -4.81107        -5.56782       -0.328438
LJ          -2.30383         1.90004         6.04751
LJ           4.00263        -3.91433         5.62293
LJ          -1.11138        -3.26314        -5.49121
LJ           5.90131         2.57011       -0.295391
LJ          -4.61311         5.20483         3.54558
LJ          -3.51051         4.88767         3.20224
LJ          -3.54128        0.317108       0.0806869
LJ           2.19724       -0.894372        -1.61248
LJ            4.9336        -5.58719        -5.46253
LJ          -4.53444         -5.1316        -3.71199
LJ         -0.032408        -3.77359        0.173321
LJ          -5.97174         2.41385         4.94656
LJ          -3.17033         -4.3039         5.69837
LJ            2.0439         4.97929         5.37211
LJ          -5.56534        -5.21276         3.51208
LJ          -2.56567         2.34995        0.877517
LJ           1.45775        -4.48277        -3.02513
LJ           1.95676        0.839846        0.964167
LJ         -0.437041       -0.408598         4.43532
LJ          -5.57519        -5.55449         2.58193
LJ          -1.81369        -4.45664        -4.92414
LJ         -0.167432        -5.41827       -0.850698
LJ          -4.57784        -2.52411        -4.07931
LJ           1.04464         1.06275        -1.67845
LJ          -1.50349        -2.54676       0.0582701
LJ           2.59353         6.30269        -2.50815
LJ          -5.05826         5.59504         5.17637
LJ          -1.72565       -0.255558        -4.87695
LJ          -6.45994        -4.17606        -4.58032
LJ          0.713224       -0.519072        -2.25205
LJ         0.0641837         2.46964        0.483424
LJ           5.32285         3.86258         -4.2033
LJ           -4.4322         6.39957       -0.216458
LJ          -4.37499        -5.14708         3.17592
LJ           6.41116          2.4578        -6.43825
LJ        -0.0619569         2.65132        -0.65714
LJ          -1.11416        -4.34324        0.596599
LJ          -4.34466         4.59815        -5.86232
LJ           -3.1669         5.76783        -4.96494
LJ           5.55054         -4.2679        -3.75306
LJ           4.63315         1.32461         1.79509
LJ           2.15384         5.64997         6.29535
LJ          0.508179       -0.636395         5.17296
LJ          -4.18687        -5.45077        -5.23585
LJ          0.511239        -3.31618        0.668327
LJ           4.94801         1.25995        -5.95651
LJ           4.30618         4.93629        -4.43346
LJ           4.67303         4.83136         2.61835
LJ          -3.81305         2.46818        -4.18781
LJ          -5.74738         1.36519          3.6448
LJ           5.00697       -0.647104         2.73932
LJ          -2.87345       -0.475778        -1.23146
LJ           4.47628         6.01646       -0.462734
LJ           6.25096        -2.88172         1.95883
LJ           4.91014        -2.78402        -0.45488
LJ           1.75194         2.50855         4.54388
LJ            1.3925       -0.303058          4.4626
LJ          0.952482         1.32235        -4.49772
LJ           5.64374        0.253399        -6.09018
LJ            2.2604       -0.840339         5.50378
LJ           6.38156         4.30468        -4.22001
