108
#Comment!
LJ          -2.37198         5.35194        -5.86374
LJ           3.33394         3.07716         2.00448
LJ           1.91515       -0.477975         1.78521
LJ          -3.26267        -3.13777        -2.87731
LJ           2.60243        0.849105        -4.92679
LJ           5.58912        -6.14113         3.58951
LJ         -0.144931        -2.73862        0.837248
LJ           3.14588         2.53088        -2.65348
LJ            1.0763        0.266907         1.08742
LJ           1.74865           -3.81        -4.34997
LJ          -3.32223        -4.74987       -0.189394
LJ          -4.23867       -0.710832        -1.43755
LJ           6.24793         6.39897         -1.3194
LJ           2.35342         4.28453        -3.33649
LJ          -4.32797        -4.78659          3.6577
LJ          -3.77992        -2.38318       0.0186794
LJ           4.12508          4.0959         1.34627
LJ        -0.0420208        -1.86208       -0.906666
LJ           4.21439          6.0025        0.469779
LJ            1.9393         -2.7331         1.78457
LJ           2.78623        -3.41096      -0.0357175
LJ           -4.5687        -3.26621        -3.35238
LJ          -5.00227        -3.44175        -5.89672
LJ           5.79819        -2.73285        -3.55293
LJ          -3.47757        -4.11563       -0.278163
LJ         -0.473813        -5.93182         2.08621
LJ         -0.497749        -3.25775         1.74556
LJ          -3.05771         3.32082        -4.53437
LJ         -0.541326        0.999274        -6.17524
LJ          -5.11364        -3.39435        -4.08848
LJ           4.26587         3.56065         5.94903
LJ           4.93937         1.59302        -3.38301
LJ            1.3936         4.14553         3.93282
LJ          -3.97023         3.38081        -5.70485
LJ           5.05083        -1.50053         1.54133
LJ          0.774028           6.019       -0.900012
LJ           1.46969         3.76803         5.53082
LJ           -3.6953         4.43255         5.59937
LJ          -4.01699         2.73462        -3.88314
LJ           6.24357        -6.36751         3.27946
LJ           6.09426         3.07802      -0.0699245
LJ         -0.013407        -5.95849       -0.600389
LJ          0.924484         2.61132         2.15268
LJ           4.30247          6.1314       -0.250337
LJ          -5.97133         1.21865         4.47665
LJ            3.5698        -5.38367         2.41706
LJ           3.12667         6.06459        -5.55713
LJ           1.05942        -2.99851         3.17746
LJ         -0.988597        -1.79122       -0.816655
LJ           1.83471         4.11052         -1.1461
LJ           4.99401         3.16714         2.11628
LJ          -2.46949         5.19194        -2.16492
LJ           -4.1591        -5.88564      -0.0701846
LJ          -5.76963       -0.664598        -2.54538
LJ          -2.03283        -1.20166       0.0855314
LJ           1.61878       0.0528056       0.0362394
LJ           2.92904        -5.62194         1.18447
LJ           6.05182         4.45969         5.43617
LJ           4.34251       -0.612176        -4.88989
LJ           5.10023        -3.56331          4.7861
LJ           5.73917        -3.77524          6.3258
LJ          -3.66043        -4.31631         1.06279
LJ           5.65605        -4.95982         4.55918
LJ           2.65344          3.3418        -5.55051
LJ           1.17331         2.74088         -1.8777
LJ            5.4952         5.16904        -3.53728
LJ           0.81347        -3.58024         3.47219
LJ          -5.02378         2.65366          1.8034
LJ          -6.13391         6.01493        -5.16204
LJ          -2.09307         3.81015        -2.97686
LJ           2.84601        -6.24861         5.59165
LJ          0.510241        -1.66008         0.41167
LJ         0.0891739          3.0295         1.06476
LJ          -5.96018        -5.57639       -0.565039
LJ           4.44165         4.64703        -5.66125
LJ          -5.09305        -4.47904         2.22335
LJ         -0.668025        -2.76221         4.69579
LJ          -2.48172        -2.55904         4.45974
LJ          -4.45203        -5.40703        -3.48876
LJ           5.34385        -2.14948        -1.93452
LJ          -1.96705        -1.18906        0.809026
LJ          -4.99897       -0.530833        -2.76805
LJ          -5.89486         5.15786        -1.05807
LJ         -0.958954        -4.27739        -4.52334
LJ           2.13501        -2.39723        0.518189
LJ           4.33083        -5.00366         -4.6906
LJ            3.3042         2.60234       -0.718599
LJ          0.462262        -4.47329         4.48674
LJ          -2.25855         5.68216        -3.03249
LJ          -1.40039         4.39689        -2.02226
LJ          -1.48164        -4.29378        -3.14184
LJ           2.18251       -0.583309        -2.83351
LJ          -5.22061        -1.47102        -5.91388
LJ         -0.284988         6.38678       -0.107402
LJ           2.33991        -2.13269         4.37482
LJ          -1.10724        -3.65435        -6.12036
LJ          -2.99094         6.29884        -4.69548
LJ         -0.164006         0.95838        -3.22744
LJ           1.07139         5.29014        -1.26527
LJ          -5.37632         6.34948         6.06746
LJ           3.45919         3.60741         -5.4587
LJ           1.58082         3.62728         2.57973
LJ          -3.32252         3.06814        -2.26878
LJ          -5.41026         1.32031        -4.36484
LJ           5.26386         1.79705       -0.779841
LJ           3.40681        -5.32474        -3.45759
LJ           1.56369         0.91706         4.01427
LJ           3.68171        0.959722         5.22092
