108
#Comment!
LJ          0.342844        -3.15794        -4.06616
LJ          0.927333        -6.24138         1.48873
LJ           -3.3697         3.37423        -1.83474
LJ          -4.12465         5.34774       -0.481336
LJ           3.38406        -1.10828       -0.555746
LJ           2.56483        0.233398         4.41201
LJ           4.35696        -1.75854        -5.94226
LJ           4.96985        -6.14244         4.32441
LJ          -1.13465         6.31317        0.732596
LJ           5.16662        0.400174         4.25625
LJ           3.25536          -1.037          1.3265
LJ           5.08603         4.27586        -2.00559
LJ          -2.61827         5.05128        0.997935
LJ             3.338         1.66668        -1.03151
LJ          -5.95915        0.612508       -0.375275
LJ          -3.43079         2.34645        -1.42697
LJ          -1.33924        -1.11224        -5.69602
LJ           1.65195       0.0108106       0.0557486
LJ           4.62048         1.52252         5.09751
LJ          -3.26746         2.50225         3.60605
LJ          0.777666        -1.47493         6.40654
LJ           4.74915         4.91697        -4.44218
LJ           3.63491       -0.282231         4.37628
LJ           5.76168        -4.90772       -0.744975
LJ           4.72471         1.65905        -0.99268
LJ          -3.00144         6.24164         4.79522
LJ           0.32835      -0.0393135        -3.19161
LJ          -2.02101         6.29399         3.06333
LJ          -2.98742         6.26768         3.64682
LJ         -0.526877         2.33162         3.14442
LJ         -0.241121        -6.09176         4.65611
LJ           4.03022         0.59307          3.9312
LJ           2.95095       -0.581937         6.17061
LJ           3.36434         1.43222         4.75371
LJ           3.23049         0.11457         2.21398
LJ          -4.10207        0.162774        0.689982
LJ            1.9091        -3.56227         3.18756
LJ          -2.37025       -0.614382         1.83592
LJ           1.65914        -4.22329         2.21676
LJ           2.03266        -3.54153         1.44142
LJ           1.49876         1.77202         5.05238
LJ          0.760824        -5.23965         5.97939
LJ         -0.773921        0.505453         1.85727
LJ          -1.17004        -3.12847        -1.24198
LJ           2.98088         4.20632         2.49783
LJ           3.20917         1.60159        -5.38272
LJ           5.77968        -1.31967         1.71451
LJ           1.91382         3.52986         4.81269
LJ            5.6291        -0.52457        0.478201
LJ           2.72139       -0.319146        -2.16674
LJ           0.74651       0.0243572         3.41113
LJ         -0.139764         5.25944        -5.76914
LJ          0.574948         6.11066        -6.44475
LJ          -2.33263       -0.421382        -2.67915
LJ          -4.72302        0.554851         1.67576
LJ           1.70877         2.20415        0.706883
LJ           4.84442         4.41245        -3.25283
LJ          -6.07995        -4.84491        0.122179
LJ         -0.326736        -1.59236         2.91211
LJ          -5.18598        0.601908         2.63757
LJ            5.1993        0.787091        0.192538
LJ            4.3776        0.553004         6.06995
LJ          -3.76244         5.48354         2.22516
LJ          -2.94499          1.4186        0.277339
LJ          -2.28807        -1.02745        0.384258
LJ        -0.0810263      -0.0112411         1.34371
LJ             4.316         -1.5249        -2.12454
LJ          -1.08337        -0.68464         3.26338
LJ           3.99721         1.48537        0.210408
LJ            4.4122         5.53051       -0.646163
LJ           2.28608         -0.5693        -1.16029
LJ           4.26561        -1.54488          1.3035
LJ          -1.32908        -4.69955       -0.134753
LJ           1.65897         0.18641         2.03843
LJ           2.87246         4.61596         5.95377
LJ          -6.12993        -3.93968         3.97982
LJ          -2.92979        -1.69257       -0.177779
LJ         -0.599222       -0.942534          1.9598
LJ           2.78863         6.34472         4.01952
LJ           5.80412         6.14856         6.15705
LJ           2.95134         3.36901         5.71016
LJ        0.00980003        -1.17145         1.12142
LJ          -2.07339        -2.92802         0.14197
LJ         0.0430076        -3.00833        -1.82865
LJ          -5.79833         3.95757         3.08969
LJ          -3.28432         0.24535         1.59289
LJ          -3.43278       -0.788257        -5.70016
LJ           -3.5285         2.61448        -4.74318
LJ          -1.49507         1.36556         2.67214
LJ          -2.61602       -0.217884         3.06057
LJ          -2.31687        0.704145        0.767621
LJ         -0.440215          1.0448         2.93349
LJ          -1.52818        -4.01753         6.13382
LJ          -5.17866        -5.75532        -4.63238
LJ         -0.756564        -4.84479        -1.15622
LJ           4.06215        -2.68337         2.47258
LJ          -5.90194        0.687844         1.88772
LJ          -4.12775         1.44952         1.70022
LJ          -1.60655         3.39468         3.48283
LJ          -6.38255         3.39849        -1.92113
LJ          -2.27315          1.5862         1.84701
LJ          -2.49781        0.265249         4.05207
LJ           5.88264         4.76995        -5.26944
LJ          -4.42456        -1.15832          1.0869
LJ           -1.1564        0.117731        0.112599
LJ          -2.79199        -1.61219         2.52765
LJ         -0.704705        -3.15715         5.47929
LJ        -0.0327676        0.511766         4.08502
