108
#Comment!
LJ          -1.15887         3.63463        -6.13735
LJ         -0.689216        -1.19121         5.79021
LJ            5.8983        -5.41085         3.61338
LJ           5.38587         3.89301       -0.502065
LJ          -2.20623        -2.25213       -0.197205
LJ          -2.10765        0.856037         1.00536
LJ         0.0365016        -5.97133        -6.17171
LJ           3.96459        -5.11876         5.88961
LJ         -0.579354        -4.01989        -1.40936
LJ          -1.88344         3.74923         2.84623
LJ         -0.190024        0.191458        -5.54053
LJ           4.76703       -0.795896        -1.82944
LJ         -0.650703         4.80057         5.55064
LJ           1.08351         3.38734       -0.467362
LJ           4.69492        -1.66973         2.04986
LJ         -0.585725        -6.19668        -1.07585
LJ          -4.65606         -2.9163         4.55126
LJ          -4.22261        -3.40121        0.608213
LJ          -3.63716         -4.9505       0.0721552
LJ          -1.16237         3.41446        -1.48381
LJ           -6.0868        -6.46094       -0.993638
LJ          -2.89958          6.3559         3.03971
LJ           6.41222        -5.43152       -0.468847
LJ           4.32755          1.5429         1.41532
LJ           6.38118        0.945257       0.0510171
LJ          -5.01328        -1.10374        -3.78461
LJ           1.65322        -4.46412        0.758231
LJ           1.59826         -4.6587         1.56205
LJ           3.24244          4.7357       -0.734701
LJ           5.44772         6.16758         6.09351
LJ          -4.68474        -3.13676         3.89755
LJ          -3.99604         5.68746         4.35417
LJ          -4.13046        -1.44943        -2.39287
LJ            4.5699        -6.22533        -1.08976
LJ           3.30672         2.68713         0.37397
LJ          -5.16391        -5.40254         3.61004
LJ          -2.95822        -3.18364        -1.89214
LJ            2.7598         -2.0312        -2.94184
LJ           3.18431       -0.926259          4.6435
LJ            4.9427        -1.21681        -2.65287
LJ           1.48476         3.47541         4.38825
LJ           2.84494        -2.48232        -1.86905
LJ          -2.23736        -5.34335        -6.02216
LJ         -0.321289         2.91417          6.3734
LJ          0.854706        -4.01397         4.12655
LJ         -0.279204          5.9998         4.82123
LJ          0.340071        -6.05648        -3.73372
LJ           5.15776        -2.25374        -4.72161
LJ          -4.09035        -2.51976         5.05019
LJ           6.33543        -2.61857        0.449067
LJ           3.63603         3.76154        -4.02089
LJ          -6.35337       -0.626546        0.678749
LJ         -0.200509        0.552803        -5.19515
LJ          -3.69463         -1.4514        0.670324
LJ          0.920762       -0.353134        -3.04552
LJ          -0.26137         5.68364         3.49559
LJ          -3.02644         1.96844         5.49116
LJ           6.35689        -3.25822        -0.78449
LJ           6.21954         3.40157        -2.91155
LJ          -1.44054         3.15864           2.231
LJ          -5.54266        -3.99965        -4.87717
LJ          -3.19595        -2.94528        -5.69048
LJ         -0.107228         -2.7593        0.385177
LJ          -2.08597         -1.5269         -4.3213
LJ           -5.9955        -5.57408        0.197494
LJ         -0.346828        -3.11483        -6.27977
LJ           3.60959         2.33647         4.85404
LJ           5.75998        -2.16676       -0.124077
LJ          -2.01092         2.90575        -5.85435
LJ           2.93184         5.73818         6.43598
LJ          -5.45141        -2.74619        -5.76391
LJ           1.40567         5.92916         5.01198
LJ           4.44127        0.984629         4.70177
LJ          -3.23349        -6.40725        -3.54153
LJ           1.59879        -3.62641         4.62948
LJ           1.55527        -5.03512        0.786542
LJ          -5.97259         -3.8278         1.09082
LJ          -1.25226          2.4195          5.2457
LJ           2.83436         -6.2383         -4.1516
LJ           5.05952        0.987442         1.59816
LJ          -1.60906         3.94451       -0.340689
LJ          -2.11374        -3.79803        -4.39935
LJ           -2.2655         -2.9588         -3.8048
LJ        -0.0308499       -0.901132        0.596316
LJ          -3.15769         6.41275         6.37777
LJ         -0.349833       0.0816235        -1.88715
LJ         -0.977301       -0.638291        -4.83066
LJ           2.94398         3.34514       -0.631643
LJ          0.378865         3.30829         2.11527
LJ          -2.79898        0.594407        -6.31165
LJ          -5.54279        -1.77952         2.89559
LJ          -2.23734         3.74087         -4.0026
LJ          -1.78076        -4.52804          -3.254
LJ           1.28117         3.64674        -5.39668
LJ          -2.67813        -3.90891         6.17681
LJ           4.89649        -6.33048        -4.94078
LJ            3.9179         5.23256        -3.44191
LJ           2.99117        -4.40092         4.29225
LJ           1.42976         5.65003        -6.05265
LJ          -6.27212         -1.6868        -3.90614
LJ          -3.43749         1.59687         3.65958
LJ           1.39824        -3.29654          5.4601
LJ            4.6972        -0.31568       -0.839613
LJ          0.437865         4.68522         2.12293
LJ           4.28501         3.28376         4.60144
LJ           2.02116         4.05496         4.57269
LJ          -3.82739         6.19079         4.00638
LJ          0.598005        -5.50459        -1.04519
