108
#Comment!
LJ           4.30934        0.772259         2.26391
LJ           2.76576         3.25079         1.98021
LJ         -0.736031           1.978        -2.48511
LJ          0.567325         1.91224        -5.51455
LJ            4.3603         6.04649        -1.63687
LJ         -0.075725        -1.05749        -5.47231
LJ          -1.09456         1.15465        -4.67059
LJ          -4.92696        -3.85937        -5.64591
LJ          -3.17316        -3.14239        -3.39907
LJ           5.95323       -0.158348        -5.09002
LJ           1.78624        -4.74811        0.192234
LJ           4.21851        -2.11776       0.0623553
LJ           1.97877        -4.01164        -2.88646
LJ          -0.43473        -0.93516        -2.40098
LJ          0.989579        -5.16906         1.86654
LJ          -6.41079        -1.12071        -4.75768
LJ          -0.75403        -2.40205        -3.23112
LJ          -5.44713         3.11145         3.84619
LJ          -5.24293        -1.83606         -2.4516
LJ          -2.82007        -1.89003        -5.90433
LJ           1.54126        -2.25116        -1.91071
LJ           3.70698        -1.04064         3.76103
LJ          -3.76424        -3.47566     -0.00985213
LJ          -5.37732         5.59306        0.192895
LJ          0.770675        -5.32172        -4.51258
LJ           -1.9488         6.46245         1.66516
LJ          -4.69783         5.40097         3.41273
LJ           3.59089          3.9749         -1.0235
LJ          0.190639         4.77021         3.17604
LJ          0.552521        -6.09239        -1.54279
LJ           1.87352         4.77277         3.52598
LJ          0.425838         2.33474        -6.45157
LJ          -4.82693       -0.710483        -2.64816
LJ          -1.46897        -1.02805          2.1961
LJ          -1.11994        -4.50548         2.94971
LJ           5.53896       -0.391049         2.08449
LJ           6.09605        0.616087        -4.36929
LJ          -2.54343         4.13889        -4.93758
LJ           -3.7556        -5.32729        -3.45079
LJ          0.549181         2.62206       -0.328976
LJ          -3.11403        -6.11396      -0.0448974
LJ           1.48341         5.60396        -1.32639
LJ          -2.90863         2.56804        -1.14606
LJ          -1.35347         -1.7047         6.28828
LJ           -2.7449         5.86969         5.87102
LJ          -1.61306        -3.96009        -4.04902
LJ           0.51904         3.19795         1.01286
LJ           2.55518          2.8039          3.6945
LJ         -0.611722         3.04138        0.926688
LJ           4.64137        -4.37366         1.45544
LJ           2.82435         6.20034        0.886639
LJ           2.82317         1.99844         -4.5666
LJ          -1.57713         4.18199        -1.87141
LJ           3.88843         5.79048         4.60777
LJ          -5.08913        -5.65115         1.18696
LJ           5.40015        -2.26365         6.16095
LJ          -1.65752         1.02507         1.98912
LJ          -0.08506          4.1811         2.18664
LJ           1.95334        0.767188         6.07071
LJ          -5.71759        -2.17758        0.877304
LJ           6.00478         5.96229         6.45921
LJ          -5.38056         6.37284         3.81223
LJ           -4.7854        -4.04129       -0.454534
LJ            5.3855        -5.54225        -0.49503
LJ          -1.01816         3.74992        -3.47508
LJ          -6.26753         2.56781         6.23979
LJ           3.73467          2.2846         3.68125
LJ           1.11358         3.42639        -1.68474
LJ          -2.15496         3.82152        0.690339
LJ           4.10396        -2.62927         3.58279
LJ            4.5081         -4.3131        -2.42223
LJ          -5.99968        0.473634        -2.04046
LJ          -4.60436        -5.26358         2.60324
LJ          -4.15134         3.84972         -0.3832
LJ          -1.60999          2.1926         -3.8516
LJ          -2.83142         5.19569         4.77975
LJ           4.93268        -5.71129         5.87002
LJ          -1.83884        -3.64027       -0.674226
LJ           5.06572        0.560072         -3.7899
LJ           -2.4783        -4.66646        -1.68847
LJ           2.97794         1.68766         3.97209
LJ            4.3162         1.39262        -3.74157
LJ             3.263        -1.61527       -0.779659
LJ          -3.51967        -4.94024        0.673521
LJ          -3.16727        -3.86813        -2.13799
LJ          -1.91234         -5.6478         5.91749
LJ           6.37477         -3.1221         5.84315
LJ          -2.49441        -2.96829      -0.0579988
LJ          -1.97304        0.751184         -0.9759
LJ         -0.182993       -0.639908          5.0989
LJ          -3.39505          2.8336          1.5871
LJ          -5.62189       -0.689136        -5.56478
LJ          -3.10791         3.76795        -6.02149
LJ           4.14321        -3.64539        -5.53197
LJ         -0.366985         2.20864        -1.55537
LJ            5.4226         1.96427         3.85251
LJ           4.33095        -3.43343        -3.21022
LJ            5.8267        -1.86621        -5.50557
LJ         -0.117559         6.19607         3.08054
LJ          0.565571        -5.69855         4.22662
LJ          -5.86982        -1.33505        -1.73014
LJ          -6.38836       -0.521755        0.180737
LJ          -5.07418         -3.8152        -4.08304
LJ           3.73372         0.97715         3.47808
LJ          -3.78977        0.751401        -3.61614
LJ           4.29584        0.399381        -4.59304
LJ           3.17747         1.56247         5.54272
LJ          -3.32769         3.82315         5.77528
