108
#Comment!
LJ         -0.480903         1.37312        -3.95985
LJ          -4.56057         6.14799         4.91199
LJ           6.19886         4.68034        -6.10534
LJ          -4.97602         3.54312         3.49265
LJ           6.46329         3.68404         4.74758
LJ          -3.40558         4.41391        -2.08442
LJ           5.47803        0.250062        -2.27349
LJ           -3.9886        -2.10074        -1.71343
LJ            2.6617      -0.0364624        -3.55489
LJ         -0.611511        -2.31923        -3.18185
LJ           1.30213        -5.36969        -5.75835
LJ           5.70392         -1.2338         4.27993
LJ          -4.38579        -5.24726       -0.691549
LJ           1.32008          1.7351        -1.88455
LJ           4.27755        -2.85216         4.97783
LJ          -5.70544        -3.77272        -4.64581
LJ           3.84537        -6.37664         5.41031
LJ          -2.45677         4.41399         3.67764
LJ           3.15049         1.32546         1.05618
LJ           2.31051         -6.0317         1.67409
LJ        -0.0936332         4.67912         2.69374
LJ          0.165358        -4.39206         2.28343
LJ           5.47108         6.00096         6.01798
LJ          -4.57959         5.16745       -0.909822
LJ           -5.3167         1.49252        0.630455
LJ         -0.780129        -4.69787        -3.60808
LJ          -4.26446        -2.28461        0.266738
LJ           4.01377        -6.05678        -1.09559
LJ          -2.03637        -2.87646         4.01993
LJ          -6.01583         -6.4233         2.95248
LJ           2.35652          3.1688        0.949279
LJ          -4.82874        0.515793        -1.07009
LJ          -4.64981         1.26508         -4.3743
LJ          -3.11661        -1.80783        -5.20315
LJ           2.66879        -4.92176        -6.17369
LJ           4.72122        -4.09672        -2.09406
LJ           2.27984        -5.10338         3.76647
LJ          -5.00274        -5.22657        -3.57435
LJ          -2.93242         3.11093        -5.08949
LJ            3.7909         4.88483        -3.19874
LJ          -6.21117          0.1792        -3.87353
LJ           1.03502        0.682653        -6.28757
LJ          -5.75512        -1.09806        -1.02697
LJ           1.09799         5.06231         5.60696
LJ          -5.01919        -3.08152        -3.71584
LJ          -2.03757          1.4218         5.05899
LJ          -4.86471         -3.3293         6.04464
LJ          -4.21111         5.86694         3.37154
LJ           1.95395         4.52957         4.11336
LJ          0.297406        -6.27233        0.148736
LJ          -1.47912         3.19743        0.598401
LJ           2.73669         2.75159        -2.03696
LJ           5.17456         1.08928         3.94408
LJ           6.11726        -5.58753          1.8127
LJ           4.32955         5.49661         5.95484
LJ           5.47341         4.22308        -6.45602
LJ          -5.86708         6.42203        0.491878
LJ           5.24049         1.91287         4.67889
LJ           2.02679        -4.07124         5.02721
LJ           5.54155         0.71803         2.54799
LJ          -5.42148        -3.15077        -2.17048
LJ           1.33428        -1.24656         4.15893
LJ           4.76743         3.61577         2.06434
LJ          -1.92554        -2.53502       -0.961882
LJ           3.28529         4.09183         4.40113
LJ           3.70828         5.23312         1.62623
LJ          0.358397         -6.4301         4.20065
LJ            2.3059         5.86375        -2.81773
LJ         -0.728799         2.96992         3.64256
LJ          -4.20154         -1.6217         0.40391
LJ          -5.19288        -5.67838         3.12915
LJ          -3.94509        -1.92776          1.0726
LJ           6.33595         2.78177        -4.80745
LJ          -1.50264       -0.987636        -2.17049
LJ          -3.79876        -4.96445       -0.810824
LJ          -1.30866        -3.42049        -1.43554
LJ          -2.62973         2.01498        -3.35456
LJ           1.18223         3.39129         4.47922
LJ          0.137909         3.77837         6.03296
LJ           5.10626       -0.890657         -4.9923
LJ           3.98313         2.70673         -2.3654
LJ          -3.32084         1.81686        -4.84543
LJ           4.60182         2.32102         5.77958
LJ           5.29069        -3.21262         4.70405
LJ         -0.814054        -1.35553        -1.62127
LJ           1.66247         3.32076        -1.97769
LJ          -5.42571        0.711061         3.98936
LJ          -6.22489        -4.42327        -4.14518
LJ           1.74222        0.483608         5.44066
LJ          -6.32112        -4.66758         0.43331
LJ         -0.870398         2.39243          4.1216
LJ          -4.09245        -2.16643        -2.96828
LJ           3.31376       -0.737761        -6.41013
LJ           -1.9579         2.54628          5.4706
LJ          -4.77662          -5.268         4.43949
LJ          0.177767         5.01312         4.26093
LJ           2.66155         4.37175         4.42326
LJ          -2.69804         0.38062         3.95226
LJ          -3.97238        -4.82915        -1.80577
LJ          -4.66172         4.14856         -1.0249
LJ           2.41052        -2.02503         5.99416
LJ          -5.04364         2.90553        -3.34845
LJ          -1.36051        -1.23117         4.09927
LJ           4.04002         0.39989         1.81186
LJ          0.390699         1.06383        0.107802
LJ           6.13709        -5.36623         5.25735
LJ           1.23208         1.74054         4.34344
LJ          -4.55626        -4.09192        -0.93788
