108
#Comment!
LJ         -0.585255         3.00923         -2.9733
LJ          -5.27972         3.85065         1.83071
LJ           2.57251           0.437         5.25761
LJ          -4.87528         2.98738        -1.36299
LJ            4.1207         3.21462        -4.17105
LJ          -5.81624        -1.27179        -2.06246
LJ           3.55136        -3.71836         4.41506
LJ         -0.834091         1.65509         4.08299
LJ           5.29552         2.13919        -5.19352
LJ           4.65911        -1.54632        -3.76149
LJ           2.55982      -0.0399398         2.57831
LJ           1.46217         2.61563         6.10508
LJ          -3.52502        -6.40083         3.90006
LJ           2.18446        -1.48104        -1.13627
LJ           2.72344         4.61131         2.12946
LJ           1.31942         5.39191        -2.35905
LJ          -2.60892         3.57993        -2.99941
LJ          -6.32866        -6.36228         5.63728
LJ          0.411207        -3.62826        -2.62511
LJ           2.01853        -1.11357          5.5246
LJ           -2.3032         2.01612        -3.19651
LJ           4.79092        -5.05869         -4.6055
LJ           -2.4601          6.2825       -0.457895
LJ           3.51654        -2.43685        -1.03727
LJ          -4.27388        -1.65485        -1.88515
LJ          -6.11633        0.553098         1.66504
LJ          -4.75414        -3.34362         2.66577
LJ           0.84913        -5.62483        -5.48529
LJ          -2.72168         5.94379         6.21319
LJ           3.81551        -3.28623        -1.24193
LJ            1.5847         4.00323        -3.06571
LJ          -1.80725        -1.71819         2.16454
LJ          -2.47107        -2.60843      -0.0417986
LJ           2.84287        -3.11936         4.43959
LJ          -2.40909        -1.74557        -6.32605
LJ           5.15467        -3.76481        -3.06825
LJ          0.574274         5.85397          2.3589
LJ          -1.94003        -4.59513         1.38695
LJ           5.95758         -3.5332         1.56334
LJ           4.49327        -2.16492        -0.85476
LJ          0.384951        -1.10981        -2.42438
LJ           0.29889        0.753601        -3.79754
LJ          -6.34917         5.00157         1.25936
LJ           4.63065         2.75721         0.54617
LJ         -0.164902        -3.86534        -3.23297
LJ          -1.96539         4.55525         2.63024
LJ          -5.73196        -3.73187         2.69599
LJ         -0.908038        -5.34545        -4.59322
LJ          0.599608         4.22443         -3.2221
LJ          -4.01004         4.78925         4.67636
LJ          -0.77361         5.56415         5.84659
LJ           1.99442        -3.34648         4.49245
LJ           5.97379         2.42696       -0.436709
LJ            2.4476        -5.38296         5.12588
LJ          -6.13103        -6.32467       -0.395396
LJ          -5.02106         5.07391         4.98289
LJ        -0.0508872        -4.29355         3.35749
LJ           1.05393        -5.29155         0.81498
LJ           1.88803         1.85394         1.21136
LJ           2.74169         5.67434         1.71994
LJ          -2.19232        -4.37082         -2.5903
LJ         -0.107013       -0.858066        0.379973
LJ           4.38018        -5.93289        -6.29829
LJ           3.39344        0.522922         -2.4912
LJ           -5.6065        -2.95327         4.36178
LJ           4.91624        -1.33456        -1.07616
LJ          -1.55926        0.557266         6.20468
LJ           6.15278        -3.08596         3.63574
LJ          -1.42183        -6.09893        -4.46099
LJ            5.6707        0.622815         3.99275
LJ          -3.00142          5.4988         1.87475
LJ           5.39348          6.3459         3.36099
LJ          -3.29029        -2.73636        -3.91044
LJ          -1.21014         2.58944       -0.618105
LJ          -4.88087       -0.123707        -1.22586
LJ          -2.00525        -5.25161         4.82011
LJ           1.06419         2.74477        -2.09593
LJ          -1.40853        -1.10195        -3.37478
LJ           4.61331         2.06447         5.84573
LJ          -1.84961         2.66578         5.31112
LJ           -3.9087         -4.7052        -2.89416
LJ          -3.78451        -1.11069        -4.75109
LJ          -1.75715        -3.20927       0.0680923
LJ           4.13048         5.03565        -2.68433
LJ           3.44725         4.29741       -0.145522
LJ           1.16594         3.25567         1.72704
LJ           3.27907          -4.362         2.49745
LJ           5.02035         1.82591         4.87602
LJ           6.00912        -1.64341        0.807658
LJ           4.58224        -5.41396         2.25262
LJ          -4.26842         5.27884        -4.94006
LJ           1.93617        -3.26936         3.51677
LJ            2.7983         5.97111        0.293633
LJ           2.88862         1.17677         6.24975
LJ          0.642117        -5.82632        -1.48879
LJ          -5.46616        0.945598        -2.59293
LJ           6.33583         2.61574         -2.4477
LJ           4.82987        -6.10921         -1.7192
LJ           2.52363         2.48734        -2.51453
LJ           2.32019         6.07588         1.26998
LJ          -2.02875          2.3117        -5.90338
LJ           3.52586        -2.26168        0.471987
LJ          0.671578        -6.09134        -3.24279
LJ           4.55052        -2.51248        -3.29937
LJ           5.95391        -3.15832         3.55993
LJ           -1.8282         5.65564       -0.561709
LJ           4.31903           3.557         3.92193
LJ          0.976799         5.08864         2.44458
