108
#Comment!
LJ           2.38665        -5.53976         5.31356
LJ          -3.93625         5.66338        -2.15285
LJ          0.344871         6.05113        -1.64254
LJ          -1.38547          4.8394         2.56794
LJ          -1.29202         3.81021        -2.07179
LJ           3.59694        -1.91849         6.37638
LJ           5.80723        -3.32524        -3.19212
LJ           3.23621        -1.67418        -4.06339
LJ           5.78491       -0.201635          5.3056
LJ          -4.67299         -4.1759         3.10692
LJ           4.70079         6.07007        -2.54986
LJ          0.912548        -4.35316         -5.0468
LJ          -5.98538        -2.67702        -3.46024
LJ          -1.38513         5.39436        -5.12731
LJ         -0.363727         5.49282        -5.36812
LJ           3.77317         2.02263        -1.72531
LJ           1.50989         1.34172         4.25672
LJ           1.15767        -6.28136         4.01559
LJ          -5.31172        -5.89545         3.41106
LJ           3.15815       -0.894042         1.25163
LJ           5.07669        -3.46871        -5.88548
LJ        -0.0281699        -1.11034       -0.452034
LJ          -3.65058         1.89984         1.22435
LJ          -2.46508        0.564313        -2.86498
LJ           2.20935         5.47545        -4.78119
LJ          -1.31243         4.78847         5.62945
LJ          -4.09727         5.90825         -1.0931
LJ          -2.74281        -5.28635       -0.624828
LJ          -2.05897         3.49591         4.71253
LJ           0.25649        -3.99412         5.00721
LJ           6.25538        -5.27932        -6.27583
LJ          -5.75186         5.37666         -1.8503
LJ          -1.60739       -0.252738         2.86788
LJ          -2.38379        -1.49911         6.33334
LJ          -1.03916         4.29117         -5.1265
LJ           1.75365       -0.350275        -1.07926
LJ           -3.6758         -1.6303         4.35687
LJ            -3.109         6.18513         1.83093
LJ           3.33893        0.281745         4.00052
LJ          -3.40087        0.278191         3.06669
LJ          -2.33186       -0.855781         6.02336
LJ          0.411391        -5.51783         5.42984
LJ           1.33116        -3.88906        -5.44016
LJ           1.98351       -0.867418         2.83435
LJ          0.468417        -1.19047         4.83397
LJ           5.20793        -1.67055         3.86907
LJ          -2.60153         2.29116        -4.12607
LJ          -3.26113        -5.70587         -1.0418
LJ          -1.23811       -0.910303         4.07833
LJ          -4.04381         -4.6006        -1.65525
LJ           3.44997         1.74241        -2.47393
LJ         -0.718797        0.324378         3.68104
LJ           1.38346       -0.963441         1.33506
LJ          -2.36005        -5.82253        -4.44732
LJ          0.245652        -4.07418         4.43568
LJ          -6.15287        -2.18676        0.371891
LJ           3.08539         1.75188       -0.655491
LJ          -2.61533        0.573473         -4.3595
LJ          -5.57388        -3.46236         -2.0869
LJ            -2.515        -3.47627        -6.39373
LJ           -2.7365        -4.52213        -4.07933
LJ          -2.74846          2.9284         6.33954
LJ          -3.37006        -4.91499        -1.51599
LJ           4.01032       0.0652236         5.19571
LJ          -5.10064         3.66292        -5.46909
LJ           3.99833        -1.54852         4.38365
LJ         -0.950465          6.2228        -5.94984
LJ          -5.91389         3.38027        -4.97408
LJ           5.82433        -4.61902         1.47816
LJ          -2.52549         1.93081        -2.85753
LJ          -5.92493         4.55286         2.10396
LJ          -5.41807         4.80134         4.05094
LJ           4.03456        0.869787        -1.30359
LJ           4.31263         3.05634        -2.94363
LJ           4.06553         3.83193          3.6705
LJ          0.937661         4.24794         5.11174
LJ          0.372292        -6.45517         5.69362
LJ           4.13295        -5.89107        -2.27715
LJ          0.506667         1.01953       -0.834514
LJ          0.808552         6.19153        -2.66025
LJ           4.39998       -0.380485        -2.46966
LJ            2.4644        -2.16591          1.9988
LJ           4.45116        -6.15055         4.97973
LJ        -0.0105373       -0.765833         2.27245
LJ          0.863945         4.57447        -3.19582
LJ          -6.22118         3.34166         1.45805
LJ           5.55032        -5.05669        -1.77256
LJ          -3.93325        -4.26993         2.81849
LJ           5.39259         2.18476        -3.13725
LJ         -0.705841      -0.0712862        -3.10008
LJ           3.45742        0.924323        0.092029
LJ          -2.14966         2.47186        -3.97935
LJ           1.19457        -4.51978        -4.57153
LJ          -1.56063         4.77243         2.68481
LJ           1.84521       -0.187546        -3.67093
LJ          0.736872        -5.10587         5.19442
LJ            2.6625        -1.61755        -3.50238
LJ          -3.80835        -3.33498        -1.05299
LJ          -2.97679         2.23953        -1.69206
LJ          -4.46646          2.6242        -4.34414
LJ         -0.425008        -2.38687         6.17455
LJ           6.19564        -2.74666         6.44343
LJ          -4.68573         3.69206       -0.562341
LJ          0.439476         -2.6614        -5.19805
LJ         -0.681722        -1.94429       0.0181307
LJ           -4.2399       -0.345978         4.69724
LJ           6.22598         4.90832         2.38754
LJ           2.22621        -5.42845         1.24559
