108
#Comment!
LJ           1.71042        -4.70541        -4.51032
LJ           4.48019         3.41625       -0.970267
LJ          -2.41377        0.335014        -4.04865
LJ           5.69893        -3.00927          4.4582
LJ           4.35014         -3.1808        0.848098
LJ         -0.126902       -0.260012        0.239708
LJ           5.60424        -2.55383         -3.4192
LJ         -0.616943          1.1533         4.16925
LJ           4.91416         -3.5687         4.00381
LJ           5.69687         1.10922        0.194766
LJ           0.18922         6.32513        -4.97848
LJ           5.91271         3.85154        -5.85351
LJ           5.54712        -2.55013        -5.51439
LJ          -3.71697         5.80615         2.26516
LJ          -3.20321       -0.426541         1.11771
LJ           1.18967        -5.39071          3.3617
LJ          -1.44869         5.11931         2.14266
LJ          -3.97559        -0.82212         5.60798
LJ           5.29251         4.03346         2.71823
LJ           2.71679        -4.32857         3.46587
LJ         -0.661879        0.580113         5.46788
LJ          -2.17546          2.5845        -3.71343
LJ          -4.63373        0.211779         6.08523
LJ          -6.08469         1.35163         1.46291
LJ          -5.30786        -5.99165        -5.77794
LJ          0.909374        -5.51203         4.50769
LJ           5.09245         -4.5155        -1.70578
LJ           2.08229        -2.61605        -2.96027
LJ           5.79942       -0.043812        -5.59901
LJ          -1.58582        -3.52146        -4.04941
LJ          -2.95607        -4.11358         4.11801
LJ          -0.74764        -1.71482         5.59481
LJ           2.25318         1.54316         1.10542
LJ           5.39356        -6.02564        -3.82244
LJ          -3.75121        -2.46464         4.02802
LJ           5.04226        -3.56474         3.65442
LJ           5.13688        -4.78849         1.50337
LJ           -3.3742        -6.39445         3.45116
LJ           3.24412       -0.455019        0.099446
LJ           2.97949         1.19866        -2.42248
LJ           1.91008        -4.46713       -0.822956
LJ           3.59819        -5.49985        -2.64808
LJ           2.82041        -4.69896        -1.28371
LJ           2.88678        -4.48304         2.26173
LJ          -4.35117        -5.90513        -3.57849
LJ          -3.88376          4.5251       -0.891348
LJ           5.81879        -2.33821         3.83453
LJ          -3.46124        -5.84375         4.52856
LJ           4.88442         4.19226         2.67388
LJ          -1.74988        -6.19108         4.78132
LJ            1.0221         3.87254        -1.05251
LJ           1.60275         2.50588       -0.216255
LJ          -3.27762        -3.27122        -4.89916
LJ           2.06684        -4.71862        -4.50546
LJ         -0.508736        -4.26003        -5.71242
LJ           4.04362        -6.41545       -0.493601
LJ           1.11391        -6.11168         2.52467
LJ          0.908336        -1.42764         6.28461
LJ          0.356602         4.19903          3.8069
LJ           2.96438        0.452647       -0.382708
LJ           4.86473        -5.17685        -1.98604
LJ          -5.35114          4.5926        -4.06219
LJ           4.28408        0.147332        -5.93162
LJ           2.14497        -5.86008        0.586538
LJ          -5.92879         3.22871         3.10336
LJ          -5.69653         6.00069       0.0994096
LJ           3.69609       -0.720001       -0.720336
LJ         -0.371624       0.0431867         2.94127
LJ          -4.79425         2.85524        -5.64593
LJ            5.3379        -5.30385         2.20582
LJ         -0.549123        -2.35807         -5.2521
LJ          -5.16314         3.95264       -0.151677
LJ           2.64235         1.10806         6.32511
LJ         -0.113878        -2.14817         4.96192
LJ          0.984152         2.19692        -3.31176
LJ           1.05875         5.14939        -6.19138
LJ           2.90587        -5.87943        -0.66935
LJ           4.38785        -5.24579        -6.43853
LJ          -1.73459         6.22778        -3.53387
LJ          -4.04298       -0.954709        0.621333
LJ           1.61302         4.84972         3.17938
LJ          -3.67051         1.06206        0.590717
LJ          -2.24113         -1.0584         4.01099
LJ           3.25542          1.6966        -2.39562
LJ          -3.30141         5.41512        -1.83713
LJ           -2.0872         3.48091       -0.978372
LJ           1.70092             1.7        -3.99209
LJ          0.482235        -1.22201         1.39442
LJ           4.51898         1.00459        -4.51957
LJ           2.53428         3.01092        -4.10684
LJ         -0.634783         4.12689         -4.4684
LJ           0.34613         -3.7675       -0.919998
LJ          0.978379         2.37499         5.99582
LJ          0.541485         2.96216        -4.52809
LJ          -5.97999        -3.60472         3.06075
LJ          -2.62187       -0.232139        -3.11707
LJ          -2.18364      -0.0478355         2.73472
LJ           4.56723         3.52954        -3.00057
LJ           5.81764         2.67555          2.4539
LJ           5.10989         2.90528        -2.11234
LJ           2.83853        -3.92405         6.11283
LJ           -3.3864         4.88894        -5.98175
LJ           1.22476         -6.4596         1.38763
LJ         -0.681644         -2.4239         1.93907
LJ          -2.67768         2.14296          2.3772
LJ           5.03535        0.559039        0.067046
LJ           4.19927         4.20656        -3.19865
LJ          -1.37755        -3.25611         6.03826
