108
#Comment!
LJ          -2.41132         2.38678          2.2155
LJ          -1.10186        -1.14233        -2.23561
LJ          -2.55981        -2.42099        -1.77378
LJ          -1.24059         -2.2019        -1.78646
LJ          -1.13745         2.44531         2.33272
LJ         -0.259503        -1.60349         -2.4346
LJ         -0.169494         2.35913        -2.19224
LJ          0.571233         2.05368         2.04837
LJ         -0.343019         -2.2473        0.793559
LJ          0.634586        -2.05329        -2.00105
LJ          0.183047         -1.6672        -1.04895
LJ           1.23586         2.30774        -1.97626
LJ           1.45265         -1.1201         -1.2378
LJ          -1.74756       -0.349408         2.54607
LJ           2.47058       -0.505153        -1.25605
LJ          -1.29625        0.303194        -1.85958
LJ         -0.926722       -0.160653         1.69659
LJ         -0.200621        0.467101         -1.8118
LJ          -0.83019       -0.245052       -0.670793
LJ          0.649698       -0.879036       -0.592694
LJ          0.853263        -1.04906         -2.0735
LJ           1.88415       -0.321035        -2.06372
LJ          0.793056        0.113767         -2.0889
LJ           1.26779       -0.164055        -1.07744
LJ          -2.47957       -0.580099         1.56144
LJ           2.16258         1.47963         2.44508
LJ          -1.82093        -1.83465         2.41894
LJ          -2.43336        0.501938        -2.22425
LJ          -1.24603         0.81542         2.30716
LJ         -0.583911         1.64395         2.02294
LJ          -1.88141         1.45106        -2.18839
LJ         -0.145922         1.21739       -0.689043
LJ           1.55693        0.832337        -2.24592
LJ           1.67519         1.81389         1.59223
LJ          0.422092         1.37451        -2.32226
LJ           2.29064         1.74457        -1.70803
LJ            2.3888        -1.51229         -1.0678
LJ          -1.62746       -0.620709        -1.31677
LJ           -1.7071        -1.86188       -0.829425
LJ           -1.3638         1.66876       -0.317851
LJ         -0.571222         2.34751        -1.07731
LJ          0.414585        -2.48589       -0.310118
LJ          -0.30211        -1.37466      -0.0382516
LJ         -0.874841        -1.69825         1.82849
LJ          0.422023         2.00959         -1.2149
LJ           1.16544        -2.15467        -1.06475
LJ           1.57066        -1.72984         1.28459
LJ           -2.5009        -2.52857       -0.517095
LJ          -2.47041        -1.40373       0.0190035
LJ          -2.00482        0.293889       -0.999628
LJ           2.49954        0.428569       0.0406398
LJ          -1.52575        -1.00552       -0.164359
LJ        -0.0329205       -0.459784        -1.44086
LJ          0.216112        0.199162        -0.80769
LJ         -0.721117        -1.25917         -1.2502
LJ           0.75858        -1.52238        0.657443
LJ            2.0496       -0.570451       -0.269646
LJ           2.11166        0.574433        -1.28119
LJ          0.048068       -0.360166        0.192223
LJ           1.18919        0.105325      -0.0047054
LJ           -2.3813         1.28039       -0.758605
LJ          -1.10882        0.803392       -0.752398
LJ           2.53586         1.71017        0.216832
LJ           -1.4813        0.725991        0.388529
LJ         -0.391647         2.00435        0.166093
LJ          -0.70641         1.41534        -1.67866
LJ          -1.55718         1.76921        0.683319
LJ           1.66262         2.29749       0.0720134
LJ           0.86575        0.939204        -1.22975
LJ          -1.83021          2.1049        -1.26213
LJ           1.54529        -1.66179       -0.149932
LJ           1.72634        0.949625       -0.424022
LJ           2.29568         2.40097         1.11497
LJ          -1.10425        -1.61726        0.608432
LJ          -2.47493        -1.12625        -2.11852
LJ          -1.50041        -2.38032         1.29841
LJ          -1.61836        -2.47701        0.224188
LJ         0.0887963        -2.08355         1.70768
LJ         -0.194861        -1.12558          1.1577
LJ          -1.75966         1.59306         1.75552
LJ          0.821641        -2.53418         1.01858
LJ           2.30903        -1.76845         2.01939
LJ           1.65284        -1.69184         -2.0916
LJ           1.47121        -2.45349         2.16492
LJ          -2.31541        -1.68931          1.0653
LJ          -2.06149       -0.468643        0.596432
LJ           1.99001         0.21994         2.12565
LJ          -1.54066       -0.965055         1.39702
LJ          -1.05976       -0.295356        0.553115
LJ          0.447054         -1.0978         1.97959
LJ        -0.0458317       0.0663903          1.1106
LJ         -0.264948       -0.284884        -2.55235
LJ           0.95211       -0.579419         1.10867
LJ           1.89584       -0.858755        0.702912
LJ          0.665088      -0.0455004         1.98603
LJ           1.48681       -0.791639         2.20987
LJ           1.70366        0.238573        0.985327
LJ           2.52388         1.20353         1.30331
LJ           1.71084         1.30006        0.625549
LJ          -1.95427        0.402463         1.39625
LJ         -0.291417         0.91704        0.297209
LJ         0.0672922         1.67866         1.20347
LJ         -0.864638         1.02146         1.22325
LJ         -0.270791        0.660476         2.21189
LJ          0.768232         1.69026        0.221987
LJ           1.58307         1.99957       -0.900472
LJ           0.87121        0.952625         1.79668
LJ          0.718774        0.675132        0.750446
