108
#Comment!
LJ           2.36186         2.04583         1.65761
LJ          -1.26043          -1.042         2.53337
LJ           2.00738        -2.35425        -2.28444
LJ          -1.45519        -2.03835        -1.89691
LJ          -1.01195         2.54404           2.392
LJ          0.226089        -1.66688         2.23017
LJ         -0.179739        -1.65496        -1.86716
LJ        -0.0638789         2.35016        -2.14376
LJ        0.00704295         1.98782         1.74863
LJ          0.846451         -2.0987        -2.05125
LJ           0.62286        -1.42668        -1.12497
LJ           1.41508         2.23572        -1.65149
LJ           1.67487        -1.55133         -1.6854
LJ          -1.96611       -0.178053        -2.45058
LJ           2.37625       -0.603353        -1.51247
LJ          -1.15558        -0.26087        -1.85773
LJ           -1.1578       -0.422151         1.69015
LJ         -0.560651        0.556205        -1.52455
LJ          -0.68111       -0.116748       -0.697046
LJ          0.140424       -0.795268       -0.443869
LJ          0.774539       -0.846156        -2.20498
LJ            2.0764        0.176721        -2.32834
LJ          0.564994       0.0512952        -1.75842
LJ           1.37013       -0.242803        -1.09132
LJ          -2.26559       0.0282162         1.60204
LJ           -2.0154         1.11787         2.11187
LJ          -2.07766        -2.26592         2.32998
LJ          -2.21954         0.71006        -1.79841
LJ          -1.13244        0.576163         -2.4317
LJ         -0.575156         1.47024         2.54729
LJ          -1.73927         1.91318        -2.30796
LJ         -0.255728         1.63944        -1.32331
LJ           1.46126        0.894185        -1.73496
LJ            1.1167         1.70152         2.40635
LJ          0.361489         1.37448        -2.07613
LJ           2.27763         1.70696        -2.19588
LJ          -2.53803        -1.87447        -1.36049
LJ          -1.56762          -1.111        -1.42091
LJ          -1.72205        -2.00863       -0.791835
LJ          -1.81136         2.05161       -0.384807
LJ          -0.74311        -2.51859       -0.444868
LJ          0.323053        -1.88168       -0.143903
LJ         -0.332719        -1.33407        0.386158
LJ         -0.282637        -2.48182        0.685551
LJ          0.504373        -2.54172        -1.11973
LJ           1.35186        -2.21279       -0.668418
LJ           1.58682         -1.4109         1.08366
LJ            2.4127        -2.22609        -0.28641
LJ          -2.45623        -1.02735       -0.483611
LJ          -1.91126       -0.138514        -1.06768
LJ          -2.50462      -0.0701411       -0.199937
LJ           -1.3049       -0.768496       -0.117685
LJ         -0.148467       -0.669922        -1.54837
LJ          0.388776        0.302839       -0.628444
LJ         -0.726291        -1.42191       -0.778585
LJ          0.763809       -0.961116        0.562309
LJ           1.47017        -1.08702       -0.334082
LJ           2.18879         0.42895        -1.05021
LJ          0.343374      -0.0576035        0.361062
LJ           1.27152       0.0221361      -0.0652906
LJ          -2.26222        0.988374       -0.476448
LJ          -1.24166          1.1147       -0.555538
LJ           2.45711         1.87766        0.185843
LJ          -1.62359        0.332174       -0.018704
LJ         -0.180762         1.53504       -0.300578
LJ          -1.12637          2.1801        -1.42169
LJ          -0.99198         1.77405        0.294693
LJ           0.69506         2.12018       -0.183544
LJ          0.756014         1.37154        -1.09936
LJ           2.52264         2.19442        -1.23502
LJ            1.2085        -2.03151        0.299709
LJ           1.81931        0.873312      -0.0609996
LJ           2.01006         -2.5272        0.758783
LJ          -1.46259        -1.49015        0.792679
LJ          -2.54467        -1.31676        -2.33538
LJ          -1.80565        -2.53137         1.33383
LJ          -1.59579        -2.33378        0.288215
LJ            0.4572        -1.85548          1.0178
LJ         -0.849949        -1.82647         1.66728
LJ          -1.15864         1.71426         1.57067
LJ          0.818185         2.18786        0.947536
LJ           2.34224         -2.0005         1.64468
LJ           1.36146        -1.49753         2.25808
LJ           1.40653        -2.45778          1.7297
LJ          -2.54898        -1.43747        0.690156
LJ          -2.03784       -0.565726        0.674142
LJ           2.11252        0.864973         2.03192
LJ          -1.90467         -1.3314          1.6591
LJ         -0.631298       -0.191757        0.656174
LJ        -0.0605808       -0.951504         1.26192
LJ        -0.0148395        0.129507         1.44443
LJ         -0.228807       -0.647547         2.26219
LJ          0.835909       -0.648824         1.68557
LJ           2.03653        -0.50335        0.547108
LJ          0.929198         0.12349         2.37006
LJ           2.29992       -0.883294         1.79027
LJ           -2.4924        0.641422        0.768407
LJ          -1.97615          1.6433        0.947516
LJ           1.82589         1.36856        0.996756
LJ          -1.36242         0.51338         1.06626
LJ         -0.600517        0.659898       0.0893839
LJ         -0.214442         1.29104         0.85705
LJ         -0.668057        0.814511         1.77123
LJ        -0.0792053        0.392695         2.54577
LJ          0.681232         1.06328         0.25721
LJ           1.77848         1.90258       -0.542325
LJ          0.471186         1.01756          1.9039
LJ            1.2448        0.432416         1.30359
