108
#Comment!
LJ          -2.45973          2.2219          2.3294
LJ          -1.50971        -1.28421        -2.43456
LJ          -2.49889        -1.95912        -2.31705
LJ          -1.56958        -2.47773        -1.84801
LJ         -0.634251        -2.25254         2.47808
LJ         0.0202602        -1.28055        -2.38477
LJ         -0.765029        -1.92739         -1.4007
LJ         -0.244331         2.34949         -1.6822
LJ          0.566243        -2.37598        -2.48289
LJ           1.49893        -1.87117        -2.27388
LJ          0.674107        -1.69881        -1.60839
LJ           1.91354         2.02448        -1.41157
LJ           2.39489       -0.968837        -1.91002
LJ          -2.03383       0.0556595         2.54486
LJ           -2.3974      -0.0505236        -1.42067
LJ          -1.43773        -0.39765        -1.89457
LJ         -0.789634       -0.224542         2.32467
LJ           0.20039      0.00960534        -2.52835
LJ         -0.707099        0.155146          -1.356
LJ          0.372967       -0.857763        -1.01237
LJ          0.988646        -1.01542         2.52054
LJ           1.88881        0.217688        -2.30759
LJ            1.0853       -0.225534        -1.92893
LJ           1.51496       -0.968196        -1.31695
LJ          -2.37772         1.19386         2.51342
LJ          -1.41625          1.8074         2.48444
LJ           -2.2048         1.71429        -1.55266
LJ          -1.66301        0.772796        -1.74327
LJ         -0.912922        0.933778        -2.41694
LJ         -0.256928           1.843         2.50342
LJ          -1.09762         1.85892        -1.30751
LJ         -0.167161         1.25854        -1.69839
LJ           1.04536        0.839059        -2.53293
LJ           1.75662         1.76301          2.4463
LJ          0.811162          1.9362        -1.82757
LJ           1.76399         1.08165        -1.68153
LJ          -2.28164        -2.54206       -0.952252
LJ          -1.89764        -1.63451        -1.36712
LJ          -2.12944        -1.72454       -0.226417
LJ          -1.87376         2.48525        0.197768
LJ         -0.936969        -2.37742       -0.449258
LJ         0.0582099        -1.96716        -0.81563
LJ          -1.11902        -1.50072        0.203578
LJ        -0.0767893         -2.4897         0.16077
LJ          0.983227         2.54783       -0.778617
LJ           1.89219        -2.01669        -1.23371
LJ           1.08058        -2.19894        0.315184
LJ           2.08044        -2.29093      -0.0988299
LJ           2.52357        -1.05934       -0.812757
LJ          -1.65694        0.289363       -0.668718
LJ           2.35521       0.0533129       -0.192694
LJ          -1.85905       -0.668662       -0.208359
LJ         -0.536344       -0.886903          -1.627
LJ          0.381097        0.316141        -1.30479
LJ         -0.703572       -0.633929       -0.526252
LJ         -0.108427        -1.31808      0.00354954
LJ           1.06495        -1.57346       -0.538093
LJ           1.46257        0.203245        -1.03995
LJ           0.18252       -0.221676       -0.184692
LJ            1.6052       -0.601275       -0.316635
LJ           2.53557        0.866353       -0.784269
LJ          -1.80287          1.7093        -0.59349
LJ           2.53267         1.74085        0.166639
LJ          -1.98276        0.823246        0.344487
LJ         -0.784554        0.959548       -0.760816
LJ       -0.00260631         1.86733        -0.79413
LJ         -0.819774          1.6782      -0.0127623
LJ           0.11637         0.92485       -0.144327
LJ           0.91016         1.24785        -1.01019
LJ           1.66947         1.68445       -0.393963
LJ          0.678003         1.79357      -0.0966502
LJ           1.18501        0.738167       0.0687427
LJ           2.33241        -2.53098         1.03649
LJ          -1.90954        -1.83681        0.884875
LJ          -2.50669        -1.76608         1.79318
LJ           -1.5759        -2.49009         1.80693
LJ         -0.956697        -2.48056        0.732845
LJ          0.165844         -1.7777        0.962137
LJ         -0.635016         -1.2888         1.46591
LJ         -0.258887         2.50889         1.56412
LJ          0.873085         2.50316          1.1573
LJ           1.75674        -1.60188         1.17775
LJ           0.89235        -1.65118         1.75968
LJ            1.8457        -2.42071         1.90432
LJ           2.44374        -1.08385         0.40248
LJ          -2.16888       -0.177983        0.726369
LJ           2.45303        0.197627          1.6666
LJ          -1.86699       -0.811059         1.60322
LJ          -1.15768       -0.471312        0.572629
LJ        -0.0635874       -0.651382        0.708527
LJ         -0.782445        0.211633         1.34766
LJ          0.213269       -0.742002         1.81769
LJ          0.945565        -1.11817         0.50192
LJ           1.67174       -0.284391        0.927679
LJ           1.29278       -0.103024          1.8637
LJ           2.11761       -0.782983         1.79315
LJ           2.08693        0.805554        0.732402
LJ          -1.79816         1.66609         1.08528
LJ           2.35295         1.67736         1.48744
LJ           -1.6175        0.676821         1.80757
LJ         -0.934186        0.568054        0.204202
LJ        -0.0395133         1.72852         0.80163
LJ          -0.74741         1.57596         1.58873
LJ          0.294905        0.623303         1.77462
LJ          0.612563        0.294404         0.69705
LJ            1.4599         1.69645        0.677697
LJ          0.839756         1.66745         2.00504
LJ           1.42074        0.986429         1.56792
