108
#Comment!
LJ           -2.1793         2.37609         1.45681
LJ          -1.24131       -0.850106         2.46305
LJ          -2.54403        -2.54198         2.48724
LJ          -1.45216        -1.72058        -1.43421
LJ          -1.23629        -2.34796        -2.19527
LJ         -0.221067        -1.72614        -2.15689
LJ        -0.0779175         2.40584         -2.1321
LJ          0.630787         1.89864         2.45481
LJ          -0.51876         -2.0728        0.965022
LJ          0.669116        -2.03233         2.55284
LJ          0.825976        -2.04231        -1.51843
LJ           1.88709         1.89108        -2.10315
LJ           1.77373        -1.22797        -1.42722
LJ          -2.15806        -0.39871         2.31718
LJ           2.53797       -0.388699        -1.85501
LJ          -1.89988        0.653081        -1.45153
LJ         -0.514127       0.0601622          1.9349
LJ         -0.259316        0.682069        -1.81866
LJ         -0.935096       -0.549313       -0.380923
LJ          0.421483        -1.49241       -0.674603
LJ          0.741707       -0.976514        -1.64879
LJ            1.5927      -0.0714391        -2.21921
LJ          0.586982       0.0340773        -1.93773
LJ           1.27693        -0.14175        -1.11933
LJ           1.94469       -0.845467         1.99774
LJ           2.13908         1.41349         2.14652
LJ          -1.95556          -1.375         1.86035
LJ          -1.98437        0.724407         2.24495
LJ          -1.08402        0.402653         -2.3826
LJ         -0.557933         1.94683         2.12766
LJ          -1.67133         1.87847         2.40269
LJ         0.0477726         1.73477        -1.07836
LJ           2.18282        0.721196        -2.02696
LJ           1.39468         2.11018         1.18588
LJ           1.10602         1.06971        -1.98577
LJ          -2.24254         1.48617        -1.85849
LJ          -2.43021         -1.6043         -1.0193
LJ          -1.54462       -0.355581        -1.63729
LJ          -1.65197        -1.93882       -0.447463
LJ          -1.31575         2.18355       -0.441723
LJ         -0.765714        -2.34901        -1.09383
LJ          0.304248        -2.51367       -0.639741
LJ         -0.592989        -1.83276      -0.0504104
LJ         -0.699926        -1.64754         2.04436
LJ            0.9649         2.02291        -1.47021
LJ           1.50048         2.16861       -0.380091
LJ           1.10911        -1.96982         1.45487
LJ          -2.49326         2.25629       -0.391019
LJ           2.40335        -1.27305     -0.00848496
LJ          -1.49984        0.508017       -0.381802
LJ          -2.53058        0.701643        0.125358
LJ          -1.89325       -0.850341       -0.533078
LJ          0.113107       -0.104455       -0.990065
LJ         -0.188638        0.505099       -0.151863
LJ         -0.573318        -1.14481        -1.17162
LJ          0.663348        -1.73484        0.281803
LJ           2.23413       -0.548897         -0.7393
LJ           2.11772        0.506278        -1.07128
LJ       -0.00413054       -0.659558        0.115228
LJ           1.09014       -0.859951      -0.0502927
LJ          -2.10769         1.35374       -0.717288
LJ         -0.739929         1.30464       -0.478933
LJ           2.37769         1.87603        0.638332
LJ          -1.79256         1.51422        0.284637
LJ         -0.434533         2.31146        0.230982
LJ          -1.01593         1.41564        -1.92733
LJ          -1.23525         1.78652         1.36653
LJ           1.76159        -2.31487        0.355246
LJ          0.792397         0.81586        -1.00199
LJ          -2.10022          2.4812        -1.41249
LJ            1.5392        -1.76785       -0.595893
LJ          0.808427         0.17444       0.0720542
LJ          -2.49726        -1.92848        0.796919
LJ          -1.55066        -1.29847         0.77793
LJ          -2.36441        -1.33537         -2.0557
LJ          -1.30655        -2.36406         1.68864
LJ          -1.55048         2.50561        0.598892
LJ          0.205212        -2.32899         1.74134
LJ          -0.35522         -1.0624         1.02644
LJ          -2.22012         1.29256         1.25399
LJ          0.483887         2.46036        0.726119
LJ           2.13381        -1.92263         1.67054
LJ           2.05933        -2.35648        -1.47861
LJ            1.4652         2.41839         2.15415
LJ          -2.50954       -0.759153         1.13384
LJ          -1.80438       -0.305392        0.337699
LJ           1.91765        0.324322         1.83454
LJ          -1.38935       -0.396573         1.42201
LJ         -0.820427       0.0180197        0.617596
LJ          0.423006        -1.00714         2.33399
LJ         0.0942229       0.0472264         1.09756
LJ         -0.376345       -0.538296        -1.97222
LJ          0.684411        -1.04377          1.0629
LJ           1.69163        -1.41072        0.787874
LJ          0.835424       0.0413718         2.02461
LJ           1.71535        -1.68766        -2.40524
LJ           1.50355       -0.305134        0.886678
LJ           1.88551         1.00191        0.913947
LJ           1.60711        0.904232       -0.223251
LJ          -2.28353        0.260466         1.20513
LJ         -0.670226         1.10646        0.562741
LJ          0.179781         1.66959         1.25332
LJ          -1.24552        0.701549         1.46636
LJ          0.097796         0.89717         2.30574
LJ          0.563252         1.59432         -0.2329
LJ           2.01415         1.55765        -1.11136
LJ           1.13621         1.10235         1.96504
LJ          0.791671         1.04368        0.733579
