108
#Comment!
LJ           2.21271         2.48423         2.09046
LJ          -1.24121        -1.26602         2.34727
LJ          -2.04557        -2.35349        -2.44218
LJ          -1.47402        -1.57836        -1.79971
LJ         -0.871752        -2.39743        -1.67176
LJ         -0.359921         -1.4726        -2.10279
LJ          0.180138         -2.4314        -2.01963
LJ          0.373075         1.55039         2.50621
LJ         -0.205635         -2.0405        0.939069
LJ           1.09308        -1.71985        -2.51902
LJ           1.15049        -2.32186        -1.66279
LJ           1.55333         1.87061        -2.06301
LJ           1.43037        -0.90941        -1.59599
LJ          -2.48402       0.0520824         2.54157
LJ          -2.55113      -0.0884496        -1.43666
LJ          -1.75574        0.522741        -2.03881
LJ         -0.260572       -0.596842         2.00506
LJ         -0.304966        0.451688       -0.885102
LJ          -1.10495       -0.151814       -0.121182
LJ        -0.0119179        -1.65517        -0.28098
LJ          0.383443        -1.52682         -1.3079
LJ           1.12911        0.075568        -2.32285
LJ        -0.0359189        0.158939        -2.23179
LJ           1.55249        0.152819        -1.22566
LJ           1.64721       -0.814747         2.56259
LJ           2.27609         1.34392         1.85966
LJ          -2.03638        -1.70668         1.61929
LJ          -1.71039         1.00943         2.14542
LJ          -1.07773       0.0498809         2.28203
LJ         -0.897949         1.86095         2.20749
LJ          -1.78119          2.3127         1.68602
LJ         -0.304556         1.81884        -1.67335
LJ           2.01554        0.775031        -2.15952
LJ           1.43524         1.87228        0.891774
LJ          0.771484        0.895952        -1.74371
LJ          -2.50662          1.8089         -2.0624
LJ           2.56001        -1.20265        -1.37484
LJ          -1.68624       -0.543311        -2.13292
LJ          -1.66028        -1.17866       -0.794265
LJ           -1.3185        -2.21393       -0.515206
LJ         -0.156212        -2.49528       -0.883975
LJ          0.736336        -2.55466       -0.163281
LJ          -1.02885        -1.28995       0.0162683
LJ          0.173151         -1.7854          1.9875
LJ          0.687814          1.9388        -1.10848
LJ           2.18853          1.6827       -0.174508
LJ          0.842432          -2.353          1.0138
LJ          -1.98525         2.25501        0.245523
LJ          -2.45285        -1.98096       -0.311117
LJ          -1.32431        0.855831        -1.07806
LJ          -2.03374         1.10083       -0.256265
LJ          -1.56892       -0.150383        -1.10789
LJ         -0.193802        -0.64024       -0.416467
LJ         -0.396898        0.461047         0.32768
LJ          -0.68256        -1.42301        -1.05848
LJ          0.976171        -1.57236        0.253805
LJ           2.00716       -0.451731       -0.578293
LJ          -2.47899        0.937248        -1.28489
LJ         -0.216121       -0.782082        0.698807
LJ          0.909072       -0.889739       -0.569387
LJ          -2.12664         1.86025       -0.930963
LJ        -0.0104678          1.3298       -0.492678
LJ           2.44232         2.09155         1.02024
LJ          -1.15128           1.748        -0.44146
LJ         -0.569678         2.55239        0.156373
LJ          -1.44049         1.69704        -1.88897
LJ          -0.84842         2.24733         1.17863
LJ           1.78067        -2.45752         0.25698
LJ          0.631726        0.148265       -0.332086
LJ          -2.13467        -2.30397        -1.38415
LJ           1.66423        -1.70621       -0.720027
LJ           1.18388       -0.526589         0.37607
LJ          -2.53253        -1.97562        0.741869
LJ          -1.66479       -0.793449        0.627454
LJ          -2.42004        -1.12673           2.408
LJ         -0.972452        -2.22888         2.06628
LJ          -1.44084        -2.10808        0.877323
LJ          0.165398         2.22171         1.69393
LJ         -0.905958        -1.25012         1.31766
LJ          -1.35834         1.52939        0.625623
LJ         -0.316122         1.47811        0.561612
LJ           1.70023        -1.83634         1.73882
LJ           1.93934         2.38883        -1.14398
LJ           1.08381         2.32413         2.20107
LJ           2.25794       -0.914258          1.2646
LJ          -2.22954       0.0656191       -0.366443
LJ            1.3378       -0.114078         1.56747
LJ           -1.8519       -0.565644         1.67343
LJ          -1.06636      -0.0464951         1.23242
LJ          0.461677       -0.868928        -2.44833
LJ          0.422367      0.00384104        0.910953
LJ          -0.69838        -0.47077        -1.60369
LJ          0.957265        -1.07496         1.25092
LJ           2.00475        -1.27621        0.179153
LJ          0.361405        0.327281         1.91384
LJ           2.08296         -2.0363        -2.04936
LJ           2.41207       -0.246696        0.462907
LJ            2.4293        0.952125        0.648332
LJ           1.94837        0.524186       -0.257429
LJ          -2.43047        0.405944         1.59386
LJ         -0.690218         1.01872         1.39382
LJ          0.547489         1.37331         1.18815
LJ          -1.71709        0.445925        0.618783
LJ          -0.82546        0.971983         -2.4121
LJ          0.979374         1.28922       -0.137782
LJ            1.6222         1.18168       -0.993419
LJ           1.30894         1.02045         2.06367
LJ           1.33795        0.711294        0.740434
