108
#Comment!
LJ           2.28988         2.33786         2.23916
LJ          -1.09366        -1.21285         2.33965
LJ           -1.9414        -2.32345        -2.44335
LJ          -1.60623        -1.55289        -1.81723
LJ         -0.838398        -2.33884        -1.58796
LJ          -0.35316        -1.58634        -2.14507
LJ          0.200294        -2.52052        -1.96791
LJ          0.409416         1.53401        -2.55533
LJ         -0.290924         -2.1151        0.995449
LJ           1.05684        -1.70607        -2.53174
LJ           1.16097        -2.27523           -1.41
LJ           1.43033          1.8585        -1.90462
LJ           1.38338        -1.11807        -1.73005
LJ           2.44987      -0.0485069        -2.46389
LJ           2.52399       -0.165411        -1.42076
LJ          -1.84713        0.385924        -1.95796
LJ         -0.286128       -0.547967         1.81116
LJ         -0.322108         0.38471       -0.845186
LJ          -1.20576       -0.260259       -0.179683
LJ          0.199181        -1.68073       -0.244131
LJ          0.457159        -1.52487        -1.31892
LJ           1.28676        0.137787        -2.40187
LJ        -0.0121586        0.207445        -2.32554
LJ           1.34191      -0.0728891         -1.2946
LJ           1.64615       -0.808158         2.19053
LJ           2.26896          1.3096         1.85484
LJ          -1.91749        -1.67394         1.68549
LJ           -1.8845         1.10821         2.15824
LJ          -1.05082       0.0866022          2.3555
LJ         -0.975035         1.89097         2.31155
LJ          -1.91899         2.32255         1.73663
LJ         -0.290471          1.6963        -1.68527
LJ           1.89922        0.949146        -2.28208
LJ           1.38123          1.8057         0.66584
LJ          0.609403        0.899438        -1.70088
LJ            -2.411         1.69707        -2.17266
LJ           2.47189        -1.21341        -1.31216
LJ          -1.63551       -0.607404        -2.13676
LJ          -1.74798        -1.13776       -0.731103
LJ          -1.30011        -2.23014       -0.688541
LJ         -0.199451         2.44129       -0.750956
LJ           0.78596        -2.55017       -0.228605
LJ         -0.853306        -1.38326       0.0267212
LJ         0.0574448        -1.61123         2.07019
LJ          0.751299         1.85352        -1.11912
LJ           2.28084         1.62034       -0.198498
LJ          0.804237        -2.31514        0.997372
LJ          -2.00561         2.26229       0.0577874
LJ           -2.4264        -1.97127        -0.46073
LJ          -1.23765         1.00299        -1.14787
LJ          -1.90878         1.01257       -0.334598
LJ          -1.35171       -0.182407         -1.1744
LJ         -0.153811       -0.538856       -0.429579
LJ         -0.390618        0.532641        0.353672
LJ         -0.671818         -1.3429        -1.12736
LJ           1.10687        -1.55582        0.262836
LJ           1.99174       -0.592086       -0.496048
LJ          -2.49248         1.03049        -1.17408
LJ         -0.271804       -0.675966        0.652945
LJ          0.848258       -0.785993       -0.576157
LJ           -2.0339         1.99894       -0.919302
LJ         -0.056606         1.45437       -0.562898
LJ           2.39316         2.04477         1.00901
LJ          -1.04933         1.71698       -0.517634
LJ         -0.787619         2.45464         0.21678
LJ          -1.53112         2.02299        -1.78837
LJ         -0.880736         2.09709         1.20931
LJ           1.81747        -2.34592      -0.0390695
LJ          0.656105        0.189629      -0.0411961
LJ          -2.36038         -2.2715        -1.52869
LJ           1.57907        -1.62777       -0.642086
LJ           1.47495       -0.465392        0.467099
LJ           -2.4413        -2.07966        0.771945
LJ          -1.63632       -0.857871        0.556472
LJ           -2.4285        -1.21153         -2.5432
LJ         -0.760079         -2.2027         1.99448
LJ           -1.4058        -2.14113        0.662473
LJ         0.0880081         2.33773         1.72597
LJ         -0.900654        -1.31603         1.27958
LJ           -1.4281         1.37954        0.510257
LJ         -0.235337         1.58586        0.578384
LJ           1.81312        -1.93637          1.6354
LJ           2.01099         2.31155        -0.94855
LJ           1.22243         2.41621         2.30488
LJ           2.35104        -1.03369         1.30932
LJ          -2.18522      -0.0902347       -0.423508
LJ           1.24156       0.0553234         1.56174
LJ          -1.83152       -0.439121         1.56238
LJ         -0.881922       0.0286326         1.19189
LJ          0.476876       -0.803112        -2.28111
LJ          0.437493        0.193545        0.951667
LJ         -0.550541       -0.440388        -1.69712
LJ          0.594825        -1.15612         1.24716
LJ           2.17564        -1.32684        0.326604
LJ           0.22614         0.64492         1.90924
LJ           2.03704        -1.94501        -2.14479
LJ           2.43595       -0.131078        0.618277
LJ           2.50236         1.05329        0.792362
LJ           2.11567        0.564905       -0.137431
LJ           2.49569        0.281032         1.55078
LJ          -0.86384         1.10803         1.52933
LJ             0.476         1.17866         1.10415
LJ          -1.72563        0.300839        0.568828
LJ         -0.847236        0.948219        -2.04429
LJ          0.981196         1.32751        -0.13453
LJ            1.5336         1.13435        -1.04749
LJ           1.21879         1.10576         1.97783
LJ           1.39533        0.614189        0.635577
