108
#Comment!
LJ          -2.24743         2.27345         1.85057
LJ          -1.43358        -1.05199        -2.43952
LJ          -2.35101        -2.38281        -2.42502
LJ          -1.33803        -1.69984        -1.32684
LJ          -1.33144        -2.22275        -2.38678
LJ         -0.376216        -1.67013         -2.2685
LJ         -0.167241         2.16982        -2.03374
LJ           0.59776         2.06034         2.00985
LJ         -0.244716        -2.25378        0.700609
LJ          0.695602        -2.14582        -2.51014
LJ          0.650524        -1.91906        -1.46971
LJ           1.47381         1.92343        -2.00836
LJ           1.63089          -1.183        -1.56361
LJ          -2.06711       -0.342643         2.31083
LJ          -2.46568       -0.199361        -1.79351
LJ          -1.86883        0.646567        -1.37655
LJ         -0.387469       -0.460971         1.99846
LJ         -0.545589        0.425909         -1.3246
LJ         -0.697506       -0.335962       -0.433582
LJ          0.484274        -1.27496       -0.628463
LJ          0.519404       -0.929487        -1.88912
LJ           1.55104       -0.177455        -2.13869
LJ          0.399332         0.27965        -2.02654
LJ           1.26088     -0.00307251        -1.08977
LJ           2.13665       -0.767948         1.85042
LJ           1.84404         1.47197         2.23647
LJ           -1.8646        -1.70399         1.89051
LJ          -2.36146        0.730801        -2.32365
LJ          -1.09591        0.237169        -2.30132
LJ         -0.711894         1.62601         2.28255
LJ          -1.69505         1.80648         -2.4692
LJ         -0.210551         1.50233       -0.994277
LJ           1.54986        0.882254        -1.82533
LJ           1.81871         2.06141         1.24077
LJ          0.674866         1.39197        -2.37061
LJ            2.4072         1.75389        -1.59025
LJ          -2.40499        -1.69488        -1.14214
LJ          -1.27364       -0.468227        -1.37712
LJ          -1.62116         -2.1497       -0.410053
LJ          -1.24804         2.00888       -0.682532
LJ         -0.433392        -2.27037        -1.31556
LJ          0.483972        -2.32139       -0.216331
LJ         -0.395936        -1.37749       0.0127596
LJ         -0.810774        -1.57086         1.78433
LJ          0.766527         2.12497        -1.37207
LJ           1.39766        -2.33229       -0.777725
LJ          0.893756        -1.97693         1.25737
LJ           2.30964          2.4746       -0.344815
LJ          -2.52135        -1.49489      -0.0852453
LJ          -1.95572        0.386359       -0.248594
LJ           2.18651        0.389877        0.131542
LJ          -1.71356        -1.01897       -0.589503
LJ          0.305858       -0.224671        -1.06993
LJ         0.0963133         0.66214       -0.388042
LJ         -0.482626        -1.15362        -1.19328
LJ          0.630409        -1.35504        0.472576
LJ           2.44568       -0.479624        -0.81255
LJ            2.2444        0.658687       -0.970954
LJ          0.252194       -0.334897        0.168157
LJ           1.47962       -0.336578      -0.0673148
LJ          -2.32564          1.3338       -0.433556
LJ          -1.01302        0.869696       -0.538774
LJ          -2.47166         1.83446         0.58282
LJ          -1.53247         1.37392        0.364612
LJ         -0.330419         2.08611      -0.0727068
LJ          -1.10186         1.51207        -1.62278
LJ         -0.945253         1.58675         1.19628
LJ           1.56155        -2.25455        0.469219
LJ          0.697523         1.09577        -1.24198
LJ          -1.81464         2.40398        -1.54012
LJ           1.70496        -1.34095       -0.497894
LJ           1.30962        0.743318       -0.358643
LJ          -2.48885        -2.22545        0.886092
LJ          -1.29832        -1.55391        0.680303
LJ          -2.53487        -1.26465        -2.29972
LJ          -1.28456        -2.50025         1.64025
LJ          -1.50833         2.44473        0.488409
LJ         -0.342581        -2.54254           1.961
LJ         -0.267952       -0.934177         0.90962
LJ          -1.98545         1.18004         1.49008
LJ          0.884008         2.12265        0.715874
LJ           2.27334        -1.84619         1.79551
LJ           1.73402        -2.23455        -1.84334
LJ           1.72843         2.53662         2.19514
LJ          -2.23698        -1.20979        0.960488
LJ           -2.0787       -0.516457        0.207675
LJ           2.18467        0.383998         1.85531
LJ          -1.37683       -0.573089         1.53599
LJ         -0.994811       -0.179995        0.560316
LJ          0.350982        -1.20566         1.76407
LJ         0.0273048        0.170763         1.26148
LJ         -0.401586       -0.452277        -2.05692
LJ          0.927587       -0.344731         1.04995
LJ           1.78481        -1.27113        0.695551
LJ          0.727016       -0.293399          2.3138
LJ           1.47952        -1.28775         2.47576
LJ           2.00782       -0.259728         0.86331
LJ           2.06727         1.03544        0.996961
LJ           1.65298         1.61916         0.22574
LJ          -2.23859        0.130183         1.12411
LJ         -0.609811        0.772925        0.494135
LJ           0.16346         1.48614         1.17065
LJ          -1.03398        0.473615          1.5275
LJ         -0.247222        0.495175         2.22986
LJ          0.717882         1.68465       -0.259557
LJ            1.6321         1.62066       -0.809661
LJ          0.838141         0.85705         1.82338
LJ          0.884653        0.644125        0.678215
