108
#Comment!
LJ          -2.35499         2.33642         2.15934
LJ         -0.945507         -1.1493        -2.52845
LJ           2.04729         -2.0118        -2.18003
LJ           -1.0519        -2.48581        -1.59543
LJ         -0.901677         2.55729         2.48565
LJ        -0.0654796        -1.68644        -2.44444
LJ        -0.0648767         2.52911        -1.94548
LJ          0.438508         2.13846         2.28275
LJ         -0.554546         2.28493         1.51998
LJ           0.97981        -2.24483         -2.1486
LJ          0.439076        -1.81525        -1.19273
LJ           1.43173          1.9365        -2.04642
LJ           1.36662        -1.17586        -1.36982
LJ          -2.02045       -0.383779         2.47295
LJ           2.22577       -0.424151        -1.38494
LJ            -1.114       -0.265542         -1.8385
LJ          -1.09262       -0.205653         1.87599
LJ         -0.488366        0.462405        -1.41633
LJ         -0.906524     -0.00895641       -0.319611
LJ          0.304058       -0.994277        -0.54907
LJ          0.570005         -0.9036        -2.12143
LJ           1.66058        -0.07191        -2.23937
LJ          0.519293         0.20133        -1.90847
LJ           1.00582       -0.111354        -1.04663
LJ          -2.40688       -0.408686         1.45875
LJ          -2.25877         1.08778         2.07199
LJ            -1.921        -1.65628        -2.17133
LJ          -2.36955        0.362781        -1.89606
LJ          -1.34364         0.58937        -2.35423
LJ         -0.441783         1.56482         2.30497
LJ          -1.48239         1.69037        -2.32225
LJ         -0.180337         1.43142       -0.746079
LJ            1.1984        0.888279          -2.418
LJ           1.84739         1.50988         1.96295
LJ          0.391257         1.49688        -1.98415
LJ           2.40151         1.40032        -2.09409
LJ            2.4025         -1.7405        -1.21229
LJ          -1.93809       -0.928388        -1.47216
LJ          -1.60354        -2.02683        -0.75992
LJ          -1.55139         2.10211       -0.648288
LJ          -0.27513         2.56086       -0.855015
LJ          0.625536        -2.37588       -0.320666
LJ        -0.0305896        -1.72597         0.24023
LJ         -0.643441        -1.77038         1.66016
LJ          0.613223         2.18795        -1.19371
LJ           1.40182        -2.20966         -1.1439
LJ           1.47934        -1.78085         1.31155
LJ           2.54272        -2.48086       -0.484036
LJ            2.3435        -1.47284       -0.278558
LJ          -1.81834       0.0413762        -1.02013
LJ           2.24964       0.0910833        -0.44197
LJ          -1.47946       -0.882951       -0.390699
LJ         -0.206559       -0.553138        -1.54092
LJ           0.14484         0.41865       -0.370337
LJ           -0.6283        -1.51733        -1.06286
LJ          0.746229         -1.0672        0.790328
LJ           1.50502       -0.846277       -0.342029
LJ             1.883        0.611595        -1.33922
LJ         0.0293473       -0.367933        0.398102
LJ           1.09517        0.167373     -0.00119863
LJ          -2.10264         1.34472        -1.23927
LJ          -1.30872         1.05775        -0.69352
LJ          -2.29605         1.27496      -0.0361269
LJ          -1.54396        0.521959        0.184325
LJ         -0.353989          2.3007        0.426553
LJ         -0.636511         1.65991        -1.65884
LJ          -1.28113         1.52122        0.432285
LJ           1.44937         2.03227       -0.134292
LJ          0.881488         1.02205        -1.16944
LJ          -2.34976         2.38116        -1.60777
LJ           1.39673        -1.79156        0.214109
LJ            1.7256        0.980992       -0.301852
LJ           2.24813        -2.45881         1.13221
LJ          -1.21023        -1.33795        0.606461
LJ           2.24238         -1.0155        -2.26802
LJ          -1.71996        -2.34922         1.45942
LJ          -1.52198        -2.51174        0.392399
LJ          0.349737        -1.98315          1.7142
LJ         -0.257496        -0.87176         1.32376
LJ          -1.39037         1.73243         1.72288
LJ          0.934028        -2.53805        0.690471
LJ          -2.56314        -1.75408         1.96121
LJ           1.29765        -1.40284         2.41432
LJ           1.70677         2.54782         2.14747
LJ          -2.35293        -1.66264        0.679955
LJ          -2.15116       -0.381471        0.421984
LJ           1.90837        0.542623          1.7691
LJ          -1.64766        -1.32146         1.73735
LJ          -1.08506       -0.216137        0.776099
LJ          0.606344       -0.938623         1.83434
LJ         0.0458425        0.172209         1.49176
LJ          -0.17954       -0.496491         2.38563
LJ           1.04744       -0.112253         1.19927
LJ           1.88416       -0.910088        0.686992
LJ          0.820975      -0.0710075         2.28773
LJ           1.72429       -0.660733         1.77339
LJ           1.95134        0.265318        0.764782
LJ           -2.3195         1.80251          1.2888
LJ           1.81822         1.46608        0.784673
LJ          -1.81307        0.531789         1.19539
LJ         -0.485359           1.047        0.161401
LJ        0.00548447         1.40898         1.01345
LJ         -0.836959        0.816029         1.58921
LJ         -0.288491        0.573979        -2.42389
LJ          0.643847         1.25388       0.0800693
LJ           1.93925         1.69261        -1.15982
LJ          0.419568          1.0314         1.93832
LJ          0.899782        0.904352          1.0253
