108
#Comment!
LJ           2.38168         1.96458         1.58833
LJ          -1.33237         -1.4703        -2.39318
LJ            1.8694        -2.27904        -2.38882
LJ          -1.56611        -2.21635        -1.64233
LJ          -1.09084        -2.46291         2.39495
LJ          0.361606        -1.30053          1.9625
LJ         -0.116312        -1.48473        -2.23523
LJ          -0.64788         2.50393        -1.72607
LJ          0.138881         2.43185         1.79365
LJ          0.883192        -2.13695        -2.23795
LJ          0.524095        -1.53242        -1.34321
LJ           1.43368         1.97951        -1.61784
LJ           1.50755        -1.24714        -1.75569
LJ          -1.85449       -0.332446        -2.16407
LJ           2.35947       -0.657514        -1.58631
LJ          -1.07035       -0.371588        -1.46022
LJ          -1.09842       -0.199147         1.63246
LJ         -0.422183         0.43179        -1.34126
LJ          -0.54958       -0.117012       -0.306829
LJ         0.0896413        -1.02185       -0.518494
LJ          0.771776       -0.698443        -2.35457
LJ          -2.53195         0.47833        -2.19999
LJ          0.578365         0.35173         -1.6214
LJ          0.932495        -0.64551        -1.05923
LJ          -2.05005        0.285361         1.85433
LJ          -1.91899          1.2252         2.16008
LJ           -2.1385        -2.40178         2.41428
LJ            -1.684        0.946978        -1.72354
LJ          -1.11931        0.460034        -2.45496
LJ           -0.6833         1.65105        -2.44146
LJ          -1.62892         1.96532        -2.07343
LJ        -0.0435072         1.43921        -1.50154
LJ           1.34248        0.976522        -2.00914
LJ           1.49036         1.94261         2.33308
LJ          0.455936         2.01655        -2.43806
LJ           2.39907         1.63992        -2.33198
LJ           2.51431        -2.17172        -1.55266
LJ          -1.76954        -1.18723        -1.32492
LJ          -1.54116        -1.78355        -0.51075
LJ          -1.79547         2.09829       -0.592851
LJ         -0.753504        -2.47794       -0.746921
LJ          0.493279        -2.12904       -0.199863
LJ         -0.494687        -1.54849       0.0471158
LJ         -0.290382         2.50818        0.383959
LJ          0.434374         2.39103        -1.19547
LJ           1.35647        -2.29344        -1.02671
LJ           1.50811        -1.36644        0.975409
LJ           2.33624         -2.2461       -0.374642
LJ           2.34187        -1.23589       -0.698526
LJ          -1.96033     -0.00895253         -1.0278
LJ           2.35806       -0.067632       -0.119055
LJ          -1.40925       -0.773708        -0.13028
LJ         0.0482343       -0.600208        -1.59454
LJ          0.416058        0.223503       -0.553384
LJ         -0.662007        -1.40108        -1.15484
LJ          0.591038        -1.02573        0.494684
LJ           1.36527        -1.34804       -0.269212
LJ           1.77945        0.288804        -1.06687
LJ          0.361941       0.0203154        0.660904
LJ           1.22483       -0.185471      -0.0915694
LJ          -2.51973        0.883516       -0.780797
LJ          -1.24795        0.634295       -0.719621
LJ          -2.27841         1.39288        0.225142
LJ          -1.76723        0.244382       0.0358908
LJ         -0.238917         1.35923       -0.436163
LJ          -1.04007         1.58737        -1.19938
LJ          -1.31311         1.46525      0.00343187
LJ          0.598669         2.01315       -0.287137
LJ          0.879265         1.05344       -0.893635
LJ           2.40056         1.89625        -1.06373
LJ           1.46223        -2.30253        0.392641
LJ           1.66346         0.89951      -0.0340231
LJ           2.40985        -2.55291        0.725454
LJ          -1.31546        -1.35869        0.866799
LJ          -2.35808        -1.33819         -2.3557
LJ          -1.81597        -2.22502         1.49263
LJ          -1.51709        -2.36883        0.441661
LJ          0.481932        -2.02982        0.950281
LJ         -0.559757        -1.92582         1.58739
LJ         -0.858395         2.19277         1.13658
LJ          0.676813         2.00091         0.85177
LJ           2.39992        -1.66299         1.71906
LJ           1.47381        -1.57788         2.13624
LJ            1.4562         2.38663         1.37676
LJ          -2.29287        -1.60769        0.527253
LJ          -2.12359       -0.369716         0.88234
LJ           2.04926        0.411953         1.91555
LJ          -2.09274       -0.713778         1.86088
LJ         -0.750644       -0.294507        0.627238
LJ         -0.238699        -1.05839         1.09891
LJ         0.0588166       -0.202159         1.60409
LJ         -0.455341       -0.381324        -2.48205
LJ           1.13506       -0.475874         1.71354
LJ           1.84402       -0.261931        0.868191
LJ          0.944998         0.38116         2.33163
LJ           2.10609       -0.562363         2.40046
LJ           2.42877        0.640716        0.773644
LJ          -1.79493         1.73452         1.16015
LJ           1.70992         1.47054        0.850483
LJ          -1.49093        0.691449        0.909466
LJ         -0.399925        0.766071        0.429998
LJ         -0.146267         1.49169         1.27052
LJ         -0.862793         0.90054         1.72638
LJ         0.0182426        0.791136        -2.37067
LJ          0.625767         1.06572        0.209575
LJ           1.60363         2.01409         -0.3623
LJ          0.760678         1.33826         1.83457
LJ          0.995066        0.638815         1.12076
