108
#Comment!
LJ          -2.30373         2.35846         2.35842
LJ          -1.12628        -1.02877        -2.23581
LJ           2.18329        -2.32509        -2.04393
LJ          -1.13774         -2.3818        -1.70463
LJ          -1.19427          2.5258         2.47456
LJ          -0.12803        -1.62316        -2.37359
LJ         -0.211453         2.29662        -2.12398
LJ          0.639644          2.0039         2.32967
LJ         -0.456404        -2.47833         1.18498
LJ           0.69758        -2.25229        -2.24241
LJ          0.322597        -1.64784        -1.26152
LJ           1.44108         2.05555        -2.20289
LJ           1.32068        -1.22626        -1.27959
LJ           -1.9396       -0.366916         2.49638
LJ           2.21433       -0.461283        -1.28328
LJ          -1.22135       0.0981274        -1.70051
LJ         -0.831019       -0.119262         1.87586
LJ         -0.239074        0.560112        -1.70761
LJ         -0.724381       -0.159782       -0.613231
LJ          0.595465        -0.80839       -0.566681
LJ          0.832785       -0.794301        -2.19728
LJ            1.7552       -0.123717        -2.23638
LJ          0.717257        0.167801        -1.93266
LJ           1.32167      -0.0632411        -1.06504
LJ          -2.49724       -0.557448         1.53932
LJ          -2.42891         1.10374         2.18593
LJ          -1.88382        -1.78021        -2.23118
LJ          -2.35171        0.463751        -2.08676
LJ          -1.39772        0.638926         2.46658
LJ         -0.419223         1.75545          2.1541
LJ          -1.73765         1.59898        -2.18205
LJ         -0.160319         1.38793       -0.697637
LJ            1.5033         1.03894        -2.41648
LJ           1.78348         1.59504         1.84549
LJ          0.336622         1.26644         -2.1326
LJ            2.4039         1.61922        -1.96647
LJ           2.27372        -1.54517        -1.13269
LJ          -1.80633        -0.71748        -1.40419
LJ          -1.93732        -1.89134       -0.856434
LJ          -1.61596         1.96477       -0.497151
LJ         -0.711269         2.39571       -0.871214
LJ          0.528847        -2.42404       -0.443755
LJ         -0.201272        -1.63873       -0.142796
LJ         -0.774552        -1.72091          1.8954
LJ          0.609779          1.9874        -1.33587
LJ           1.55976        -2.26104         -1.1117
LJ           1.33647        -1.57617         1.30751
LJ           2.51435         2.40468       -0.431765
LJ          -2.34986        -1.48047       0.0511788
LJ          -2.03478        0.285603        -1.12251
LJ           2.43487        0.237423        -0.12397
LJ          -1.51894       -0.969575       -0.367638
LJ         -0.294467       -0.797102        -1.62293
LJ          0.255493        0.279045       -0.730024
LJ         -0.705058        -1.70672       -0.970798
LJ          0.683754        -1.29315        0.464609
LJ           1.64427       -0.676588       -0.178932
LJ           2.05966        0.578567        -1.44142
LJ         0.0960645       -0.364099        0.361005
LJ            1.0057        0.127134        0.130648
LJ          -2.51459         1.35927       -0.952686
LJ          -1.22115        0.983159       -0.788294
LJ          -2.37231          1.3624       0.0502833
LJ          -1.62424        0.622164        0.238748
LJ         -0.630843         2.04817         0.21372
LJ         -0.816803         1.50605        -1.64119
LJ          -1.45689         1.75599        0.726825
LJ           1.65267         2.40075        0.118732
LJ          0.969249        0.990684        -1.26361
LJ          -2.15576          2.2221        -1.36753
LJ           1.52822         -1.7339      -0.0983253
LJ           1.69774        0.948769       -0.419055
LJ           2.32108        -2.51181         1.24354
LJ          -1.03411        -1.48144        0.508814
LJ           2.34831         -1.0942        -2.10038
LJ          -1.63981        -2.42448         1.45435
LJ          -1.62185        -2.29418       0.0714542
LJ          0.409864        -2.16004         1.89176
LJ         -0.320459       -0.982807         1.25225
LJ          -1.53223         1.66058         1.89453
LJ           1.12176        -2.53748        0.929639
LJ           2.41763        -1.53056         2.05356
LJ           1.51999        -1.54419        -2.50703
LJ           1.55018        -2.40728         2.01836
LJ          -2.21699        -1.51483         1.12891
LJ           -2.0422       -0.607771        0.540065
LJ           1.95328        0.464702         1.92075
LJ          -1.45863       -0.869467         1.45151
LJ         -0.982799       -0.343175        0.466098
LJ          0.518782        -1.03778          1.8073
LJ        0.00121554       0.0543066         1.29668
LJ         -0.126309        -0.52785         2.43387
LJ          0.951337       -0.399061         1.08216
LJ           1.92114       -0.889805        0.769042
LJ           0.83347      -0.0729247         2.19106
LJ           1.56231       -0.677631         1.95916
LJ           2.08169        0.192776        0.812217
LJ          -2.46122         1.38552         1.20524
LJ           1.72733         1.28758          0.6528
LJ           -2.1195        0.383305         1.34299
LJ         -0.398438         1.03551         0.54079
LJ           0.27871         1.71034         1.31318
LJ         -0.937911        0.895734         1.38532
LJ         -0.252507        0.608328         2.31508
LJ          0.803426          1.5737       0.0541035
LJ           1.68879         1.81138       -0.953977
LJ          0.643432         1.01566          1.9575
LJ          0.704043        0.699394        0.948004
