108
#Comment!
LJ           2.29072         2.37374         2.25369
LJ          -1.06771         -1.2078         2.34361
LJ          -1.91443        -2.31062        -2.45809
LJ          -1.60693        -1.56171        -1.81608
LJ         -0.810704        -2.33061         -1.6126
LJ         -0.353844        -1.57683        -2.17186
LJ          0.206386         -2.5316        -1.97705
LJ          0.388721         1.56123        -2.54196
LJ         -0.279405        -2.11069        0.992855
LJ           1.03898        -1.68286        -2.50911
LJ           1.19212        -2.28562        -1.36091
LJ           1.40178         1.87279        -1.86541
LJ           1.37277         -1.1332        -1.77327
LJ           2.41068      -0.0782938        -2.47573
LJ           2.52428       -0.193112        -1.40128
LJ          -1.90238        0.433928        -1.97556
LJ         -0.263515       -0.561808         1.79736
LJ         -0.340262        0.413316       -0.857852
LJ          -1.18347       -0.274241       -0.193154
LJ          0.193987        -1.69354       -0.240491
LJ          0.453946        -1.51091        -1.33944
LJ           1.28419        0.126285         -2.4423
LJ        0.00204141        0.223916        -2.32858
LJ           1.29974       -0.096769         -1.2834
LJ           1.66045       -0.799074         2.12981
LJ           2.24048         1.28715         1.83157
LJ          -1.89078        -1.67524         1.68535
LJ           -1.8639         1.11418         2.17697
LJ          -1.05325       0.0835791         2.34872
LJ         -0.987715          1.9126         2.33417
LJ          -1.93761         2.30565         1.71244
LJ         -0.252242         1.67671        -1.65418
LJ           1.89336        0.951724        -2.29248
LJ           1.39762         1.82456        0.656963
LJ           0.59419        0.897372        -1.67572
LJ          -2.36795         1.67647        -2.16132
LJ           2.46541        -1.21944         -1.3419
LJ          -1.63608       -0.584061        -2.11772
LJ          -1.74867        -1.14507       -0.681571
LJ          -1.34954        -2.23248       -0.680247
LJ         -0.188007         2.43669       -0.756138
LJ          0.793448          2.5483       -0.248236
LJ         -0.848641        -1.39382       0.0619109
LJ         0.0426554        -1.57567         2.04265
LJ          0.762702         1.86287        -1.13231
LJ           2.27929         1.62049       -0.186694
LJ          0.812728        -2.31398        0.998365
LJ          -1.98894         2.27767        0.059341
LJ          -2.40859        -1.95343       -0.451306
LJ          -1.23878         1.00119        -1.15923
LJ          -1.89878         1.01814       -0.333835
LJ          -1.32597       -0.180188        -1.17943
LJ         -0.145941       -0.559514       -0.423472
LJ         -0.392378        0.575132        0.319526
LJ         -0.673608        -1.32541        -1.11909
LJ           1.16477        -1.53359        0.283166
LJ           1.97945       -0.571626        -0.50501
LJ          -2.49718           1.048        -1.18855
LJ         -0.266062       -0.685206        0.626315
LJ          0.869315       -0.768363       -0.579888
LJ          -2.01612         2.00668       -0.928786
LJ         -0.049347         1.42762       -0.596398
LJ           2.38454         2.04314         1.01827
LJ          -1.06961         1.75589        -0.51281
LJ         -0.784765         2.43362        0.195218
LJ          -1.56911         2.05315        -1.78439
LJ         -0.898497         2.10633         1.20295
LJ           1.81977        -2.38232      -0.0348249
LJ          0.663314         0.20296      -0.0577248
LJ          -2.37742        -2.28666        -1.55396
LJ           1.53681        -1.64631        -0.63609
LJ           1.49341       -0.445553        0.488431
LJ          -2.43104         -2.1073          0.8035
LJ          -1.65861       -0.894516         0.56767
LJ          -2.45567        -1.22227        -2.50465
LJ         -0.756272        -2.20322         1.99458
LJ          -1.41703        -2.12144        0.646932
LJ         0.0832655         2.33264         1.75595
LJ         -0.904851        -1.27974         1.26032
LJ          -1.43941         1.37687         0.50919
LJ         -0.231369         1.59401        0.586712
LJ           1.83476        -1.94606         1.61233
LJ            2.0034         2.29179        -0.92906
LJ           1.21862         2.39013         2.29695
LJ           2.35245        -1.06918         1.35173
LJ          -2.19466       -0.108262       -0.429399
LJ             1.265       0.0713692         1.59283
LJ          -1.79272       -0.431025         1.57502
LJ         -0.896159       0.0568109         1.20773
LJ          0.475487       -0.782448        -2.25083
LJ           0.41087        0.149095        0.986367
LJ         -0.505027       -0.469952        -1.72679
LJ          0.533941        -1.16201         1.25846
LJ           2.18579        -1.32688        0.325271
LJ          0.192446        0.681123         1.92599
LJ           2.03399        -1.92774         -2.1808
LJ           2.44805       -0.114965        0.639881
LJ           2.51808         1.08061        0.797138
LJ           2.13742        0.547882       -0.162037
LJ            2.4513        0.257222         1.57207
LJ         -0.881653         1.06615         1.55558
LJ          0.501733         1.21193         1.09643
LJ           -1.7285        0.252032        0.594615
LJ         -0.820726        0.918788        -2.03834
LJ          0.968613         1.32514       -0.168338
LJ           1.51689         1.12881         -1.0741
LJ           1.21855         1.10591           1.951
LJ           1.42702        0.592835        0.648092
